\ SCIP STATISTICS
\   Problem name     : Exercício 5(a) Lista Dualidade
\   Variables        : 6 (0 binary, 0 integer, 0 implicit integer, 6 continuous)
\   Constraints      : 2
Minimize
 Obj: +35 Kg do alimento 0 +30 Kg do alimento 1 +60 Kg do alimento 2 +50 Kg do alimento 3 +27 Kg do alimento 4
      +22 Kg do alimento 5
Subject to
 c1: +1 Kg do alimento 0 +2 Kg do alimento 2 +2 Kg do alimento 3 +1 Kg do alimento 4 +2 Kg do alimento 5
  >= +9
 c2: +1 Kg do alimento 1 +3 Kg do alimento 2 +1 Kg do alimento 3 +3 Kg do alimento 4 +2 Kg do alimento 5
  >= +19
Bounds
End
