\ SCIP STATISTICS
\   Problem name     : Master
\   Variables        : 129 (128 binary, 0 integer, 0 implicit integer, 1 continuous)
\   Constraints      : 53
Minimize
 Obj: +1 X0 +1 X1 +1 X2 +1 X3 +1 X4 +1 X5 +1 X6 +1 X7 +1 X8 +1 X9 +1 X10 +1 X11 +1 X12 +1 X13 +1 X14 +1 X15
      +1 X16 +1 X17 +1 X18 +1 X19 +1 X20 +1 X21 +1 X22 +1 X23 +1 X24 +1 X25 +1 X26 +1 X27 +1 X28 +1 X29
      +1 X30 +1 X31 +1 X32 +1 X33 +1 X34 +1 X35 +1 X36 +1 X37 +1 X38 +1 X39 +1 X40 +1 X41 +1 X42 +1 X43
      +1 X44 +1 X45 +1 X46 +1 X47 +1 X48 +1 X49 +1 X50 +1 X51 +1 X52 +1 X53 +1 X54 +1 X55 +1 X56 +1 X57
      +1 X58 +1 X59 +1 X60 +1 X61 +1 X62 +1 X63 +1 X64 +1 X65 +1 X66 +1 X67 +1 X68 +1 X69 +1 X70 +1 X71
      +1 X72 +1 X73 +1 X74 +1 X75 +1 X76 +1 X77 +1 X78 +1 X79 +1 X80 +1 X81 +1 X82 +1 X83 +1 X84 +1 X85
      +1 X86 +1 X87 +1 X88 +1 X89 +1 X90 +1 X91 +1 X92 +1 X93 +1 X94 +1 X95 +1 X96 +1 X97 +1 X98 +1 X99
      +1 X100 +1 X101 +1 X102 +1 X103 +1 X104 +1 X105 +1 X106 +1 X107 +1 X108 +1 X109 +1 X110 +1 X111
      +1 X112 +1 X113 +1 X114 +1 X115 +1 X116 +1 X117 +1 X118 +1 X119 +1 X120 +1 X121 +1 X122 +1 X123
      +1 X124 +1 X125 +1 X126 +1 X127 +1 theta
Subject to
 c1: +1 X0 +1 X3 +1 X4 +1 X6 = +1
 c2: +1 X7 +1 X11 +1 X12 +1 X13 +1 X17 +1 X18 +1 X19 = +1
 c3: +1 X21 +1 X27 +1 X28 +1 X29 +1 X30 +1 X31 +1 X42 +1 X43 +1 X44 +1 X45 +1 X46 +1 X47 +1 X48 +1 X49
  +1 X60 +1 X61 = +1
 c4: +1 X65 +1 X70 +1 X71 +1 X72 +1 X73 +1 X80 +1 X81 +1 X82 +1 X84 = +1
 c5: +1 X85 +1 X89 +1 X90 +1 X91 +1 X95 +1 X96 = +1
 c6: +1 X98 +1 X102 +1 X103 +1 X104 +1 X108 +1 X109 +1 X110 +1 X112 = +1
 c7: +1 X113 +1 X117 +1 X118 +1 X119 +1 X123 +1 X124 +1 X125 +1 X127 = +1
 c8: +1 X66 +1 X70 +1 X74 +1 X75 +1 X76 = +1
 c9: +1 X8 +1 X11 +1 X14 +1 X15 +1 X17 +1 X18 +1 X20 = +1
 c10: +1 X67 +1 X71 +1 X74 +1 X77 +1 X78 +1 X80 +1 X81 +1 X83 +1 X84 = +1
 c11: +1 X1 +1 X3 +1 X5 +1 X6 = +1
 c12: +1 X86 +1 X89 +1 X92 +1 X93 +1 X95 +1 X97 = +1
 c13: +1 X22 +1 X27 +1 X32 +1 X33 +1 X34 +1 X35 +1 X42 +1 X43 +1 X44 +1 X45 +1 X50 +1 X51 +1 X52 +1 X53
  +1 X54 +1 X55 +1 X60 +1 X61 +1 X62 +1 X63 +1 X64 = +1
 c14: +1 X99 +1 X102 +1 X105 +1 X106 +1 X108 +1 X109 +1 X111 +1 X112 = +1
 c15: +1 X114 +1 X117 +1 X120 +1 X121 +1 X123 +1 X124 +1 X126 +1 X127 = +1
 c16: +1 X23 +1 X28 +1 X32 +1 X36 +1 X37 +1 X38 +1 X42 +1 X46 +1 X47 +1 X50 +1 X51 +1 X52 +1 X56 +1 X57
  +1 X58 +1 X60 +1 X62 +1 X63 = +1
 c17: +1 X9 +1 X12 +1 X14 +1 X16 +1 X17 +1 X19 +1 X20 = +1
 c18: +1 X87 +1 X90 +1 X92 +1 X94 +1 X95 +1 X96 +1 X97 = +1
 c19: +1 X68 +1 X72 +1 X75 +1 X77 +1 X79 +1 X80 +1 X82 +1 X83 +1 X84 = +1
 c20: +1 X24 +1 X29 +1 X33 +1 X36 +1 X39 +1 X40 +1 X43 +1 X46 +1 X48 +1 X50 +1 X53 +1 X54 +1 X56 +1 X57
  +1 X59 +1 X61 +1 X62 +1 X64 = +1
 c21: +1 X100 +1 X103 +1 X105 +1 X107 +1 X108 +1 X110 +1 X111 +1 X112 = +1
 c22: +1 X115 +1 X118 +1 X120 +1 X122 +1 X123 +1 X125 +1 X126 +1 X127 = +1
 c23: +1 X2 +1 X4 +1 X5 +1 X6 = +1
 c24: +1 X25 +1 X30 +1 X34 +1 X37 +1 X39 +1 X41 +1 X44 +1 X47 +1 X48 +1 X49 +1 X51 +1 X53 +1 X55 +1 X56
  +1 X58 +1 X59 +1 X60 +1 X61 +1 X62 +1 X63 +1 X64 = +1
 c25: +1 X10 +1 X13 +1 X15 +1 X16 +1 X18 +1 X19 +1 X20 = +1
 c26: +1 X88 +1 X91 +1 X93 +1 X94 +1 X96 +1 X97 = +1
 c27: +1 X69 +1 X73 +1 X76 +1 X78 +1 X79 +1 X81 +1 X82 +1 X83 +1 X84 = +1
 c28: +1 X101 +1 X104 +1 X106 +1 X107 +1 X109 +1 X110 +1 X111 +1 X112 = +1
 c29: +1 X26 +1 X31 +1 X35 +1 X38 +1 X40 +1 X41 +1 X45 +1 X49 +1 X52 +1 X54 +1 X55 +1 X57 +1 X58 +1 X59
  +1 X63 +1 X64 = +1
 c30: +1 X116 +1 X119 +1 X121 +1 X122 +1 X124 +1 X125 +1 X126 +1 X127 = +1
 c31: +1 theta -75 X6 -75 X11 -75 X16 -75 X40 -75 X60 -75 X66 -75 X84 -75 X90 -75 X93 -75 X112 -75 X127
  +75 X0 +75 X1 +75 X2 +75 X3 +75 X4 +75 X5 +75 X7 +75 X8 +75 X9 +75 X10 +75 X12 +75 X13 +75 X14 +75 X15
  +75 X17 +75 X18 +75 X19 +75 X20 +75 X21 +75 X22 +75 X23 +75 X24 +75 X25 +75 X26 +75 X27 +75 X28 +75 X29
  +75 X30 +75 X31 +75 X32 +75 X33 +75 X34 +75 X35 +75 X36 +75 X37 +75 X38 +75 X39 +75 X41 +75 X42 +75 X43
  +75 X44 +75 X45 +75 X46 +75 X47 +75 X48 +75 X49 +75 X50 +75 X51 +75 X52 +75 X53 +75 X54 +75 X55 +75 X56
  +75 X57 +75 X58 +75 X59 +75 X61 +75 X62 +75 X63 +75 X64 +75 X65 +75 X67 +75 X68 +75 X69 +75 X70 +75 X71
  +75 X72 +75 X73 +75 X74 +75 X75 +75 X76 +75 X77 +75 X78 +75 X79 +75 X80 +75 X81 +75 X82 +75 X83 +75 X85
  +75 X86 +75 X87 +75 X88 +75 X89 +75 X91 +75 X92 +75 X94 +75 X95 +75 X96 +75 X97 +75 X98 +75 X99 +75 X100
  +75 X101 +75 X102 +75 X103 +75 X104 +75 X105 +75 X106 +75 X107 +75 X108 +75 X109 +75 X110 +75 X111 +75 X113
  +75 X114 +75 X115 +75 X116 +75 X117 +75 X118 +75 X119 +75 X120 +75 X121 +75 X122 +75 X123 +75 X124 +75 X125
  +75 X126 >= -585
 c32: +1 theta -75 X6 -75 X10 -75 X17 -75 X40 -75 X60 -75 X66 -75 X84 -75 X88 -75 X95 -75 X112 -75 X127
  +75 X0 +75 X1 +75 X2 +75 X3 +75 X4 +75 X5 +75 X7 +75 X8 +75 X9 +75 X11 +75 X12 +75 X13 +75 X14 +75 X15
  +75 X16 +75 X18 +75 X19 +75 X20 +75 X21 +75 X22 +75 X23 +75 X24 +75 X25 +75 X26 +75 X27 +75 X28 +75 X29
  +75 X30 +75 X31 +75 X32 +75 X33 +75 X34 +75 X35 +75 X36 +75 X37 +75 X38 +75 X39 +75 X41 +75 X42 +75 X43
  +75 X44 +75 X45 +75 X46 +75 X47 +75 X48 +75 X49 +75 X50 +75 X51 +75 X52 +75 X53 +75 X54 +75 X55 +75 X56
  +75 X57 +75 X58 +75 X59 +75 X61 +75 X62 +75 X63 +75 X64 +75 X65 +75 X67 +75 X68 +75 X69 +75 X70 +75 X71
  +75 X72 +75 X73 +75 X74 +75 X75 +75 X76 +75 X77 +75 X78 +75 X79 +75 X80 +75 X81 +75 X82 +75 X83 +75 X85
  +75 X86 +75 X87 +75 X89 +75 X90 +75 X91 +75 X92 +75 X93 +75 X94 +75 X96 +75 X97 +75 X98 +75 X99 +75 X100
  +75 X101 +75 X102 +75 X103 +75 X104 +75 X105 +75 X106 +75 X107 +75 X108 +75 X109 +75 X110 +75 X111 +75 X113
  +75 X114 +75 X115 +75 X116 +75 X117 +75 X118 +75 X119 +75 X120 +75 X121 +75 X122 +75 X123 +75 X124 +75 X125
  +75 X126 >= -585
 c33: +1 theta -75 X6 -75 X9 -75 X18 -75 X40 -75 X60 -75 X66 -75 X84 -75 X86 -75 X96 -75 X112 -75 X127
  +75 X0 +75 X1 +75 X2 +75 X3 +75 X4 +75 X5 +75 X7 +75 X8 +75 X10 +75 X11 +75 X12 +75 X13 +75 X14 +75 X15
  +75 X16 +75 X17 +75 X19 +75 X20 +75 X21 +75 X22 +75 X23 +75 X24 +75 X25 +75 X26 +75 X27 +75 X28 +75 X29
  +75 X30 +75 X31 +75 X32 +75 X33 +75 X34 +75 X35 +75 X36 +75 X37 +75 X38 +75 X39 +75 X41 +75 X42 +75 X43
  +75 X44 +75 X45 +75 X46 +75 X47 +75 X48 +75 X49 +75 X50 +75 X51 +75 X52 +75 X53 +75 X54 +75 X55 +75 X56
  +75 X57 +75 X58 +75 X59 +75 X61 +75 X62 +75 X63 +75 X64 +75 X65 +75 X67 +75 X68 +75 X69 +75 X70 +75 X71
  +75 X72 +75 X73 +75 X74 +75 X75 +75 X76 +75 X77 +75 X78 +75 X79 +75 X80 +75 X81 +75 X82 +75 X83 +75 X85
  +75 X87 +75 X88 +75 X89 +75 X90 +75 X91 +75 X92 +75 X93 +75 X94 +75 X95 +75 X97 +75 X98 +75 X99 +75 X100
  +75 X101 +75 X102 +75 X103 +75 X104 +75 X105 +75 X106 +75 X107 +75 X108 +75 X109 +75 X110 +75 X111 +75 X113
  +75 X114 +75 X115 +75 X116 +75 X117 +75 X118 +75 X119 +75 X120 +75 X121 +75 X122 +75 X123 +75 X124 +75 X125
  +75 X126 >= -585
 c34: +1 theta -75 X6 -75 X9 -75 X18 -75 X40 -75 X60 -75 X66 -75 X84 -75 X88 -75 X95 -75 X112 -75 X127
  +75 X0 +75 X1 +75 X2 +75 X3 +75 X4 +75 X5 +75 X7 +75 X8 +75 X10 +75 X11 +75 X12 +75 X13 +75 X14 +75 X15
  +75 X16 +75 X17 +75 X19 +75 X20 +75 X21 +75 X22 +75 X23 +75 X24 +75 X25 +75 X26 +75 X27 +75 X28 +75 X29
  +75 X30 +75 X31 +75 X32 +75 X33 +75 X34 +75 X35 +75 X36 +75 X37 +75 X38 +75 X39 +75 X41 +75 X42 +75 X43
  +75 X44 +75 X45 +75 X46 +75 X47 +75 X48 +75 X49 +75 X50 +75 X51 +75 X52 +75 X53 +75 X54 +75 X55 +75 X56
  +75 X57 +75 X58 +75 X59 +75 X61 +75 X62 +75 X63 +75 X64 +75 X65 +75 X67 +75 X68 +75 X69 +75 X70 +75 X71
  +75 X72 +75 X73 +75 X74 +75 X75 +75 X76 +75 X77 +75 X78 +75 X79 +75 X80 +75 X81 +75 X82 +75 X83 +75 X85
  +75 X86 +75 X87 +75 X89 +75 X90 +75 X91 +75 X92 +75 X93 +75 X94 +75 X96 +75 X97 +75 X98 +75 X99 +75 X100
  +75 X101 +75 X102 +75 X103 +75 X104 +75 X105 +75 X106 +75 X107 +75 X108 +75 X109 +75 X110 +75 X111 +75 X113
  +75 X114 +75 X115 +75 X116 +75 X117 +75 X118 +75 X119 +75 X120 +75 X121 +75 X122 +75 X123 +75 X124 +75 X125
  +75 X126 >= -585
 c35: +1 theta -75 X6 -75 X7 -75 X20 -75 X49 -75 X50 -75 X66 -75 X84 -75 X90 -75 X93 -75 X112 -75 X127
  +75 X0 +75 X1 +75 X2 +75 X3 +75 X4 +75 X5 +75 X8 +75 X9 +75 X10 +75 X11 +75 X12 +75 X13 +75 X14 +75 X15
  +75 X16 +75 X17 +75 X18 +75 X19 +75 X21 +75 X22 +75 X23 +75 X24 +75 X25 +75 X26 +75 X27 +75 X28 +75 X29
  +75 X30 +75 X31 +75 X32 +75 X33 +75 X34 +75 X35 +75 X36 +75 X37 +75 X38 +75 X39 +75 X40 +75 X41 +75 X42
  +75 X43 +75 X44 +75 X45 +75 X46 +75 X47 +75 X48 +75 X51 +75 X52 +75 X53 +75 X54 +75 X55 +75 X56 +75 X57
  +75 X58 +75 X59 +75 X60 +75 X61 +75 X62 +75 X63 +75 X64 +75 X65 +75 X67 +75 X68 +75 X69 +75 X70 +75 X71
  +75 X72 +75 X73 +75 X74 +75 X75 +75 X76 +75 X77 +75 X78 +75 X79 +75 X80 +75 X81 +75 X82 +75 X83 +75 X85
  +75 X86 +75 X87 +75 X88 +75 X89 +75 X91 +75 X92 +75 X94 +75 X95 +75 X96 +75 X97 +75 X98 +75 X99 +75 X100
  +75 X101 +75 X102 +75 X103 +75 X104 +75 X105 +75 X106 +75 X107 +75 X108 +75 X109 +75 X110 +75 X111 +75 X113
  +75 X114 +75 X115 +75 X116 +75 X117 +75 X118 +75 X119 +75 X120 +75 X121 +75 X122 +75 X123 +75 X124 +75 X125
  +75 X126 >= -585
 c36: +1 theta -75 X6 -75 X11 -75 X16 -75 X49 -75 X50 -75 X66 -75 X84 -75 X90 -75 X93 -75 X112 -75 X127
  +75 X0 +75 X1 +75 X2 +75 X3 +75 X4 +75 X5 +75 X7 +75 X8 +75 X9 +75 X10 +75 X12 +75 X13 +75 X14 +75 X15
  +75 X17 +75 X18 +75 X19 +75 X20 +75 X21 +75 X22 +75 X23 +75 X24 +75 X25 +75 X26 +75 X27 +75 X28 +75 X29
  +75 X30 +75 X31 +75 X32 +75 X33 +75 X34 +75 X35 +75 X36 +75 X37 +75 X38 +75 X39 +75 X40 +75 X41 +75 X42
  +75 X43 +75 X44 +75 X45 +75 X46 +75 X47 +75 X48 +75 X51 +75 X52 +75 X53 +75 X54 +75 X55 +75 X56 +75 X57
  +75 X58 +75 X59 +75 X60 +75 X61 +75 X62 +75 X63 +75 X64 +75 X65 +75 X67 +75 X68 +75 X69 +75 X70 +75 X71
  +75 X72 +75 X73 +75 X74 +75 X75 +75 X76 +75 X77 +75 X78 +75 X79 +75 X80 +75 X81 +75 X82 +75 X83 +75 X85
  +75 X86 +75 X87 +75 X88 +75 X89 +75 X91 +75 X92 +75 X94 +75 X95 +75 X96 +75 X97 +75 X98 +75 X99 +75 X100
  +75 X101 +75 X102 +75 X103 +75 X104 +75 X105 +75 X106 +75 X107 +75 X108 +75 X109 +75 X110 +75 X111 +75 X113
  +75 X114 +75 X115 +75 X116 +75 X117 +75 X118 +75 X119 +75 X120 +75 X121 +75 X122 +75 X123 +75 X124 +75 X125
  +75 X126 >= -585
 c37: +1 theta -75 X6 -75 X8 -75 X19 -75 X38 -75 X61 -75 X66 -75 X84 -75 X90 -75 X93 -75 X112 -75 X127
  +75 X0 +75 X1 +75 X2 +75 X3 +75 X4 +75 X5 +75 X7 +75 X9 +75 X10 +75 X11 +75 X12 +75 X13 +75 X14 +75 X15
  +75 X16 +75 X17 +75 X18 +75 X20 +75 X21 +75 X22 +75 X23 +75 X24 +75 X25 +75 X26 +75 X27 +75 X28 +75 X29
  +75 X30 +75 X31 +75 X32 +75 X33 +75 X34 +75 X35 +75 X36 +75 X37 +75 X39 +75 X40 +75 X41 +75 X42 +75 X43
  +75 X44 +75 X45 +75 X46 +75 X47 +75 X48 +75 X49 +75 X50 +75 X51 +75 X52 +75 X53 +75 X54 +75 X55 +75 X56
  +75 X57 +75 X58 +75 X59 +75 X60 +75 X62 +75 X63 +75 X64 +75 X65 +75 X67 +75 X68 +75 X69 +75 X70 +75 X71
  +75 X72 +75 X73 +75 X74 +75 X75 +75 X76 +75 X77 +75 X78 +75 X79 +75 X80 +75 X81 +75 X82 +75 X83 +75 X85
  +75 X86 +75 X87 +75 X88 +75 X89 +75 X91 +75 X92 +75 X94 +75 X95 +75 X96 +75 X97 +75 X98 +75 X99 +75 X100
  +75 X101 +75 X102 +75 X103 +75 X104 +75 X105 +75 X106 +75 X107 +75 X108 +75 X109 +75 X110 +75 X111 +75 X113
  +75 X114 +75 X115 +75 X116 +75 X117 +75 X118 +75 X119 +75 X120 +75 X121 +75 X122 +75 X123 +75 X124 +75 X125
  +75 X126 >= -585
 c38: +1 theta -75 X6 -75 X11 -75 X16 -75 X38 -75 X61 -75 X66 -75 X84 -75 X90 -75 X93 -75 X112 -75 X127
  +75 X0 +75 X1 +75 X2 +75 X3 +75 X4 +75 X5 +75 X7 +75 X8 +75 X9 +75 X10 +75 X12 +75 X13 +75 X14 +75 X15
  +75 X17 +75 X18 +75 X19 +75 X20 +75 X21 +75 X22 +75 X23 +75 X24 +75 X25 +75 X26 +75 X27 +75 X28 +75 X29
  +75 X30 +75 X31 +75 X32 +75 X33 +75 X34 +75 X35 +75 X36 +75 X37 +75 X39 +75 X40 +75 X41 +75 X42 +75 X43
  +75 X44 +75 X45 +75 X46 +75 X47 +75 X48 +75 X49 +75 X50 +75 X51 +75 X52 +75 X53 +75 X54 +75 X55 +75 X56
  +75 X57 +75 X58 +75 X59 +75 X60 +75 X62 +75 X63 +75 X64 +75 X65 +75 X67 +75 X68 +75 X69 +75 X70 +75 X71
  +75 X72 +75 X73 +75 X74 +75 X75 +75 X76 +75 X77 +75 X78 +75 X79 +75 X80 +75 X81 +75 X82 +75 X83 +75 X85
  +75 X86 +75 X87 +75 X88 +75 X89 +75 X91 +75 X92 +75 X94 +75 X95 +75 X96 +75 X97 +75 X98 +75 X99 +75 X100
  +75 X101 +75 X102 +75 X103 +75 X104 +75 X105 +75 X106 +75 X107 +75 X108 +75 X109 +75 X110 +75 X111 +75 X113
  +75 X114 +75 X115 +75 X116 +75 X117 +75 X118 +75 X119 +75 X120 +75 X121 +75 X122 +75 X123 +75 X124 +75 X125
  +75 X126 >= -585
 c39: +1 theta -75 X6 -75 X10 -75 X17 -75 X29 -75 X63 -75 X66 -75 X84 -75 X90 -75 X93 -75 X112 -75 X127
  +75 X0 +75 X1 +75 X2 +75 X3 +75 X4 +75 X5 +75 X7 +75 X8 +75 X9 +75 X11 +75 X12 +75 X13 +75 X14 +75 X15
  +75 X16 +75 X18 +75 X19 +75 X20 +75 X21 +75 X22 +75 X23 +75 X24 +75 X25 +75 X26 +75 X27 +75 X28 +75 X30
  +75 X31 +75 X32 +75 X33 +75 X34 +75 X35 +75 X36 +75 X37 +75 X38 +75 X39 +75 X40 +75 X41 +75 X42 +75 X43
  +75 X44 +75 X45 +75 X46 +75 X47 +75 X48 +75 X49 +75 X50 +75 X51 +75 X52 +75 X53 +75 X54 +75 X55 +75 X56
  +75 X57 +75 X58 +75 X59 +75 X60 +75 X61 +75 X62 +75 X64 +75 X65 +75 X67 +75 X68 +75 X69 +75 X70 +75 X71
  +75 X72 +75 X73 +75 X74 +75 X75 +75 X76 +75 X77 +75 X78 +75 X79 +75 X80 +75 X81 +75 X82 +75 X83 +75 X85
  +75 X86 +75 X87 +75 X88 +75 X89 +75 X91 +75 X92 +75 X94 +75 X95 +75 X96 +75 X97 +75 X98 +75 X99 +75 X100
  +75 X101 +75 X102 +75 X103 +75 X104 +75 X105 +75 X106 +75 X107 +75 X108 +75 X109 +75 X110 +75 X111 +75 X113
  +75 X114 +75 X115 +75 X116 +75 X117 +75 X118 +75 X119 +75 X120 +75 X121 +75 X122 +75 X123 +75 X124 +75 X125
  +75 X126 >= -585
 c40: +1 theta -75 X6 -75 X9 -75 X18 -75 X29 -75 X63 -75 X66 -75 X84 -75 X90 -75 X93 -75 X112 -75 X127
  +75 X0 +75 X1 +75 X2 +75 X3 +75 X4 +75 X5 +75 X7 +75 X8 +75 X10 +75 X11 +75 X12 +75 X13 +75 X14 +75 X15
  +75 X16 +75 X17 +75 X19 +75 X20 +75 X21 +75 X22 +75 X23 +75 X24 +75 X25 +75 X26 +75 X27 +75 X28 +75 X30
  +75 X31 +75 X32 +75 X33 +75 X34 +75 X35 +75 X36 +75 X37 +75 X38 +75 X39 +75 X40 +75 X41 +75 X42 +75 X43
  +75 X44 +75 X45 +75 X46 +75 X47 +75 X48 +75 X49 +75 X50 +75 X51 +75 X52 +75 X53 +75 X54 +75 X55 +75 X56
  +75 X57 +75 X58 +75 X59 +75 X60 +75 X61 +75 X62 +75 X64 +75 X65 +75 X67 +75 X68 +75 X69 +75 X70 +75 X71
  +75 X72 +75 X73 +75 X74 +75 X75 +75 X76 +75 X77 +75 X78 +75 X79 +75 X80 +75 X81 +75 X82 +75 X83 +75 X85
  +75 X86 +75 X87 +75 X88 +75 X89 +75 X91 +75 X92 +75 X94 +75 X95 +75 X96 +75 X97 +75 X98 +75 X99 +75 X100
  +75 X101 +75 X102 +75 X103 +75 X104 +75 X105 +75 X106 +75 X107 +75 X108 +75 X109 +75 X110 +75 X111 +75 X113
  +75 X114 +75 X115 +75 X116 +75 X117 +75 X118 +75 X119 +75 X120 +75 X121 +75 X122 +75 X123 +75 X124 +75 X125
  +75 X126 >= -585
 c41: +1 theta -75 X6 -75 X12 -75 X15 -75 X29 -75 X63 -75 X66 -75 X84 -75 X90 -75 X93 -75 X112 -75 X127
  +75 X0 +75 X1 +75 X2 +75 X3 +75 X4 +75 X5 +75 X7 +75 X8 +75 X9 +75 X10 +75 X11 +75 X13 +75 X14 +75 X16
  +75 X17 +75 X18 +75 X19 +75 X20 +75 X21 +75 X22 +75 X23 +75 X24 +75 X25 +75 X26 +75 X27 +75 X28 +75 X30
  +75 X31 +75 X32 +75 X33 +75 X34 +75 X35 +75 X36 +75 X37 +75 X38 +75 X39 +75 X40 +75 X41 +75 X42 +75 X43
  +75 X44 +75 X45 +75 X46 +75 X47 +75 X48 +75 X49 +75 X50 +75 X51 +75 X52 +75 X53 +75 X54 +75 X55 +75 X56
  +75 X57 +75 X58 +75 X59 +75 X60 +75 X61 +75 X62 +75 X64 +75 X65 +75 X67 +75 X68 +75 X69 +75 X70 +75 X71
  +75 X72 +75 X73 +75 X74 +75 X75 +75 X76 +75 X77 +75 X78 +75 X79 +75 X80 +75 X81 +75 X82 +75 X83 +75 X85
  +75 X86 +75 X87 +75 X88 +75 X89 +75 X91 +75 X92 +75 X94 +75 X95 +75 X96 +75 X97 +75 X98 +75 X99 +75 X100
  +75 X101 +75 X102 +75 X103 +75 X104 +75 X105 +75 X106 +75 X107 +75 X108 +75 X109 +75 X110 +75 X111 +75 X113
  +75 X114 +75 X115 +75 X116 +75 X117 +75 X118 +75 X119 +75 X120 +75 X121 +75 X122 +75 X123 +75 X124 +75 X125
  +75 X126 >= -585
 c42: +1 theta -75 X6 -75 X7 -75 X20 -75 X29 -75 X63 -75 X66 -75 X84 -75 X90 -75 X93 -75 X112 -75 X127
  +75 X0 +75 X1 +75 X2 +75 X3 +75 X4 +75 X5 +75 X8 +75 X9 +75 X10 +75 X11 +75 X12 +75 X13 +75 X14 +75 X15
  +75 X16 +75 X17 +75 X18 +75 X19 +75 X21 +75 X22 +75 X23 +75 X24 +75 X25 +75 X26 +75 X27 +75 X28 +75 X30
  +75 X31 +75 X32 +75 X33 +75 X34 +75 X35 +75 X36 +75 X37 +75 X38 +75 X39 +75 X40 +75 X41 +75 X42 +75 X43
  +75 X44 +75 X45 +75 X46 +75 X47 +75 X48 +75 X49 +75 X50 +75 X51 +75 X52 +75 X53 +75 X54 +75 X55 +75 X56
  +75 X57 +75 X58 +75 X59 +75 X60 +75 X61 +75 X62 +75 X64 +75 X65 +75 X67 +75 X68 +75 X69 +75 X70 +75 X71
  +75 X72 +75 X73 +75 X74 +75 X75 +75 X76 +75 X77 +75 X78 +75 X79 +75 X80 +75 X81 +75 X82 +75 X83 +75 X85
  +75 X86 +75 X87 +75 X88 +75 X89 +75 X91 +75 X92 +75 X94 +75 X95 +75 X96 +75 X97 +75 X98 +75 X99 +75 X100
  +75 X101 +75 X102 +75 X103 +75 X104 +75 X105 +75 X106 +75 X107 +75 X108 +75 X109 +75 X110 +75 X111 +75 X113
  +75 X114 +75 X115 +75 X116 +75 X117 +75 X118 +75 X119 +75 X120 +75 X121 +75 X122 +75 X123 +75 X124 +75 X125
  +75 X126 >= -585
 c43: +1 theta -75 X6 -75 X9 -75 X18 -75 X28 -75 X64 -75 X66 -75 X84 -75 X86 -75 X96 -75 X112 -75 X127
  +75 X0 +75 X1 +75 X2 +75 X3 +75 X4 +75 X5 +75 X7 +75 X8 +75 X10 +75 X11 +75 X12 +75 X13 +75 X14 +75 X15
  +75 X16 +75 X17 +75 X19 +75 X20 +75 X21 +75 X22 +75 X23 +75 X24 +75 X25 +75 X26 +75 X27 +75 X29 +75 X30
  +75 X31 +75 X32 +75 X33 +75 X34 +75 X35 +75 X36 +75 X37 +75 X38 +75 X39 +75 X40 +75 X41 +75 X42 +75 X43
  +75 X44 +75 X45 +75 X46 +75 X47 +75 X48 +75 X49 +75 X50 +75 X51 +75 X52 +75 X53 +75 X54 +75 X55 +75 X56
  +75 X57 +75 X58 +75 X59 +75 X60 +75 X61 +75 X62 +75 X63 +75 X65 +75 X67 +75 X68 +75 X69 +75 X70 +75 X71
  +75 X72 +75 X73 +75 X74 +75 X75 +75 X76 +75 X77 +75 X78 +75 X79 +75 X80 +75 X81 +75 X82 +75 X83 +75 X85
  +75 X87 +75 X88 +75 X89 +75 X90 +75 X91 +75 X92 +75 X93 +75 X94 +75 X95 +75 X97 +75 X98 +75 X99 +75 X100
  +75 X101 +75 X102 +75 X103 +75 X104 +75 X105 +75 X106 +75 X107 +75 X108 +75 X109 +75 X110 +75 X111 +75 X113
  +75 X114 +75 X115 +75 X116 +75 X117 +75 X118 +75 X119 +75 X120 +75 X121 +75 X122 +75 X123 +75 X124 +75 X125
  +75 X126 >= -585
 c44: +1 theta -75 X6 -75 X7 -75 X20 -75 X29 -75 X63 -75 X66 -75 X84 -75 X86 -75 X96 -75 X112 -75 X127
  +75 X0 +75 X1 +75 X2 +75 X3 +75 X4 +75 X5 +75 X8 +75 X9 +75 X10 +75 X11 +75 X12 +75 X13 +75 X14 +75 X15
  +75 X16 +75 X17 +75 X18 +75 X19 +75 X21 +75 X22 +75 X23 +75 X24 +75 X25 +75 X26 +75 X27 +75 X28 +75 X30
  +75 X31 +75 X32 +75 X33 +75 X34 +75 X35 +75 X36 +75 X37 +75 X38 +75 X39 +75 X40 +75 X41 +75 X42 +75 X43
  +75 X44 +75 X45 +75 X46 +75 X47 +75 X48 +75 X49 +75 X50 +75 X51 +75 X52 +75 X53 +75 X54 +75 X55 +75 X56
  +75 X57 +75 X58 +75 X59 +75 X60 +75 X61 +75 X62 +75 X64 +75 X65 +75 X67 +75 X68 +75 X69 +75 X70 +75 X71
  +75 X72 +75 X73 +75 X74 +75 X75 +75 X76 +75 X77 +75 X78 +75 X79 +75 X80 +75 X81 +75 X82 +75 X83 +75 X85
  +75 X87 +75 X88 +75 X89 +75 X90 +75 X91 +75 X92 +75 X93 +75 X94 +75 X95 +75 X97 +75 X98 +75 X99 +75 X100
  +75 X101 +75 X102 +75 X103 +75 X104 +75 X105 +75 X106 +75 X107 +75 X108 +75 X109 +75 X110 +75 X111 +75 X113
  +75 X114 +75 X115 +75 X116 +75 X117 +75 X118 +75 X119 +75 X120 +75 X121 +75 X122 +75 X123 +75 X124 +75 X125
  +75 X126 >= -585
 c45: +1 theta -75 X6 -75 X8 -75 X19 -75 X29 -75 X63 -75 X66 -75 X84 -75 X86 -75 X96 -75 X112 -75 X127
  +75 X0 +75 X1 +75 X2 +75 X3 +75 X4 +75 X5 +75 X7 +75 X9 +75 X10 +75 X11 +75 X12 +75 X13 +75 X14 +75 X15
  +75 X16 +75 X17 +75 X18 +75 X20 +75 X21 +75 X22 +75 X23 +75 X24 +75 X25 +75 X26 +75 X27 +75 X28 +75 X30
  +75 X31 +75 X32 +75 X33 +75 X34 +75 X35 +75 X36 +75 X37 +75 X38 +75 X39 +75 X40 +75 X41 +75 X42 +75 X43
  +75 X44 +75 X45 +75 X46 +75 X47 +75 X48 +75 X49 +75 X50 +75 X51 +75 X52 +75 X53 +75 X54 +75 X55 +75 X56
  +75 X57 +75 X58 +75 X59 +75 X60 +75 X61 +75 X62 +75 X64 +75 X65 +75 X67 +75 X68 +75 X69 +75 X70 +75 X71
  +75 X72 +75 X73 +75 X74 +75 X75 +75 X76 +75 X77 +75 X78 +75 X79 +75 X80 +75 X81 +75 X82 +75 X83 +75 X85
  +75 X87 +75 X88 +75 X89 +75 X90 +75 X91 +75 X92 +75 X93 +75 X94 +75 X95 +75 X97 +75 X98 +75 X99 +75 X100
  +75 X101 +75 X102 +75 X103 +75 X104 +75 X105 +75 X106 +75 X107 +75 X108 +75 X109 +75 X110 +75 X111 +75 X113
  +75 X114 +75 X115 +75 X116 +75 X117 +75 X118 +75 X119 +75 X120 +75 X121 +75 X122 +75 X123 +75 X124 +75 X125
  +75 X126 >= -585
 c46: +1 theta -75 X6 -75 X9 -75 X18 -75 X29 -75 X63 -75 X66 -75 X84 -75 X89 -75 X94 -75 X112 -75 X127
  +75 X0 +75 X1 +75 X2 +75 X3 +75 X4 +75 X5 +75 X7 +75 X8 +75 X10 +75 X11 +75 X12 +75 X13 +75 X14 +75 X15
  +75 X16 +75 X17 +75 X19 +75 X20 +75 X21 +75 X22 +75 X23 +75 X24 +75 X25 +75 X26 +75 X27 +75 X28 +75 X30
  +75 X31 +75 X32 +75 X33 +75 X34 +75 X35 +75 X36 +75 X37 +75 X38 +75 X39 +75 X40 +75 X41 +75 X42 +75 X43
  +75 X44 +75 X45 +75 X46 +75 X47 +75 X48 +75 X49 +75 X50 +75 X51 +75 X52 +75 X53 +75 X54 +75 X55 +75 X56
  +75 X57 +75 X58 +75 X59 +75 X60 +75 X61 +75 X62 +75 X64 +75 X65 +75 X67 +75 X68 +75 X69 +75 X70 +75 X71
  +75 X72 +75 X73 +75 X74 +75 X75 +75 X76 +75 X77 +75 X78 +75 X79 +75 X80 +75 X81 +75 X82 +75 X83 +75 X85
  +75 X86 +75 X87 +75 X88 +75 X90 +75 X91 +75 X92 +75 X93 +75 X95 +75 X96 +75 X97 +75 X98 +75 X99 +75 X100
  +75 X101 +75 X102 +75 X103 +75 X104 +75 X105 +75 X106 +75 X107 +75 X108 +75 X109 +75 X110 +75 X111 +75 X113
  +75 X114 +75 X115 +75 X116 +75 X117 +75 X118 +75 X119 +75 X120 +75 X121 +75 X122 +75 X123 +75 X124 +75 X125
  +75 X126 >= -585
 c47: +1 theta -75 X6 -75 X13 -75 X14 -75 X29 -75 X63 -75 X66 -75 X84 -75 X89 -75 X94 -75 X112 -75 X127
  +75 X0 +75 X1 +75 X2 +75 X3 +75 X4 +75 X5 +75 X7 +75 X8 +75 X9 +75 X10 +75 X11 +75 X12 +75 X15 +75 X16
  +75 X17 +75 X18 +75 X19 +75 X20 +75 X21 +75 X22 +75 X23 +75 X24 +75 X25 +75 X26 +75 X27 +75 X28 +75 X30
  +75 X31 +75 X32 +75 X33 +75 X34 +75 X35 +75 X36 +75 X37 +75 X38 +75 X39 +75 X40 +75 X41 +75 X42 +75 X43
  +75 X44 +75 X45 +75 X46 +75 X47 +75 X48 +75 X49 +75 X50 +75 X51 +75 X52 +75 X53 +75 X54 +75 X55 +75 X56
  +75 X57 +75 X58 +75 X59 +75 X60 +75 X61 +75 X62 +75 X64 +75 X65 +75 X67 +75 X68 +75 X69 +75 X70 +75 X71
  +75 X72 +75 X73 +75 X74 +75 X75 +75 X76 +75 X77 +75 X78 +75 X79 +75 X80 +75 X81 +75 X82 +75 X83 +75 X85
  +75 X86 +75 X87 +75 X88 +75 X90 +75 X91 +75 X92 +75 X93 +75 X95 +75 X96 +75 X97 +75 X98 +75 X99 +75 X100
  +75 X101 +75 X102 +75 X103 +75 X104 +75 X105 +75 X106 +75 X107 +75 X108 +75 X109 +75 X110 +75 X111 +75 X113
  +75 X114 +75 X115 +75 X116 +75 X117 +75 X118 +75 X119 +75 X120 +75 X121 +75 X122 +75 X123 +75 X124 +75 X125
  +75 X126 >= -585
 c48: +1 theta -75 X6 -75 X8 -75 X19 -75 X28 -75 X64 -75 X66 -75 X84 -75 X88 -75 X95 -75 X112 -75 X127
  +75 X0 +75 X1 +75 X2 +75 X3 +75 X4 +75 X5 +75 X7 +75 X9 +75 X10 +75 X11 +75 X12 +75 X13 +75 X14 +75 X15
  +75 X16 +75 X17 +75 X18 +75 X20 +75 X21 +75 X22 +75 X23 +75 X24 +75 X25 +75 X26 +75 X27 +75 X29 +75 X30
  +75 X31 +75 X32 +75 X33 +75 X34 +75 X35 +75 X36 +75 X37 +75 X38 +75 X39 +75 X40 +75 X41 +75 X42 +75 X43
  +75 X44 +75 X45 +75 X46 +75 X47 +75 X48 +75 X49 +75 X50 +75 X51 +75 X52 +75 X53 +75 X54 +75 X55 +75 X56
  +75 X57 +75 X58 +75 X59 +75 X60 +75 X61 +75 X62 +75 X63 +75 X65 +75 X67 +75 X68 +75 X69 +75 X70 +75 X71
  +75 X72 +75 X73 +75 X74 +75 X75 +75 X76 +75 X77 +75 X78 +75 X79 +75 X80 +75 X81 +75 X82 +75 X83 +75 X85
  +75 X86 +75 X87 +75 X89 +75 X90 +75 X91 +75 X92 +75 X93 +75 X94 +75 X96 +75 X97 +75 X98 +75 X99 +75 X100
  +75 X101 +75 X102 +75 X103 +75 X104 +75 X105 +75 X106 +75 X107 +75 X108 +75 X109 +75 X110 +75 X111 +75 X113
  +75 X114 +75 X115 +75 X116 +75 X117 +75 X118 +75 X119 +75 X120 +75 X121 +75 X122 +75 X123 +75 X124 +75 X125
  +75 X126 >= -585
 c49: +1 theta -75 X6 -75 X11 -75 X16 -75 X29 -75 X63 -75 X66 -75 X84 -75 X85 -75 X97 -75 X112 -75 X127
  +75 X0 +75 X1 +75 X2 +75 X3 +75 X4 +75 X5 +75 X7 +75 X8 +75 X9 +75 X10 +75 X12 +75 X13 +75 X14 +75 X15
  +75 X17 +75 X18 +75 X19 +75 X20 +75 X21 +75 X22 +75 X23 +75 X24 +75 X25 +75 X26 +75 X27 +75 X28 +75 X30
  +75 X31 +75 X32 +75 X33 +75 X34 +75 X35 +75 X36 +75 X37 +75 X38 +75 X39 +75 X40 +75 X41 +75 X42 +75 X43
  +75 X44 +75 X45 +75 X46 +75 X47 +75 X48 +75 X49 +75 X50 +75 X51 +75 X52 +75 X53 +75 X54 +75 X55 +75 X56
  +75 X57 +75 X58 +75 X59 +75 X60 +75 X61 +75 X62 +75 X64 +75 X65 +75 X67 +75 X68 +75 X69 +75 X70 +75 X71
  +75 X72 +75 X73 +75 X74 +75 X75 +75 X76 +75 X77 +75 X78 +75 X79 +75 X80 +75 X81 +75 X82 +75 X83 +75 X86
  +75 X87 +75 X88 +75 X89 +75 X90 +75 X91 +75 X92 +75 X93 +75 X94 +75 X95 +75 X96 +75 X98 +75 X99 +75 X100
  +75 X101 +75 X102 +75 X103 +75 X104 +75 X105 +75 X106 +75 X107 +75 X108 +75 X109 +75 X110 +75 X111 +75 X113
  +75 X114 +75 X115 +75 X116 +75 X117 +75 X118 +75 X119 +75 X120 +75 X121 +75 X122 +75 X123 +75 X124 +75 X125
  +75 X126 >= -585
 c50: +1 theta -75 X6 -75 X13 -75 X14 -75 X28 -75 X64 -75 X66 -75 X84 -75 X89 -75 X94 -75 X112 -75 X127
  +75 X0 +75 X1 +75 X2 +75 X3 +75 X4 +75 X5 +75 X7 +75 X8 +75 X9 +75 X10 +75 X11 +75 X12 +75 X15 +75 X16
  +75 X17 +75 X18 +75 X19 +75 X20 +75 X21 +75 X22 +75 X23 +75 X24 +75 X25 +75 X26 +75 X27 +75 X29 +75 X30
  +75 X31 +75 X32 +75 X33 +75 X34 +75 X35 +75 X36 +75 X37 +75 X38 +75 X39 +75 X40 +75 X41 +75 X42 +75 X43
  +75 X44 +75 X45 +75 X46 +75 X47 +75 X48 +75 X49 +75 X50 +75 X51 +75 X52 +75 X53 +75 X54 +75 X55 +75 X56
  +75 X57 +75 X58 +75 X59 +75 X60 +75 X61 +75 X62 +75 X63 +75 X65 +75 X67 +75 X68 +75 X69 +75 X70 +75 X71
  +75 X72 +75 X73 +75 X74 +75 X75 +75 X76 +75 X77 +75 X78 +75 X79 +75 X80 +75 X81 +75 X82 +75 X83 +75 X85
  +75 X86 +75 X87 +75 X88 +75 X90 +75 X91 +75 X92 +75 X93 +75 X95 +75 X96 +75 X97 +75 X98 +75 X99 +75 X100
  +75 X101 +75 X102 +75 X103 +75 X104 +75 X105 +75 X106 +75 X107 +75 X108 +75 X109 +75 X110 +75 X111 +75 X113
  +75 X114 +75 X115 +75 X116 +75 X117 +75 X118 +75 X119 +75 X120 +75 X121 +75 X122 +75 X123 +75 X124 +75 X125
  +75 X126 >= -585
 c51: +1 theta -75 X6 -75 X10 -75 X17 -75 X49 -75 X50 -75 X66 -75 X84 -75 X90 -75 X93 -75 X112 -75 X127
  +75 X0 +75 X1 +75 X2 +75 X3 +75 X4 +75 X5 +75 X7 +75 X8 +75 X9 +75 X11 +75 X12 +75 X13 +75 X14 +75 X15
  +75 X16 +75 X18 +75 X19 +75 X20 +75 X21 +75 X22 +75 X23 +75 X24 +75 X25 +75 X26 +75 X27 +75 X28 +75 X29
  +75 X30 +75 X31 +75 X32 +75 X33 +75 X34 +75 X35 +75 X36 +75 X37 +75 X38 +75 X39 +75 X40 +75 X41 +75 X42
  +75 X43 +75 X44 +75 X45 +75 X46 +75 X47 +75 X48 +75 X51 +75 X52 +75 X53 +75 X54 +75 X55 +75 X56 +75 X57
  +75 X58 +75 X59 +75 X60 +75 X61 +75 X62 +75 X63 +75 X64 +75 X65 +75 X67 +75 X68 +75 X69 +75 X70 +75 X71
  +75 X72 +75 X73 +75 X74 +75 X75 +75 X76 +75 X77 +75 X78 +75 X79 +75 X80 +75 X81 +75 X82 +75 X83 +75 X85
  +75 X86 +75 X87 +75 X88 +75 X89 +75 X91 +75 X92 +75 X94 +75 X95 +75 X96 +75 X97 +75 X98 +75 X99 +75 X100
  +75 X101 +75 X102 +75 X103 +75 X104 +75 X105 +75 X106 +75 X107 +75 X108 +75 X109 +75 X110 +75 X111 +75 X113
  +75 X114 +75 X115 +75 X116 +75 X117 +75 X118 +75 X119 +75 X120 +75 X121 +75 X122 +75 X123 +75 X124 +75 X125
  +75 X126 >= -585
 c52: +1 theta -75 X6 -75 X8 -75 X19 -75 X49 -75 X50 -75 X66 -75 X84 -75 X90 -75 X93 -75 X112 -75 X127
  +75 X0 +75 X1 +75 X2 +75 X3 +75 X4 +75 X5 +75 X7 +75 X9 +75 X10 +75 X11 +75 X12 +75 X13 +75 X14 +75 X15
  +75 X16 +75 X17 +75 X18 +75 X20 +75 X21 +75 X22 +75 X23 +75 X24 +75 X25 +75 X26 +75 X27 +75 X28 +75 X29
  +75 X30 +75 X31 +75 X32 +75 X33 +75 X34 +75 X35 +75 X36 +75 X37 +75 X38 +75 X39 +75 X40 +75 X41 +75 X42
  +75 X43 +75 X44 +75 X45 +75 X46 +75 X47 +75 X48 +75 X51 +75 X52 +75 X53 +75 X54 +75 X55 +75 X56 +75 X57
  +75 X58 +75 X59 +75 X60 +75 X61 +75 X62 +75 X63 +75 X64 +75 X65 +75 X67 +75 X68 +75 X69 +75 X70 +75 X71
  +75 X72 +75 X73 +75 X74 +75 X75 +75 X76 +75 X77 +75 X78 +75 X79 +75 X80 +75 X81 +75 X82 +75 X83 +75 X85
  +75 X86 +75 X87 +75 X88 +75 X89 +75 X91 +75 X92 +75 X94 +75 X95 +75 X96 +75 X97 +75 X98 +75 X99 +75 X100
  +75 X101 +75 X102 +75 X103 +75 X104 +75 X105 +75 X106 +75 X107 +75 X108 +75 X109 +75 X110 +75 X111 +75 X113
  +75 X114 +75 X115 +75 X116 +75 X117 +75 X118 +75 X119 +75 X120 +75 X121 +75 X122 +75 X123 +75 X124 +75 X125
  +75 X126 >= -585
 c53: +1 theta -75 X6 -75 X10 -75 X17 -75 X49 -75 X50 -75 X66 -75 X84 -75 X85 -75 X97 -75 X112 -75 X127
  +75 X0 +75 X1 +75 X2 +75 X3 +75 X4 +75 X5 +75 X7 +75 X8 +75 X9 +75 X11 +75 X12 +75 X13 +75 X14 +75 X15
  +75 X16 +75 X18 +75 X19 +75 X20 +75 X21 +75 X22 +75 X23 +75 X24 +75 X25 +75 X26 +75 X27 +75 X28 +75 X29
  +75 X30 +75 X31 +75 X32 +75 X33 +75 X34 +75 X35 +75 X36 +75 X37 +75 X38 +75 X39 +75 X40 +75 X41 +75 X42
  +75 X43 +75 X44 +75 X45 +75 X46 +75 X47 +75 X48 +75 X51 +75 X52 +75 X53 +75 X54 +75 X55 +75 X56 +75 X57
  +75 X58 +75 X59 +75 X60 +75 X61 +75 X62 +75 X63 +75 X64 +75 X65 +75 X67 +75 X68 +75 X69 +75 X70 +75 X71
  +75 X72 +75 X73 +75 X74 +75 X75 +75 X76 +75 X77 +75 X78 +75 X79 +75 X80 +75 X81 +75 X82 +75 X83 +75 X86
  +75 X87 +75 X88 +75 X89 +75 X90 +75 X91 +75 X92 +75 X93 +75 X94 +75 X95 +75 X96 +75 X98 +75 X99 +75 X100
  +75 X101 +75 X102 +75 X103 +75 X104 +75 X105 +75 X106 +75 X107 +75 X108 +75 X109 +75 X110 +75 X111 +75 X113
  +75 X114 +75 X115 +75 X116 +75 X117 +75 X118 +75 X119 +75 X120 +75 X121 +75 X122 +75 X123 +75 X124 +75 X125
  +75 X126 >= -585
Bounds
 0 <= X0 <= 1
 0 <= X1 <= 1
 0 <= X2 <= 1
 0 <= X3 <= 1
 0 <= X4 <= 1
 0 <= X5 <= 1
 0 <= X6 <= 1
 0 <= X7 <= 1
 0 <= X8 <= 1
 0 <= X9 <= 1
 0 <= X10 <= 1
 0 <= X11 <= 1
 0 <= X12 <= 1
 0 <= X13 <= 1
 0 <= X14 <= 1
 0 <= X15 <= 1
 0 <= X16 <= 1
 0 <= X17 <= 1
 0 <= X18 <= 1
 0 <= X19 <= 1
 0 <= X20 <= 1
 0 <= X21 <= 1
 0 <= X22 <= 1
 0 <= X23 <= 1
 0 <= X24 <= 1
 0 <= X25 <= 1
 0 <= X26 <= 1
 0 <= X27 <= 1
 0 <= X28 <= 1
 0 <= X29 <= 1
 0 <= X30 <= 1
 0 <= X31 <= 1
 0 <= X32 <= 1
 0 <= X33 <= 1
 0 <= X34 <= 1
 0 <= X35 <= 1
 0 <= X36 <= 1
 0 <= X37 <= 1
 0 <= X38 <= 1
 0 <= X39 <= 1
 0 <= X40 <= 1
 0 <= X41 <= 1
 0 <= X42 <= 1
 0 <= X43 <= 1
 0 <= X44 <= 1
 0 <= X45 <= 1
 0 <= X46 <= 1
 0 <= X47 <= 1
 0 <= X48 <= 1
 0 <= X49 <= 1
 0 <= X50 <= 1
 0 <= X51 <= 1
 0 <= X52 <= 1
 0 <= X53 <= 1
 0 <= X54 <= 1
 0 <= X55 <= 1
 0 <= X56 <= 1
 0 <= X57 <= 1
 0 <= X58 <= 1
 0 <= X59 <= 1
 0 <= X60 <= 1
 0 <= X61 <= 1
 0 <= X62 <= 1
 0 <= X63 <= 1
 0 <= X64 <= 1
 0 <= X65 <= 1
 0 <= X66 <= 1
 0 <= X67 <= 1
 0 <= X68 <= 1
 0 <= X69 <= 1
 0 <= X70 <= 1
 0 <= X71 <= 1
 0 <= X72 <= 1
 0 <= X73 <= 1
 0 <= X74 <= 1
 0 <= X75 <= 1
 0 <= X76 <= 1
 0 <= X77 <= 1
 0 <= X78 <= 1
 0 <= X79 <= 1
 0 <= X80 <= 1
 0 <= X81 <= 1
 0 <= X82 <= 1
 0 <= X83 <= 1
 0 <= X84 <= 1
 0 <= X85 <= 1
 0 <= X86 <= 1
 0 <= X87 <= 1
 0 <= X88 <= 1
 0 <= X89 <= 1
 0 <= X90 <= 1
 0 <= X91 <= 1
 0 <= X92 <= 1
 0 <= X93 <= 1
 0 <= X94 <= 1
 0 <= X95 <= 1
 0 <= X96 <= 1
 0 <= X97 <= 1
 0 <= X98 <= 1
 0 <= X99 <= 1
 0 <= X100 <= 1
 0 <= X101 <= 1
 0 <= X102 <= 1
 0 <= X103 <= 1
 0 <= X104 <= 1
 0 <= X105 <= 1
 0 <= X106 <= 1
 0 <= X107 <= 1
 0 <= X108 <= 1
 0 <= X109 <= 1
 0 <= X110 <= 1
 0 <= X111 <= 1
 0 <= X112 <= 1
 0 <= X113 <= 1
 0 <= X114 <= 1
 0 <= X115 <= 1
 0 <= X116 <= 1
 0 <= X117 <= 1
 0 <= X118 <= 1
 0 <= X119 <= 1
 0 <= X120 <= 1
 0 <= X121 <= 1
 0 <= X122 <= 1
 0 <= X123 <= 1
 0 <= X124 <= 1
 0 <= X125 <= 1
 0 <= X126 <= 1
 0 <= X127 <= 1
 165 <= theta
Binaries
 X0 X1 X2 X3 X4 X5 X6 X7 X8 X9 X10 X11 X12 X13 X14 X15 X16 X17 X18 X19 X20 X21 X22 X23 X24 X25 X26 X27
 X28 X29 X30 X31 X32 X33 X34 X35 X36 X37 X38 X39 X40 X41 X42 X43 X44 X45 X46 X47 X48 X49 X50 X51 X52 X53
 X54 X55 X56 X57 X58 X59 X60 X61 X62 X63 X64 X65 X66 X67 X68 X69 X70 X71 X72 X73 X74 X75 X76 X77 X78 X79
 X80 X81 X82 X83 X84 X85 X86 X87 X88 X89 X90 X91 X92 X93 X94 X95 X96 X97 X98 X99 X100 X101 X102 X103 X104
 X105 X106 X107 X108 X109 X110 X111 X112 X113 X114 X115 X116 X117 X118 X119 X120 X121 X122 X123 X124 X125
 X126 X127
End
