\ SCIP STATISTICS
\   Problem name     : Master
\   Variables        : 129 (128 binary, 0 integer, 0 implicit integer, 1 continuous)
\   Constraints      : 145
Minimize
 Obj: +1 X0 +1 X1 +1 X2 +1 X3 +1 X4 +1 X5 +1 X6 +1 X7 +1 X8 +1 X9 +1 X10 +1 X11 +1 X12 +1 X13 +1 X14 +1 X15
      +1 X16 +1 X17 +1 X18 +1 X19 +1 X20 +1 X21 +1 X22 +1 X23 +1 X24 +1 X25 +1 X26 +1 X27 +1 X28 +1 X29
      +1 X30 +1 X31 +1 X32 +1 X33 +1 X34 +1 X35 +1 X36 +1 X37 +1 X38 +1 X39 +1 X40 +1 X41 +1 X42 +1 X43
      +1 X44 +1 X45 +1 X46 +1 X47 +1 X48 +1 X49 +1 X50 +1 X51 +1 X52 +1 X53 +1 X54 +1 X55 +1 X56 +1 X57
      +1 X58 +1 X59 +1 X60 +1 X61 +1 X62 +1 X63 +1 X64 +1 X65 +1 X66 +1 X67 +1 X68 +1 X69 +1 X70 +1 X71
      +1 X72 +1 X73 +1 X74 +1 X75 +1 X76 +1 X77 +1 X78 +1 X79 +1 X80 +1 X81 +1 X82 +1 X83 +1 X84 +1 X85
      +1 X86 +1 X87 +1 X88 +1 X89 +1 X90 +1 X91 +1 X92 +1 X93 +1 X94 +1 X95 +1 X96 +1 X97 +1 X98 +1 X99
      +1 X100 +1 X101 +1 X102 +1 X103 +1 X104 +1 X105 +1 X106 +1 X107 +1 X108 +1 X109 +1 X110 +1 X111
      +1 X112 +1 X113 +1 X114 +1 X115 +1 X116 +1 X117 +1 X118 +1 X119 +1 X120 +1 X121 +1 X122 +1 X123
      +1 X124 +1 X125 +1 X126 +1 X127 +1 theta
Subject to
 c1: +1 X0 +1 X3 +1 X4 +1 X6 = +1
 c2: +1 X7 +1 X11 +1 X12 +1 X13 +1 X17 +1 X18 +1 X19 = +1
 c3: +1 X21 +1 X27 +1 X28 +1 X29 +1 X30 +1 X31 +1 X42 +1 X43 +1 X44 +1 X45 +1 X46 +1 X47 +1 X48 +1 X49
  +1 X60 +1 X61 = +1
 c4: +1 X65 +1 X70 +1 X71 +1 X72 +1 X73 +1 X80 +1 X81 +1 X82 +1 X84 = +1
 c5: +1 X85 +1 X89 +1 X90 +1 X91 +1 X95 +1 X96 = +1
 c6: +1 X98 +1 X102 +1 X103 +1 X104 +1 X108 +1 X109 +1 X110 +1 X112 = +1
 c7: +1 X113 +1 X117 +1 X118 +1 X119 +1 X123 +1 X124 +1 X125 +1 X127 = +1
 c8: +1 X66 +1 X70 +1 X74 +1 X75 +1 X76 = +1
 c9: +1 X8 +1 X11 +1 X14 +1 X15 +1 X17 +1 X18 +1 X20 = +1
 c10: +1 X67 +1 X71 +1 X74 +1 X77 +1 X78 +1 X80 +1 X81 +1 X83 +1 X84 = +1
 c11: +1 X1 +1 X3 +1 X5 +1 X6 = +1
 c12: +1 X86 +1 X89 +1 X92 +1 X93 +1 X95 +1 X97 = +1
 c13: +1 X22 +1 X27 +1 X32 +1 X33 +1 X34 +1 X35 +1 X42 +1 X43 +1 X44 +1 X45 +1 X50 +1 X51 +1 X52 +1 X53
  +1 X54 +1 X55 +1 X60 +1 X61 +1 X62 +1 X63 +1 X64 = +1
 c14: +1 X99 +1 X102 +1 X105 +1 X106 +1 X108 +1 X109 +1 X111 +1 X112 = +1
 c15: +1 X114 +1 X117 +1 X120 +1 X121 +1 X123 +1 X124 +1 X126 +1 X127 = +1
 c16: +1 X23 +1 X28 +1 X32 +1 X36 +1 X37 +1 X38 +1 X42 +1 X46 +1 X47 +1 X50 +1 X51 +1 X52 +1 X56 +1 X57
  +1 X58 +1 X60 +1 X62 +1 X63 = +1
 c17: +1 X9 +1 X12 +1 X14 +1 X16 +1 X17 +1 X19 +1 X20 = +1
 c18: +1 X87 +1 X90 +1 X92 +1 X94 +1 X95 +1 X96 +1 X97 = +1
 c19: +1 X68 +1 X72 +1 X75 +1 X77 +1 X79 +1 X80 +1 X82 +1 X83 +1 X84 = +1
 c20: +1 X24 +1 X29 +1 X33 +1 X36 +1 X39 +1 X40 +1 X43 +1 X46 +1 X48 +1 X50 +1 X53 +1 X54 +1 X56 +1 X57
  +1 X59 +1 X61 +1 X62 +1 X64 = +1
 c21: +1 X100 +1 X103 +1 X105 +1 X107 +1 X108 +1 X110 +1 X111 +1 X112 = +1
 c22: +1 X115 +1 X118 +1 X120 +1 X122 +1 X123 +1 X125 +1 X126 +1 X127 = +1
 c23: +1 X2 +1 X4 +1 X5 +1 X6 = +1
 c24: +1 X25 +1 X30 +1 X34 +1 X37 +1 X39 +1 X41 +1 X44 +1 X47 +1 X48 +1 X49 +1 X51 +1 X53 +1 X55 +1 X56
  +1 X58 +1 X59 +1 X60 +1 X61 +1 X62 +1 X63 +1 X64 = +1
 c25: +1 X10 +1 X13 +1 X15 +1 X16 +1 X18 +1 X19 +1 X20 = +1
 c26: +1 X88 +1 X91 +1 X93 +1 X94 +1 X96 +1 X97 = +1
 c27: +1 X69 +1 X73 +1 X76 +1 X78 +1 X79 +1 X81 +1 X82 +1 X83 +1 X84 = +1
 c28: +1 X101 +1 X104 +1 X106 +1 X107 +1 X109 +1 X110 +1 X111 +1 X112 = +1
 c29: +1 X26 +1 X31 +1 X35 +1 X38 +1 X40 +1 X41 +1 X45 +1 X49 +1 X52 +1 X54 +1 X55 +1 X57 +1 X58 +1 X59
  +1 X63 +1 X64 = +1
 c30: +1 X116 +1 X119 +1 X121 +1 X122 +1 X124 +1 X125 +1 X126 +1 X127 = +1
 c31: +1 theta -160 X6 -160 X11 -160 X16 -160 X40 -160 X60 -160 X66 -160 X84 -160 X90 -160 X93 -160 X112
  -160 X127 +160 X0 +160 X1 +160 X2 +160 X3 +160 X4 +160 X5 +160 X7 +160 X8 +160 X9 +160 X10 +160 X12
  +160 X13 +160 X14 +160 X15 +160 X17 +160 X18 +160 X19 +160 X20 +160 X21 +160 X22 +160 X23 +160 X24 +160 X25
  +160 X26 +160 X27 +160 X28 +160 X29 +160 X30 +160 X31 +160 X32 +160 X33 +160 X34 +160 X35 +160 X36 +160 X37
  +160 X38 +160 X39 +160 X41 +160 X42 +160 X43 +160 X44 +160 X45 +160 X46 +160 X47 +160 X48 +160 X49 +160 X50
  +160 X51 +160 X52 +160 X53 +160 X54 +160 X55 +160 X56 +160 X57 +160 X58 +160 X59 +160 X61 +160 X62 +160 X63
  +160 X64 +160 X65 +160 X67 +160 X68 +160 X69 +160 X70 +160 X71 +160 X72 +160 X73 +160 X74 +160 X75 +160 X76
  +160 X77 +160 X78 +160 X79 +160 X80 +160 X81 +160 X82 +160 X83 +160 X85 +160 X86 +160 X87 +160 X88 +160 X89
  +160 X91 +160 X92 +160 X94 +160 X95 +160 X96 +160 X97 +160 X98 +160 X99 +160 X100 +160 X101 +160 X102
  +160 X103 +160 X104 +160 X105 +160 X106 +160 X107 +160 X108 +160 X109 +160 X110 +160 X111 +160 X113
  +160 X114 +160 X115 +160 X116 +160 X117 +160 X118 +160 X119 +160 X120 +160 X121 +160 X122 +160 X123
  +160 X124 +160 X125 +160 X126 >= -1520
 c32: +1 theta -160 X6 -160 X10 -160 X17 -160 X40 -160 X60 -160 X66 -160 X84 -160 X88 -160 X95 -160 X112
  -160 X127 +160 X0 +160 X1 +160 X2 +160 X3 +160 X4 +160 X5 +160 X7 +160 X8 +160 X9 +160 X11 +160 X12
  +160 X13 +160 X14 +160 X15 +160 X16 +160 X18 +160 X19 +160 X20 +160 X21 +160 X22 +160 X23 +160 X24 +160 X25
  +160 X26 +160 X27 +160 X28 +160 X29 +160 X30 +160 X31 +160 X32 +160 X33 +160 X34 +160 X35 +160 X36 +160 X37
  +160 X38 +160 X39 +160 X41 +160 X42 +160 X43 +160 X44 +160 X45 +160 X46 +160 X47 +160 X48 +160 X49 +160 X50
  +160 X51 +160 X52 +160 X53 +160 X54 +160 X55 +160 X56 +160 X57 +160 X58 +160 X59 +160 X61 +160 X62 +160 X63
  +160 X64 +160 X65 +160 X67 +160 X68 +160 X69 +160 X70 +160 X71 +160 X72 +160 X73 +160 X74 +160 X75 +160 X76
  +160 X77 +160 X78 +160 X79 +160 X80 +160 X81 +160 X82 +160 X83 +160 X85 +160 X86 +160 X87 +160 X89 +160 X90
  +160 X91 +160 X92 +160 X93 +160 X94 +160 X96 +160 X97 +160 X98 +160 X99 +160 X100 +160 X101 +160 X102
  +160 X103 +160 X104 +160 X105 +160 X106 +160 X107 +160 X108 +160 X109 +160 X110 +160 X111 +160 X113
  +160 X114 +160 X115 +160 X116 +160 X117 +160 X118 +160 X119 +160 X120 +160 X121 +160 X122 +160 X123
  +160 X124 +160 X125 +160 X126 >= -1520
 c33: +1 theta -160 X6 -160 X9 -160 X18 -160 X40 -160 X60 -160 X66 -160 X84 -160 X86 -160 X96 -160 X112
  -160 X127 +160 X0 +160 X1 +160 X2 +160 X3 +160 X4 +160 X5 +160 X7 +160 X8 +160 X10 +160 X11 +160 X12
  +160 X13 +160 X14 +160 X15 +160 X16 +160 X17 +160 X19 +160 X20 +160 X21 +160 X22 +160 X23 +160 X24 +160 X25
  +160 X26 +160 X27 +160 X28 +160 X29 +160 X30 +160 X31 +160 X32 +160 X33 +160 X34 +160 X35 +160 X36 +160 X37
  +160 X38 +160 X39 +160 X41 +160 X42 +160 X43 +160 X44 +160 X45 +160 X46 +160 X47 +160 X48 +160 X49 +160 X50
  +160 X51 +160 X52 +160 X53 +160 X54 +160 X55 +160 X56 +160 X57 +160 X58 +160 X59 +160 X61 +160 X62 +160 X63
  +160 X64 +160 X65 +160 X67 +160 X68 +160 X69 +160 X70 +160 X71 +160 X72 +160 X73 +160 X74 +160 X75 +160 X76
  +160 X77 +160 X78 +160 X79 +160 X80 +160 X81 +160 X82 +160 X83 +160 X85 +160 X87 +160 X88 +160 X89 +160 X90
  +160 X91 +160 X92 +160 X93 +160 X94 +160 X95 +160 X97 +160 X98 +160 X99 +160 X100 +160 X101 +160 X102
  +160 X103 +160 X104 +160 X105 +160 X106 +160 X107 +160 X108 +160 X109 +160 X110 +160 X111 +160 X113
  +160 X114 +160 X115 +160 X116 +160 X117 +160 X118 +160 X119 +160 X120 +160 X121 +160 X122 +160 X123
  +160 X124 +160 X125 +160 X126 >= -1520
 c34: +1 theta -160 X6 -160 X9 -160 X18 -160 X40 -160 X60 -160 X66 -160 X84 -160 X88 -160 X95 -160 X112
  -160 X127 +160 X0 +160 X1 +160 X2 +160 X3 +160 X4 +160 X5 +160 X7 +160 X8 +160 X10 +160 X11 +160 X12
  +160 X13 +160 X14 +160 X15 +160 X16 +160 X17 +160 X19 +160 X20 +160 X21 +160 X22 +160 X23 +160 X24 +160 X25
  +160 X26 +160 X27 +160 X28 +160 X29 +160 X30 +160 X31 +160 X32 +160 X33 +160 X34 +160 X35 +160 X36 +160 X37
  +160 X38 +160 X39 +160 X41 +160 X42 +160 X43 +160 X44 +160 X45 +160 X46 +160 X47 +160 X48 +160 X49 +160 X50
  +160 X51 +160 X52 +160 X53 +160 X54 +160 X55 +160 X56 +160 X57 +160 X58 +160 X59 +160 X61 +160 X62 +160 X63
  +160 X64 +160 X65 +160 X67 +160 X68 +160 X69 +160 X70 +160 X71 +160 X72 +160 X73 +160 X74 +160 X75 +160 X76
  +160 X77 +160 X78 +160 X79 +160 X80 +160 X81 +160 X82 +160 X83 +160 X85 +160 X86 +160 X87 +160 X89 +160 X90
  +160 X91 +160 X92 +160 X93 +160 X94 +160 X96 +160 X97 +160 X98 +160 X99 +160 X100 +160 X101 +160 X102
  +160 X103 +160 X104 +160 X105 +160 X106 +160 X107 +160 X108 +160 X109 +160 X110 +160 X111 +160 X113
  +160 X114 +160 X115 +160 X116 +160 X117 +160 X118 +160 X119 +160 X120 +160 X121 +160 X122 +160 X123
  +160 X124 +160 X125 +160 X126 >= -1520
 c35: +1 theta -160 X6 -160 X7 -160 X20 -160 X49 -160 X50 -160 X66 -160 X84 -160 X90 -160 X93 -160 X112
  -160 X127 +160 X0 +160 X1 +160 X2 +160 X3 +160 X4 +160 X5 +160 X8 +160 X9 +160 X10 +160 X11 +160 X12
  +160 X13 +160 X14 +160 X15 +160 X16 +160 X17 +160 X18 +160 X19 +160 X21 +160 X22 +160 X23 +160 X24 +160 X25
  +160 X26 +160 X27 +160 X28 +160 X29 +160 X30 +160 X31 +160 X32 +160 X33 +160 X34 +160 X35 +160 X36 +160 X37
  +160 X38 +160 X39 +160 X40 +160 X41 +160 X42 +160 X43 +160 X44 +160 X45 +160 X46 +160 X47 +160 X48 +160 X51
  +160 X52 +160 X53 +160 X54 +160 X55 +160 X56 +160 X57 +160 X58 +160 X59 +160 X60 +160 X61 +160 X62 +160 X63
  +160 X64 +160 X65 +160 X67 +160 X68 +160 X69 +160 X70 +160 X71 +160 X72 +160 X73 +160 X74 +160 X75 +160 X76
  +160 X77 +160 X78 +160 X79 +160 X80 +160 X81 +160 X82 +160 X83 +160 X85 +160 X86 +160 X87 +160 X88 +160 X89
  +160 X91 +160 X92 +160 X94 +160 X95 +160 X96 +160 X97 +160 X98 +160 X99 +160 X100 +160 X101 +160 X102
  +160 X103 +160 X104 +160 X105 +160 X106 +160 X107 +160 X108 +160 X109 +160 X110 +160 X111 +160 X113
  +160 X114 +160 X115 +160 X116 +160 X117 +160 X118 +160 X119 +160 X120 +160 X121 +160 X122 +160 X123
  +160 X124 +160 X125 +160 X126 >= -1520
 c36: +1 theta -160 X6 -160 X11 -160 X16 -160 X49 -160 X50 -160 X66 -160 X84 -160 X90 -160 X93 -160 X112
  -160 X127 +160 X0 +160 X1 +160 X2 +160 X3 +160 X4 +160 X5 +160 X7 +160 X8 +160 X9 +160 X10 +160 X12
  +160 X13 +160 X14 +160 X15 +160 X17 +160 X18 +160 X19 +160 X20 +160 X21 +160 X22 +160 X23 +160 X24 +160 X25
  +160 X26 +160 X27 +160 X28 +160 X29 +160 X30 +160 X31 +160 X32 +160 X33 +160 X34 +160 X35 +160 X36 +160 X37
  +160 X38 +160 X39 +160 X40 +160 X41 +160 X42 +160 X43 +160 X44 +160 X45 +160 X46 +160 X47 +160 X48 +160 X51
  +160 X52 +160 X53 +160 X54 +160 X55 +160 X56 +160 X57 +160 X58 +160 X59 +160 X60 +160 X61 +160 X62 +160 X63
  +160 X64 +160 X65 +160 X67 +160 X68 +160 X69 +160 X70 +160 X71 +160 X72 +160 X73 +160 X74 +160 X75 +160 X76
  +160 X77 +160 X78 +160 X79 +160 X80 +160 X81 +160 X82 +160 X83 +160 X85 +160 X86 +160 X87 +160 X88 +160 X89
  +160 X91 +160 X92 +160 X94 +160 X95 +160 X96 +160 X97 +160 X98 +160 X99 +160 X100 +160 X101 +160 X102
  +160 X103 +160 X104 +160 X105 +160 X106 +160 X107 +160 X108 +160 X109 +160 X110 +160 X111 +160 X113
  +160 X114 +160 X115 +160 X116 +160 X117 +160 X118 +160 X119 +160 X120 +160 X121 +160 X122 +160 X123
  +160 X124 +160 X125 +160 X126 >= -1520
 c37: +1 theta -160 X6 -160 X8 -160 X19 -160 X38 -160 X61 -160 X66 -160 X84 -160 X90 -160 X93 -160 X112
  -160 X127 +160 X0 +160 X1 +160 X2 +160 X3 +160 X4 +160 X5 +160 X7 +160 X9 +160 X10 +160 X11 +160 X12
  +160 X13 +160 X14 +160 X15 +160 X16 +160 X17 +160 X18 +160 X20 +160 X21 +160 X22 +160 X23 +160 X24 +160 X25
  +160 X26 +160 X27 +160 X28 +160 X29 +160 X30 +160 X31 +160 X32 +160 X33 +160 X34 +160 X35 +160 X36 +160 X37
  +160 X39 +160 X40 +160 X41 +160 X42 +160 X43 +160 X44 +160 X45 +160 X46 +160 X47 +160 X48 +160 X49 +160 X50
  +160 X51 +160 X52 +160 X53 +160 X54 +160 X55 +160 X56 +160 X57 +160 X58 +160 X59 +160 X60 +160 X62 +160 X63
  +160 X64 +160 X65 +160 X67 +160 X68 +160 X69 +160 X70 +160 X71 +160 X72 +160 X73 +160 X74 +160 X75 +160 X76
  +160 X77 +160 X78 +160 X79 +160 X80 +160 X81 +160 X82 +160 X83 +160 X85 +160 X86 +160 X87 +160 X88 +160 X89
  +160 X91 +160 X92 +160 X94 +160 X95 +160 X96 +160 X97 +160 X98 +160 X99 +160 X100 +160 X101 +160 X102
  +160 X103 +160 X104 +160 X105 +160 X106 +160 X107 +160 X108 +160 X109 +160 X110 +160 X111 +160 X113
  +160 X114 +160 X115 +160 X116 +160 X117 +160 X118 +160 X119 +160 X120 +160 X121 +160 X122 +160 X123
  +160 X124 +160 X125 +160 X126 >= -1520
 c38: +1 theta -160 X6 -160 X11 -160 X16 -160 X38 -160 X61 -160 X66 -160 X84 -160 X90 -160 X93 -160 X112
  -160 X127 +160 X0 +160 X1 +160 X2 +160 X3 +160 X4 +160 X5 +160 X7 +160 X8 +160 X9 +160 X10 +160 X12
  +160 X13 +160 X14 +160 X15 +160 X17 +160 X18 +160 X19 +160 X20 +160 X21 +160 X22 +160 X23 +160 X24 +160 X25
  +160 X26 +160 X27 +160 X28 +160 X29 +160 X30 +160 X31 +160 X32 +160 X33 +160 X34 +160 X35 +160 X36 +160 X37
  +160 X39 +160 X40 +160 X41 +160 X42 +160 X43 +160 X44 +160 X45 +160 X46 +160 X47 +160 X48 +160 X49 +160 X50
  +160 X51 +160 X52 +160 X53 +160 X54 +160 X55 +160 X56 +160 X57 +160 X58 +160 X59 +160 X60 +160 X62 +160 X63
  +160 X64 +160 X65 +160 X67 +160 X68 +160 X69 +160 X70 +160 X71 +160 X72 +160 X73 +160 X74 +160 X75 +160 X76
  +160 X77 +160 X78 +160 X79 +160 X80 +160 X81 +160 X82 +160 X83 +160 X85 +160 X86 +160 X87 +160 X88 +160 X89
  +160 X91 +160 X92 +160 X94 +160 X95 +160 X96 +160 X97 +160 X98 +160 X99 +160 X100 +160 X101 +160 X102
  +160 X103 +160 X104 +160 X105 +160 X106 +160 X107 +160 X108 +160 X109 +160 X110 +160 X111 +160 X113
  +160 X114 +160 X115 +160 X116 +160 X117 +160 X118 +160 X119 +160 X120 +160 X121 +160 X122 +160 X123
  +160 X124 +160 X125 +160 X126 >= -1520
 c39: +1 theta -160 X6 -160 X10 -160 X17 -160 X29 -160 X63 -160 X66 -160 X84 -160 X90 -160 X93 -160 X112
  -160 X127 +160 X0 +160 X1 +160 X2 +160 X3 +160 X4 +160 X5 +160 X7 +160 X8 +160 X9 +160 X11 +160 X12
  +160 X13 +160 X14 +160 X15 +160 X16 +160 X18 +160 X19 +160 X20 +160 X21 +160 X22 +160 X23 +160 X24 +160 X25
  +160 X26 +160 X27 +160 X28 +160 X30 +160 X31 +160 X32 +160 X33 +160 X34 +160 X35 +160 X36 +160 X37 +160 X38
  +160 X39 +160 X40 +160 X41 +160 X42 +160 X43 +160 X44 +160 X45 +160 X46 +160 X47 +160 X48 +160 X49 +160 X50
  +160 X51 +160 X52 +160 X53 +160 X54 +160 X55 +160 X56 +160 X57 +160 X58 +160 X59 +160 X60 +160 X61 +160 X62
  +160 X64 +160 X65 +160 X67 +160 X68 +160 X69 +160 X70 +160 X71 +160 X72 +160 X73 +160 X74 +160 X75 +160 X76
  +160 X77 +160 X78 +160 X79 +160 X80 +160 X81 +160 X82 +160 X83 +160 X85 +160 X86 +160 X87 +160 X88 +160 X89
  +160 X91 +160 X92 +160 X94 +160 X95 +160 X96 +160 X97 +160 X98 +160 X99 +160 X100 +160 X101 +160 X102
  +160 X103 +160 X104 +160 X105 +160 X106 +160 X107 +160 X108 +160 X109 +160 X110 +160 X111 +160 X113
  +160 X114 +160 X115 +160 X116 +160 X117 +160 X118 +160 X119 +160 X120 +160 X121 +160 X122 +160 X123
  +160 X124 +160 X125 +160 X126 >= -1520
 c40: +1 theta -160 X6 -160 X9 -160 X18 -160 X29 -160 X63 -160 X66 -160 X84 -160 X90 -160 X93 -160 X112
  -160 X127 +160 X0 +160 X1 +160 X2 +160 X3 +160 X4 +160 X5 +160 X7 +160 X8 +160 X10 +160 X11 +160 X12
  +160 X13 +160 X14 +160 X15 +160 X16 +160 X17 +160 X19 +160 X20 +160 X21 +160 X22 +160 X23 +160 X24 +160 X25
  +160 X26 +160 X27 +160 X28 +160 X30 +160 X31 +160 X32 +160 X33 +160 X34 +160 X35 +160 X36 +160 X37 +160 X38
  +160 X39 +160 X40 +160 X41 +160 X42 +160 X43 +160 X44 +160 X45 +160 X46 +160 X47 +160 X48 +160 X49 +160 X50
  +160 X51 +160 X52 +160 X53 +160 X54 +160 X55 +160 X56 +160 X57 +160 X58 +160 X59 +160 X60 +160 X61 +160 X62
  +160 X64 +160 X65 +160 X67 +160 X68 +160 X69 +160 X70 +160 X71 +160 X72 +160 X73 +160 X74 +160 X75 +160 X76
  +160 X77 +160 X78 +160 X79 +160 X80 +160 X81 +160 X82 +160 X83 +160 X85 +160 X86 +160 X87 +160 X88 +160 X89
  +160 X91 +160 X92 +160 X94 +160 X95 +160 X96 +160 X97 +160 X98 +160 X99 +160 X100 +160 X101 +160 X102
  +160 X103 +160 X104 +160 X105 +160 X106 +160 X107 +160 X108 +160 X109 +160 X110 +160 X111 +160 X113
  +160 X114 +160 X115 +160 X116 +160 X117 +160 X118 +160 X119 +160 X120 +160 X121 +160 X122 +160 X123
  +160 X124 +160 X125 +160 X126 >= -1520
 c41: +1 theta -160 X6 -160 X12 -160 X15 -160 X29 -160 X63 -160 X66 -160 X84 -160 X90 -160 X93 -160 X112
  -160 X127 +160 X0 +160 X1 +160 X2 +160 X3 +160 X4 +160 X5 +160 X7 +160 X8 +160 X9 +160 X10 +160 X11
  +160 X13 +160 X14 +160 X16 +160 X17 +160 X18 +160 X19 +160 X20 +160 X21 +160 X22 +160 X23 +160 X24 +160 X25
  +160 X26 +160 X27 +160 X28 +160 X30 +160 X31 +160 X32 +160 X33 +160 X34 +160 X35 +160 X36 +160 X37 +160 X38
  +160 X39 +160 X40 +160 X41 +160 X42 +160 X43 +160 X44 +160 X45 +160 X46 +160 X47 +160 X48 +160 X49 +160 X50
  +160 X51 +160 X52 +160 X53 +160 X54 +160 X55 +160 X56 +160 X57 +160 X58 +160 X59 +160 X60 +160 X61 +160 X62
  +160 X64 +160 X65 +160 X67 +160 X68 +160 X69 +160 X70 +160 X71 +160 X72 +160 X73 +160 X74 +160 X75 +160 X76
  +160 X77 +160 X78 +160 X79 +160 X80 +160 X81 +160 X82 +160 X83 +160 X85 +160 X86 +160 X87 +160 X88 +160 X89
  +160 X91 +160 X92 +160 X94 +160 X95 +160 X96 +160 X97 +160 X98 +160 X99 +160 X100 +160 X101 +160 X102
  +160 X103 +160 X104 +160 X105 +160 X106 +160 X107 +160 X108 +160 X109 +160 X110 +160 X111 +160 X113
  +160 X114 +160 X115 +160 X116 +160 X117 +160 X118 +160 X119 +160 X120 +160 X121 +160 X122 +160 X123
  +160 X124 +160 X125 +160 X126 >= -1520
 c42: +1 theta -160 X6 -160 X7 -160 X20 -160 X29 -160 X63 -160 X66 -160 X84 -160 X90 -160 X93 -160 X112
  -160 X127 +160 X0 +160 X1 +160 X2 +160 X3 +160 X4 +160 X5 +160 X8 +160 X9 +160 X10 +160 X11 +160 X12
  +160 X13 +160 X14 +160 X15 +160 X16 +160 X17 +160 X18 +160 X19 +160 X21 +160 X22 +160 X23 +160 X24 +160 X25
  +160 X26 +160 X27 +160 X28 +160 X30 +160 X31 +160 X32 +160 X33 +160 X34 +160 X35 +160 X36 +160 X37 +160 X38
  +160 X39 +160 X40 +160 X41 +160 X42 +160 X43 +160 X44 +160 X45 +160 X46 +160 X47 +160 X48 +160 X49 +160 X50
  +160 X51 +160 X52 +160 X53 +160 X54 +160 X55 +160 X56 +160 X57 +160 X58 +160 X59 +160 X60 +160 X61 +160 X62
  +160 X64 +160 X65 +160 X67 +160 X68 +160 X69 +160 X70 +160 X71 +160 X72 +160 X73 +160 X74 +160 X75 +160 X76
  +160 X77 +160 X78 +160 X79 +160 X80 +160 X81 +160 X82 +160 X83 +160 X85 +160 X86 +160 X87 +160 X88 +160 X89
  +160 X91 +160 X92 +160 X94 +160 X95 +160 X96 +160 X97 +160 X98 +160 X99 +160 X100 +160 X101 +160 X102
  +160 X103 +160 X104 +160 X105 +160 X106 +160 X107 +160 X108 +160 X109 +160 X110 +160 X111 +160 X113
  +160 X114 +160 X115 +160 X116 +160 X117 +160 X118 +160 X119 +160 X120 +160 X121 +160 X122 +160 X123
  +160 X124 +160 X125 +160 X126 >= -1520
 c43: +1 theta -160 X6 -160 X9 -160 X18 -160 X28 -160 X64 -160 X66 -160 X84 -160 X86 -160 X96 -160 X112
  -160 X127 +160 X0 +160 X1 +160 X2 +160 X3 +160 X4 +160 X5 +160 X7 +160 X8 +160 X10 +160 X11 +160 X12
  +160 X13 +160 X14 +160 X15 +160 X16 +160 X17 +160 X19 +160 X20 +160 X21 +160 X22 +160 X23 +160 X24 +160 X25
  +160 X26 +160 X27 +160 X29 +160 X30 +160 X31 +160 X32 +160 X33 +160 X34 +160 X35 +160 X36 +160 X37 +160 X38
  +160 X39 +160 X40 +160 X41 +160 X42 +160 X43 +160 X44 +160 X45 +160 X46 +160 X47 +160 X48 +160 X49 +160 X50
  +160 X51 +160 X52 +160 X53 +160 X54 +160 X55 +160 X56 +160 X57 +160 X58 +160 X59 +160 X60 +160 X61 +160 X62
  +160 X63 +160 X65 +160 X67 +160 X68 +160 X69 +160 X70 +160 X71 +160 X72 +160 X73 +160 X74 +160 X75 +160 X76
  +160 X77 +160 X78 +160 X79 +160 X80 +160 X81 +160 X82 +160 X83 +160 X85 +160 X87 +160 X88 +160 X89 +160 X90
  +160 X91 +160 X92 +160 X93 +160 X94 +160 X95 +160 X97 +160 X98 +160 X99 +160 X100 +160 X101 +160 X102
  +160 X103 +160 X104 +160 X105 +160 X106 +160 X107 +160 X108 +160 X109 +160 X110 +160 X111 +160 X113
  +160 X114 +160 X115 +160 X116 +160 X117 +160 X118 +160 X119 +160 X120 +160 X121 +160 X122 +160 X123
  +160 X124 +160 X125 +160 X126 >= -1520
 c44: +1 theta -160 X6 -160 X7 -160 X20 -160 X29 -160 X63 -160 X66 -160 X84 -160 X86 -160 X96 -160 X112
  -160 X127 +160 X0 +160 X1 +160 X2 +160 X3 +160 X4 +160 X5 +160 X8 +160 X9 +160 X10 +160 X11 +160 X12
  +160 X13 +160 X14 +160 X15 +160 X16 +160 X17 +160 X18 +160 X19 +160 X21 +160 X22 +160 X23 +160 X24 +160 X25
  +160 X26 +160 X27 +160 X28 +160 X30 +160 X31 +160 X32 +160 X33 +160 X34 +160 X35 +160 X36 +160 X37 +160 X38
  +160 X39 +160 X40 +160 X41 +160 X42 +160 X43 +160 X44 +160 X45 +160 X46 +160 X47 +160 X48 +160 X49 +160 X50
  +160 X51 +160 X52 +160 X53 +160 X54 +160 X55 +160 X56 +160 X57 +160 X58 +160 X59 +160 X60 +160 X61 +160 X62
  +160 X64 +160 X65 +160 X67 +160 X68 +160 X69 +160 X70 +160 X71 +160 X72 +160 X73 +160 X74 +160 X75 +160 X76
  +160 X77 +160 X78 +160 X79 +160 X80 +160 X81 +160 X82 +160 X83 +160 X85 +160 X87 +160 X88 +160 X89 +160 X90
  +160 X91 +160 X92 +160 X93 +160 X94 +160 X95 +160 X97 +160 X98 +160 X99 +160 X100 +160 X101 +160 X102
  +160 X103 +160 X104 +160 X105 +160 X106 +160 X107 +160 X108 +160 X109 +160 X110 +160 X111 +160 X113
  +160 X114 +160 X115 +160 X116 +160 X117 +160 X118 +160 X119 +160 X120 +160 X121 +160 X122 +160 X123
  +160 X124 +160 X125 +160 X126 >= -1520
 c45: +1 theta -160 X6 -160 X8 -160 X19 -160 X29 -160 X63 -160 X66 -160 X84 -160 X86 -160 X96 -160 X112
  -160 X127 +160 X0 +160 X1 +160 X2 +160 X3 +160 X4 +160 X5 +160 X7 +160 X9 +160 X10 +160 X11 +160 X12
  +160 X13 +160 X14 +160 X15 +160 X16 +160 X17 +160 X18 +160 X20 +160 X21 +160 X22 +160 X23 +160 X24 +160 X25
  +160 X26 +160 X27 +160 X28 +160 X30 +160 X31 +160 X32 +160 X33 +160 X34 +160 X35 +160 X36 +160 X37 +160 X38
  +160 X39 +160 X40 +160 X41 +160 X42 +160 X43 +160 X44 +160 X45 +160 X46 +160 X47 +160 X48 +160 X49 +160 X50
  +160 X51 +160 X52 +160 X53 +160 X54 +160 X55 +160 X56 +160 X57 +160 X58 +160 X59 +160 X60 +160 X61 +160 X62
  +160 X64 +160 X65 +160 X67 +160 X68 +160 X69 +160 X70 +160 X71 +160 X72 +160 X73 +160 X74 +160 X75 +160 X76
  +160 X77 +160 X78 +160 X79 +160 X80 +160 X81 +160 X82 +160 X83 +160 X85 +160 X87 +160 X88 +160 X89 +160 X90
  +160 X91 +160 X92 +160 X93 +160 X94 +160 X95 +160 X97 +160 X98 +160 X99 +160 X100 +160 X101 +160 X102
  +160 X103 +160 X104 +160 X105 +160 X106 +160 X107 +160 X108 +160 X109 +160 X110 +160 X111 +160 X113
  +160 X114 +160 X115 +160 X116 +160 X117 +160 X118 +160 X119 +160 X120 +160 X121 +160 X122 +160 X123
  +160 X124 +160 X125 +160 X126 >= -1520
 c46: +1 theta -160 X6 -160 X9 -160 X18 -160 X29 -160 X63 -160 X66 -160 X84 -160 X89 -160 X94 -160 X112
  -160 X127 +160 X0 +160 X1 +160 X2 +160 X3 +160 X4 +160 X5 +160 X7 +160 X8 +160 X10 +160 X11 +160 X12
  +160 X13 +160 X14 +160 X15 +160 X16 +160 X17 +160 X19 +160 X20 +160 X21 +160 X22 +160 X23 +160 X24 +160 X25
  +160 X26 +160 X27 +160 X28 +160 X30 +160 X31 +160 X32 +160 X33 +160 X34 +160 X35 +160 X36 +160 X37 +160 X38
  +160 X39 +160 X40 +160 X41 +160 X42 +160 X43 +160 X44 +160 X45 +160 X46 +160 X47 +160 X48 +160 X49 +160 X50
  +160 X51 +160 X52 +160 X53 +160 X54 +160 X55 +160 X56 +160 X57 +160 X58 +160 X59 +160 X60 +160 X61 +160 X62
  +160 X64 +160 X65 +160 X67 +160 X68 +160 X69 +160 X70 +160 X71 +160 X72 +160 X73 +160 X74 +160 X75 +160 X76
  +160 X77 +160 X78 +160 X79 +160 X80 +160 X81 +160 X82 +160 X83 +160 X85 +160 X86 +160 X87 +160 X88 +160 X90
  +160 X91 +160 X92 +160 X93 +160 X95 +160 X96 +160 X97 +160 X98 +160 X99 +160 X100 +160 X101 +160 X102
  +160 X103 +160 X104 +160 X105 +160 X106 +160 X107 +160 X108 +160 X109 +160 X110 +160 X111 +160 X113
  +160 X114 +160 X115 +160 X116 +160 X117 +160 X118 +160 X119 +160 X120 +160 X121 +160 X122 +160 X123
  +160 X124 +160 X125 +160 X126 >= -1520
 c47: +1 theta -160 X6 -160 X13 -160 X14 -160 X29 -160 X63 -160 X66 -160 X84 -160 X89 -160 X94 -160 X112
  -160 X127 +160 X0 +160 X1 +160 X2 +160 X3 +160 X4 +160 X5 +160 X7 +160 X8 +160 X9 +160 X10 +160 X11
  +160 X12 +160 X15 +160 X16 +160 X17 +160 X18 +160 X19 +160 X20 +160 X21 +160 X22 +160 X23 +160 X24 +160 X25
  +160 X26 +160 X27 +160 X28 +160 X30 +160 X31 +160 X32 +160 X33 +160 X34 +160 X35 +160 X36 +160 X37 +160 X38
  +160 X39 +160 X40 +160 X41 +160 X42 +160 X43 +160 X44 +160 X45 +160 X46 +160 X47 +160 X48 +160 X49 +160 X50
  +160 X51 +160 X52 +160 X53 +160 X54 +160 X55 +160 X56 +160 X57 +160 X58 +160 X59 +160 X60 +160 X61 +160 X62
  +160 X64 +160 X65 +160 X67 +160 X68 +160 X69 +160 X70 +160 X71 +160 X72 +160 X73 +160 X74 +160 X75 +160 X76
  +160 X77 +160 X78 +160 X79 +160 X80 +160 X81 +160 X82 +160 X83 +160 X85 +160 X86 +160 X87 +160 X88 +160 X90
  +160 X91 +160 X92 +160 X93 +160 X95 +160 X96 +160 X97 +160 X98 +160 X99 +160 X100 +160 X101 +160 X102
  +160 X103 +160 X104 +160 X105 +160 X106 +160 X107 +160 X108 +160 X109 +160 X110 +160 X111 +160 X113
  +160 X114 +160 X115 +160 X116 +160 X117 +160 X118 +160 X119 +160 X120 +160 X121 +160 X122 +160 X123
  +160 X124 +160 X125 +160 X126 >= -1520
 c48: +1 theta -160 X6 -160 X8 -160 X19 -160 X28 -160 X64 -160 X66 -160 X84 -160 X88 -160 X95 -160 X112
  -160 X127 +160 X0 +160 X1 +160 X2 +160 X3 +160 X4 +160 X5 +160 X7 +160 X9 +160 X10 +160 X11 +160 X12
  +160 X13 +160 X14 +160 X15 +160 X16 +160 X17 +160 X18 +160 X20 +160 X21 +160 X22 +160 X23 +160 X24 +160 X25
  +160 X26 +160 X27 +160 X29 +160 X30 +160 X31 +160 X32 +160 X33 +160 X34 +160 X35 +160 X36 +160 X37 +160 X38
  +160 X39 +160 X40 +160 X41 +160 X42 +160 X43 +160 X44 +160 X45 +160 X46 +160 X47 +160 X48 +160 X49 +160 X50
  +160 X51 +160 X52 +160 X53 +160 X54 +160 X55 +160 X56 +160 X57 +160 X58 +160 X59 +160 X60 +160 X61 +160 X62
  +160 X63 +160 X65 +160 X67 +160 X68 +160 X69 +160 X70 +160 X71 +160 X72 +160 X73 +160 X74 +160 X75 +160 X76
  +160 X77 +160 X78 +160 X79 +160 X80 +160 X81 +160 X82 +160 X83 +160 X85 +160 X86 +160 X87 +160 X89 +160 X90
  +160 X91 +160 X92 +160 X93 +160 X94 +160 X96 +160 X97 +160 X98 +160 X99 +160 X100 +160 X101 +160 X102
  +160 X103 +160 X104 +160 X105 +160 X106 +160 X107 +160 X108 +160 X109 +160 X110 +160 X111 +160 X113
  +160 X114 +160 X115 +160 X116 +160 X117 +160 X118 +160 X119 +160 X120 +160 X121 +160 X122 +160 X123
  +160 X124 +160 X125 +160 X126 >= -1520
 c49: +1 theta -160 X6 -160 X11 -160 X16 -160 X29 -160 X63 -160 X66 -160 X84 -160 X85 -160 X97 -160 X112
  -160 X127 +160 X0 +160 X1 +160 X2 +160 X3 +160 X4 +160 X5 +160 X7 +160 X8 +160 X9 +160 X10 +160 X12
  +160 X13 +160 X14 +160 X15 +160 X17 +160 X18 +160 X19 +160 X20 +160 X21 +160 X22 +160 X23 +160 X24 +160 X25
  +160 X26 +160 X27 +160 X28 +160 X30 +160 X31 +160 X32 +160 X33 +160 X34 +160 X35 +160 X36 +160 X37 +160 X38
  +160 X39 +160 X40 +160 X41 +160 X42 +160 X43 +160 X44 +160 X45 +160 X46 +160 X47 +160 X48 +160 X49 +160 X50
  +160 X51 +160 X52 +160 X53 +160 X54 +160 X55 +160 X56 +160 X57 +160 X58 +160 X59 +160 X60 +160 X61 +160 X62
  +160 X64 +160 X65 +160 X67 +160 X68 +160 X69 +160 X70 +160 X71 +160 X72 +160 X73 +160 X74 +160 X75 +160 X76
  +160 X77 +160 X78 +160 X79 +160 X80 +160 X81 +160 X82 +160 X83 +160 X86 +160 X87 +160 X88 +160 X89 +160 X90
  +160 X91 +160 X92 +160 X93 +160 X94 +160 X95 +160 X96 +160 X98 +160 X99 +160 X100 +160 X101 +160 X102
  +160 X103 +160 X104 +160 X105 +160 X106 +160 X107 +160 X108 +160 X109 +160 X110 +160 X111 +160 X113
  +160 X114 +160 X115 +160 X116 +160 X117 +160 X118 +160 X119 +160 X120 +160 X121 +160 X122 +160 X123
  +160 X124 +160 X125 +160 X126 >= -1520
 c50: +1 theta -160 X6 -160 X13 -160 X14 -160 X28 -160 X64 -160 X66 -160 X84 -160 X89 -160 X94 -160 X112
  -160 X127 +160 X0 +160 X1 +160 X2 +160 X3 +160 X4 +160 X5 +160 X7 +160 X8 +160 X9 +160 X10 +160 X11
  +160 X12 +160 X15 +160 X16 +160 X17 +160 X18 +160 X19 +160 X20 +160 X21 +160 X22 +160 X23 +160 X24 +160 X25
  +160 X26 +160 X27 +160 X29 +160 X30 +160 X31 +160 X32 +160 X33 +160 X34 +160 X35 +160 X36 +160 X37 +160 X38
  +160 X39 +160 X40 +160 X41 +160 X42 +160 X43 +160 X44 +160 X45 +160 X46 +160 X47 +160 X48 +160 X49 +160 X50
  +160 X51 +160 X52 +160 X53 +160 X54 +160 X55 +160 X56 +160 X57 +160 X58 +160 X59 +160 X60 +160 X61 +160 X62
  +160 X63 +160 X65 +160 X67 +160 X68 +160 X69 +160 X70 +160 X71 +160 X72 +160 X73 +160 X74 +160 X75 +160 X76
  +160 X77 +160 X78 +160 X79 +160 X80 +160 X81 +160 X82 +160 X83 +160 X85 +160 X86 +160 X87 +160 X88 +160 X90
  +160 X91 +160 X92 +160 X93 +160 X95 +160 X96 +160 X97 +160 X98 +160 X99 +160 X100 +160 X101 +160 X102
  +160 X103 +160 X104 +160 X105 +160 X106 +160 X107 +160 X108 +160 X109 +160 X110 +160 X111 +160 X113
  +160 X114 +160 X115 +160 X116 +160 X117 +160 X118 +160 X119 +160 X120 +160 X121 +160 X122 +160 X123
  +160 X124 +160 X125 +160 X126 >= -1520
 c51: +1 theta -160 X6 -160 X10 -160 X17 -160 X49 -160 X50 -160 X66 -160 X84 -160 X90 -160 X93 -160 X112
  -160 X127 +160 X0 +160 X1 +160 X2 +160 X3 +160 X4 +160 X5 +160 X7 +160 X8 +160 X9 +160 X11 +160 X12
  +160 X13 +160 X14 +160 X15 +160 X16 +160 X18 +160 X19 +160 X20 +160 X21 +160 X22 +160 X23 +160 X24 +160 X25
  +160 X26 +160 X27 +160 X28 +160 X29 +160 X30 +160 X31 +160 X32 +160 X33 +160 X34 +160 X35 +160 X36 +160 X37
  +160 X38 +160 X39 +160 X40 +160 X41 +160 X42 +160 X43 +160 X44 +160 X45 +160 X46 +160 X47 +160 X48 +160 X51
  +160 X52 +160 X53 +160 X54 +160 X55 +160 X56 +160 X57 +160 X58 +160 X59 +160 X60 +160 X61 +160 X62 +160 X63
  +160 X64 +160 X65 +160 X67 +160 X68 +160 X69 +160 X70 +160 X71 +160 X72 +160 X73 +160 X74 +160 X75 +160 X76
  +160 X77 +160 X78 +160 X79 +160 X80 +160 X81 +160 X82 +160 X83 +160 X85 +160 X86 +160 X87 +160 X88 +160 X89
  +160 X91 +160 X92 +160 X94 +160 X95 +160 X96 +160 X97 +160 X98 +160 X99 +160 X100 +160 X101 +160 X102
  +160 X103 +160 X104 +160 X105 +160 X106 +160 X107 +160 X108 +160 X109 +160 X110 +160 X111 +160 X113
  +160 X114 +160 X115 +160 X116 +160 X117 +160 X118 +160 X119 +160 X120 +160 X121 +160 X122 +160 X123
  +160 X124 +160 X125 +160 X126 >= -1520
 c52: +1 theta -160 X6 -160 X8 -160 X19 -160 X49 -160 X50 -160 X66 -160 X84 -160 X90 -160 X93 -160 X112
  -160 X127 +160 X0 +160 X1 +160 X2 +160 X3 +160 X4 +160 X5 +160 X7 +160 X9 +160 X10 +160 X11 +160 X12
  +160 X13 +160 X14 +160 X15 +160 X16 +160 X17 +160 X18 +160 X20 +160 X21 +160 X22 +160 X23 +160 X24 +160 X25
  +160 X26 +160 X27 +160 X28 +160 X29 +160 X30 +160 X31 +160 X32 +160 X33 +160 X34 +160 X35 +160 X36 +160 X37
  +160 X38 +160 X39 +160 X40 +160 X41 +160 X42 +160 X43 +160 X44 +160 X45 +160 X46 +160 X47 +160 X48 +160 X51
  +160 X52 +160 X53 +160 X54 +160 X55 +160 X56 +160 X57 +160 X58 +160 X59 +160 X60 +160 X61 +160 X62 +160 X63
  +160 X64 +160 X65 +160 X67 +160 X68 +160 X69 +160 X70 +160 X71 +160 X72 +160 X73 +160 X74 +160 X75 +160 X76
  +160 X77 +160 X78 +160 X79 +160 X80 +160 X81 +160 X82 +160 X83 +160 X85 +160 X86 +160 X87 +160 X88 +160 X89
  +160 X91 +160 X92 +160 X94 +160 X95 +160 X96 +160 X97 +160 X98 +160 X99 +160 X100 +160 X101 +160 X102
  +160 X103 +160 X104 +160 X105 +160 X106 +160 X107 +160 X108 +160 X109 +160 X110 +160 X111 +160 X113
  +160 X114 +160 X115 +160 X116 +160 X117 +160 X118 +160 X119 +160 X120 +160 X121 +160 X122 +160 X123
  +160 X124 +160 X125 +160 X126 >= -1520
 c53: +1 theta -160 X6 -160 X10 -160 X17 -160 X49 -160 X50 -160 X66 -160 X84 -160 X85 -160 X97 -160 X112
  -160 X127 +160 X0 +160 X1 +160 X2 +160 X3 +160 X4 +160 X5 +160 X7 +160 X8 +160 X9 +160 X11 +160 X12
  +160 X13 +160 X14 +160 X15 +160 X16 +160 X18 +160 X19 +160 X20 +160 X21 +160 X22 +160 X23 +160 X24 +160 X25
  +160 X26 +160 X27 +160 X28 +160 X29 +160 X30 +160 X31 +160 X32 +160 X33 +160 X34 +160 X35 +160 X36 +160 X37
  +160 X38 +160 X39 +160 X40 +160 X41 +160 X42 +160 X43 +160 X44 +160 X45 +160 X46 +160 X47 +160 X48 +160 X51
  +160 X52 +160 X53 +160 X54 +160 X55 +160 X56 +160 X57 +160 X58 +160 X59 +160 X60 +160 X61 +160 X62 +160 X63
  +160 X64 +160 X65 +160 X67 +160 X68 +160 X69 +160 X70 +160 X71 +160 X72 +160 X73 +160 X74 +160 X75 +160 X76
  +160 X77 +160 X78 +160 X79 +160 X80 +160 X81 +160 X82 +160 X83 +160 X86 +160 X87 +160 X88 +160 X89 +160 X90
  +160 X91 +160 X92 +160 X93 +160 X94 +160 X95 +160 X96 +160 X98 +160 X99 +160 X100 +160 X101 +160 X102
  +160 X103 +160 X104 +160 X105 +160 X106 +160 X107 +160 X108 +160 X109 +160 X110 +160 X111 +160 X113
  +160 X114 +160 X115 +160 X116 +160 X117 +160 X118 +160 X119 +160 X120 +160 X121 +160 X122 +160 X123
  +160 X124 +160 X125 +160 X126 >= -1520
 c54: +1 theta -160 X6 -160 X10 -160 X17 -160 X44 -160 X57 -160 X66 -160 X84 -160 X90 -160 X93 -160 X112
  -160 X127 +160 X0 +160 X1 +160 X2 +160 X3 +160 X4 +160 X5 +160 X7 +160 X8 +160 X9 +160 X11 +160 X12
  +160 X13 +160 X14 +160 X15 +160 X16 +160 X18 +160 X19 +160 X20 +160 X21 +160 X22 +160 X23 +160 X24 +160 X25
  +160 X26 +160 X27 +160 X28 +160 X29 +160 X30 +160 X31 +160 X32 +160 X33 +160 X34 +160 X35 +160 X36 +160 X37
  +160 X38 +160 X39 +160 X40 +160 X41 +160 X42 +160 X43 +160 X45 +160 X46 +160 X47 +160 X48 +160 X49 +160 X50
  +160 X51 +160 X52 +160 X53 +160 X54 +160 X55 +160 X56 +160 X58 +160 X59 +160 X60 +160 X61 +160 X62 +160 X63
  +160 X64 +160 X65 +160 X67 +160 X68 +160 X69 +160 X70 +160 X71 +160 X72 +160 X73 +160 X74 +160 X75 +160 X76
  +160 X77 +160 X78 +160 X79 +160 X80 +160 X81 +160 X82 +160 X83 +160 X85 +160 X86 +160 X87 +160 X88 +160 X89
  +160 X91 +160 X92 +160 X94 +160 X95 +160 X96 +160 X97 +160 X98 +160 X99 +160 X100 +160 X101 +160 X102
  +160 X103 +160 X104 +160 X105 +160 X106 +160 X107 +160 X108 +160 X109 +160 X110 +160 X111 +160 X113
  +160 X114 +160 X115 +160 X116 +160 X117 +160 X118 +160 X119 +160 X120 +160 X121 +160 X122 +160 X123
  +160 X124 +160 X125 +160 X126 >= -1520
 c55: +1 theta -160 X6 -160 X13 -160 X14 -160 X49 -160 X50 -160 X66 -160 X84 -160 X86 -160 X96 -160 X112
  -160 X127 +160 X0 +160 X1 +160 X2 +160 X3 +160 X4 +160 X5 +160 X7 +160 X8 +160 X9 +160 X10 +160 X11
  +160 X12 +160 X15 +160 X16 +160 X17 +160 X18 +160 X19 +160 X20 +160 X21 +160 X22 +160 X23 +160 X24 +160 X25
  +160 X26 +160 X27 +160 X28 +160 X29 +160 X30 +160 X31 +160 X32 +160 X33 +160 X34 +160 X35 +160 X36 +160 X37
  +160 X38 +160 X39 +160 X40 +160 X41 +160 X42 +160 X43 +160 X44 +160 X45 +160 X46 +160 X47 +160 X48 +160 X51
  +160 X52 +160 X53 +160 X54 +160 X55 +160 X56 +160 X57 +160 X58 +160 X59 +160 X60 +160 X61 +160 X62 +160 X63
  +160 X64 +160 X65 +160 X67 +160 X68 +160 X69 +160 X70 +160 X71 +160 X72 +160 X73 +160 X74 +160 X75 +160 X76
  +160 X77 +160 X78 +160 X79 +160 X80 +160 X81 +160 X82 +160 X83 +160 X85 +160 X87 +160 X88 +160 X89 +160 X90
  +160 X91 +160 X92 +160 X93 +160 X94 +160 X95 +160 X97 +160 X98 +160 X99 +160 X100 +160 X101 +160 X102
  +160 X103 +160 X104 +160 X105 +160 X106 +160 X107 +160 X108 +160 X109 +160 X110 +160 X111 +160 X113
  +160 X114 +160 X115 +160 X116 +160 X117 +160 X118 +160 X119 +160 X120 +160 X121 +160 X122 +160 X123
  +160 X124 +160 X125 +160 X126 >= -1520
 c56: +1 theta -160 X6 -160 X13 -160 X14 -160 X29 -160 X63 -160 X66 -160 X84 -160 X86 -160 X96 -160 X112
  -160 X127 +160 X0 +160 X1 +160 X2 +160 X3 +160 X4 +160 X5 +160 X7 +160 X8 +160 X9 +160 X10 +160 X11
  +160 X12 +160 X15 +160 X16 +160 X17 +160 X18 +160 X19 +160 X20 +160 X21 +160 X22 +160 X23 +160 X24 +160 X25
  +160 X26 +160 X27 +160 X28 +160 X30 +160 X31 +160 X32 +160 X33 +160 X34 +160 X35 +160 X36 +160 X37 +160 X38
  +160 X39 +160 X40 +160 X41 +160 X42 +160 X43 +160 X44 +160 X45 +160 X46 +160 X47 +160 X48 +160 X49 +160 X50
  +160 X51 +160 X52 +160 X53 +160 X54 +160 X55 +160 X56 +160 X57 +160 X58 +160 X59 +160 X60 +160 X61 +160 X62
  +160 X64 +160 X65 +160 X67 +160 X68 +160 X69 +160 X70 +160 X71 +160 X72 +160 X73 +160 X74 +160 X75 +160 X76
  +160 X77 +160 X78 +160 X79 +160 X80 +160 X81 +160 X82 +160 X83 +160 X85 +160 X87 +160 X88 +160 X89 +160 X90
  +160 X91 +160 X92 +160 X93 +160 X94 +160 X95 +160 X97 +160 X98 +160 X99 +160 X100 +160 X101 +160 X102
  +160 X103 +160 X104 +160 X105 +160 X106 +160 X107 +160 X108 +160 X109 +160 X110 +160 X111 +160 X113
  +160 X114 +160 X115 +160 X116 +160 X117 +160 X118 +160 X119 +160 X120 +160 X121 +160 X122 +160 X123
  +160 X124 +160 X125 +160 X126 >= -1520
 c57: +1 theta -160 X6 -160 X7 -160 X20 -160 X49 -160 X50 -160 X66 -160 X84 -160 X85 -160 X97 -160 X112
  -160 X127 +160 X0 +160 X1 +160 X2 +160 X3 +160 X4 +160 X5 +160 X8 +160 X9 +160 X10 +160 X11 +160 X12
  +160 X13 +160 X14 +160 X15 +160 X16 +160 X17 +160 X18 +160 X19 +160 X21 +160 X22 +160 X23 +160 X24 +160 X25
  +160 X26 +160 X27 +160 X28 +160 X29 +160 X30 +160 X31 +160 X32 +160 X33 +160 X34 +160 X35 +160 X36 +160 X37
  +160 X38 +160 X39 +160 X40 +160 X41 +160 X42 +160 X43 +160 X44 +160 X45 +160 X46 +160 X47 +160 X48 +160 X51
  +160 X52 +160 X53 +160 X54 +160 X55 +160 X56 +160 X57 +160 X58 +160 X59 +160 X60 +160 X61 +160 X62 +160 X63
  +160 X64 +160 X65 +160 X67 +160 X68 +160 X69 +160 X70 +160 X71 +160 X72 +160 X73 +160 X74 +160 X75 +160 X76
  +160 X77 +160 X78 +160 X79 +160 X80 +160 X81 +160 X82 +160 X83 +160 X86 +160 X87 +160 X88 +160 X89 +160 X90
  +160 X91 +160 X92 +160 X93 +160 X94 +160 X95 +160 X96 +160 X98 +160 X99 +160 X100 +160 X101 +160 X102
  +160 X103 +160 X104 +160 X105 +160 X106 +160 X107 +160 X108 +160 X109 +160 X110 +160 X111 +160 X113
  +160 X114 +160 X115 +160 X116 +160 X117 +160 X118 +160 X119 +160 X120 +160 X121 +160 X122 +160 X123
  +160 X124 +160 X125 +160 X126 >= -1520
 c58: +1 theta -160 X6 -160 X8 -160 X19 -160 X49 -160 X50 -160 X66 -160 X84 -160 X86 -160 X96 -160 X112
  -160 X127 +160 X0 +160 X1 +160 X2 +160 X3 +160 X4 +160 X5 +160 X7 +160 X9 +160 X10 +160 X11 +160 X12
  +160 X13 +160 X14 +160 X15 +160 X16 +160 X17 +160 X18 +160 X20 +160 X21 +160 X22 +160 X23 +160 X24 +160 X25
  +160 X26 +160 X27 +160 X28 +160 X29 +160 X30 +160 X31 +160 X32 +160 X33 +160 X34 +160 X35 +160 X36 +160 X37
  +160 X38 +160 X39 +160 X40 +160 X41 +160 X42 +160 X43 +160 X44 +160 X45 +160 X46 +160 X47 +160 X48 +160 X51
  +160 X52 +160 X53 +160 X54 +160 X55 +160 X56 +160 X57 +160 X58 +160 X59 +160 X60 +160 X61 +160 X62 +160 X63
  +160 X64 +160 X65 +160 X67 +160 X68 +160 X69 +160 X70 +160 X71 +160 X72 +160 X73 +160 X74 +160 X75 +160 X76
  +160 X77 +160 X78 +160 X79 +160 X80 +160 X81 +160 X82 +160 X83 +160 X85 +160 X87 +160 X88 +160 X89 +160 X90
  +160 X91 +160 X92 +160 X93 +160 X94 +160 X95 +160 X97 +160 X98 +160 X99 +160 X100 +160 X101 +160 X102
  +160 X103 +160 X104 +160 X105 +160 X106 +160 X107 +160 X108 +160 X109 +160 X110 +160 X111 +160 X113
  +160 X114 +160 X115 +160 X116 +160 X117 +160 X118 +160 X119 +160 X120 +160 X121 +160 X122 +160 X123
  +160 X124 +160 X125 +160 X126 >= -1520
 c59: +1 theta -160 X6 -160 X8 -160 X19 -160 X45 -160 X56 -160 X66 -160 X84 -160 X90 -160 X93 -160 X112
  -160 X127 +160 X0 +160 X1 +160 X2 +160 X3 +160 X4 +160 X5 +160 X7 +160 X9 +160 X10 +160 X11 +160 X12
  +160 X13 +160 X14 +160 X15 +160 X16 +160 X17 +160 X18 +160 X20 +160 X21 +160 X22 +160 X23 +160 X24 +160 X25
  +160 X26 +160 X27 +160 X28 +160 X29 +160 X30 +160 X31 +160 X32 +160 X33 +160 X34 +160 X35 +160 X36 +160 X37
  +160 X38 +160 X39 +160 X40 +160 X41 +160 X42 +160 X43 +160 X44 +160 X46 +160 X47 +160 X48 +160 X49 +160 X50
  +160 X51 +160 X52 +160 X53 +160 X54 +160 X55 +160 X57 +160 X58 +160 X59 +160 X60 +160 X61 +160 X62 +160 X63
  +160 X64 +160 X65 +160 X67 +160 X68 +160 X69 +160 X70 +160 X71 +160 X72 +160 X73 +160 X74 +160 X75 +160 X76
  +160 X77 +160 X78 +160 X79 +160 X80 +160 X81 +160 X82 +160 X83 +160 X85 +160 X86 +160 X87 +160 X88 +160 X89
  +160 X91 +160 X92 +160 X94 +160 X95 +160 X96 +160 X97 +160 X98 +160 X99 +160 X100 +160 X101 +160 X102
  +160 X103 +160 X104 +160 X105 +160 X106 +160 X107 +160 X108 +160 X109 +160 X110 +160 X111 +160 X113
  +160 X114 +160 X115 +160 X116 +160 X117 +160 X118 +160 X119 +160 X120 +160 X121 +160 X122 +160 X123
  +160 X124 +160 X125 +160 X126 >= -1520
 c60: +1 theta -160 X6 -160 X12 -160 X15 -160 X38 -160 X61 -160 X66 -160 X84 -160 X85 -160 X97 -160 X112
  -160 X127 +160 X0 +160 X1 +160 X2 +160 X3 +160 X4 +160 X5 +160 X7 +160 X8 +160 X9 +160 X10 +160 X11
  +160 X13 +160 X14 +160 X16 +160 X17 +160 X18 +160 X19 +160 X20 +160 X21 +160 X22 +160 X23 +160 X24 +160 X25
  +160 X26 +160 X27 +160 X28 +160 X29 +160 X30 +160 X31 +160 X32 +160 X33 +160 X34 +160 X35 +160 X36 +160 X37
  +160 X39 +160 X40 +160 X41 +160 X42 +160 X43 +160 X44 +160 X45 +160 X46 +160 X47 +160 X48 +160 X49 +160 X50
  +160 X51 +160 X52 +160 X53 +160 X54 +160 X55 +160 X56 +160 X57 +160 X58 +160 X59 +160 X60 +160 X62 +160 X63
  +160 X64 +160 X65 +160 X67 +160 X68 +160 X69 +160 X70 +160 X71 +160 X72 +160 X73 +160 X74 +160 X75 +160 X76
  +160 X77 +160 X78 +160 X79 +160 X80 +160 X81 +160 X82 +160 X83 +160 X86 +160 X87 +160 X88 +160 X89 +160 X90
  +160 X91 +160 X92 +160 X93 +160 X94 +160 X95 +160 X96 +160 X98 +160 X99 +160 X100 +160 X101 +160 X102
  +160 X103 +160 X104 +160 X105 +160 X106 +160 X107 +160 X108 +160 X109 +160 X110 +160 X111 +160 X113
  +160 X114 +160 X115 +160 X116 +160 X117 +160 X118 +160 X119 +160 X120 +160 X121 +160 X122 +160 X123
  +160 X124 +160 X125 +160 X126 >= -1520
 c61: +1 theta -160 X6 -160 X12 -160 X15 -160 X38 -160 X61 -160 X66 -160 X84 -160 X88 -160 X95 -160 X112
  -160 X127 +160 X0 +160 X1 +160 X2 +160 X3 +160 X4 +160 X5 +160 X7 +160 X8 +160 X9 +160 X10 +160 X11
  +160 X13 +160 X14 +160 X16 +160 X17 +160 X18 +160 X19 +160 X20 +160 X21 +160 X22 +160 X23 +160 X24 +160 X25
  +160 X26 +160 X27 +160 X28 +160 X29 +160 X30 +160 X31 +160 X32 +160 X33 +160 X34 +160 X35 +160 X36 +160 X37
  +160 X39 +160 X40 +160 X41 +160 X42 +160 X43 +160 X44 +160 X45 +160 X46 +160 X47 +160 X48 +160 X49 +160 X50
  +160 X51 +160 X52 +160 X53 +160 X54 +160 X55 +160 X56 +160 X57 +160 X58 +160 X59 +160 X60 +160 X62 +160 X63
  +160 X64 +160 X65 +160 X67 +160 X68 +160 X69 +160 X70 +160 X71 +160 X72 +160 X73 +160 X74 +160 X75 +160 X76
  +160 X77 +160 X78 +160 X79 +160 X80 +160 X81 +160 X82 +160 X83 +160 X85 +160 X86 +160 X87 +160 X89 +160 X90
  +160 X91 +160 X92 +160 X93 +160 X94 +160 X96 +160 X97 +160 X98 +160 X99 +160 X100 +160 X101 +160 X102
  +160 X103 +160 X104 +160 X105 +160 X106 +160 X107 +160 X108 +160 X109 +160 X110 +160 X111 +160 X113
  +160 X114 +160 X115 +160 X116 +160 X117 +160 X118 +160 X119 +160 X120 +160 X121 +160 X122 +160 X123
  +160 X124 +160 X125 +160 X126 >= -1520
 c62: +1 theta -160 X6 -160 X10 -160 X17 -160 X38 -160 X61 -160 X66 -160 X84 -160 X90 -160 X93 -160 X112
  -160 X127 +160 X0 +160 X1 +160 X2 +160 X3 +160 X4 +160 X5 +160 X7 +160 X8 +160 X9 +160 X11 +160 X12
  +160 X13 +160 X14 +160 X15 +160 X16 +160 X18 +160 X19 +160 X20 +160 X21 +160 X22 +160 X23 +160 X24 +160 X25
  +160 X26 +160 X27 +160 X28 +160 X29 +160 X30 +160 X31 +160 X32 +160 X33 +160 X34 +160 X35 +160 X36 +160 X37
  +160 X39 +160 X40 +160 X41 +160 X42 +160 X43 +160 X44 +160 X45 +160 X46 +160 X47 +160 X48 +160 X49 +160 X50
  +160 X51 +160 X52 +160 X53 +160 X54 +160 X55 +160 X56 +160 X57 +160 X58 +160 X59 +160 X60 +160 X62 +160 X63
  +160 X64 +160 X65 +160 X67 +160 X68 +160 X69 +160 X70 +160 X71 +160 X72 +160 X73 +160 X74 +160 X75 +160 X76
  +160 X77 +160 X78 +160 X79 +160 X80 +160 X81 +160 X82 +160 X83 +160 X85 +160 X86 +160 X87 +160 X88 +160 X89
  +160 X91 +160 X92 +160 X94 +160 X95 +160 X96 +160 X97 +160 X98 +160 X99 +160 X100 +160 X101 +160 X102
  +160 X103 +160 X104 +160 X105 +160 X106 +160 X107 +160 X108 +160 X109 +160 X110 +160 X111 +160 X113
  +160 X114 +160 X115 +160 X116 +160 X117 +160 X118 +160 X119 +160 X120 +160 X121 +160 X122 +160 X123
  +160 X124 +160 X125 +160 X126 >= -1520
 c63: +1 theta -160 X6 -160 X7 -160 X20 -160 X38 -160 X61 -160 X66 -160 X84 -160 X90 -160 X93 -160 X112
  -160 X127 +160 X0 +160 X1 +160 X2 +160 X3 +160 X4 +160 X5 +160 X8 +160 X9 +160 X10 +160 X11 +160 X12
  +160 X13 +160 X14 +160 X15 +160 X16 +160 X17 +160 X18 +160 X19 +160 X21 +160 X22 +160 X23 +160 X24 +160 X25
  +160 X26 +160 X27 +160 X28 +160 X29 +160 X30 +160 X31 +160 X32 +160 X33 +160 X34 +160 X35 +160 X36 +160 X37
  +160 X39 +160 X40 +160 X41 +160 X42 +160 X43 +160 X44 +160 X45 +160 X46 +160 X47 +160 X48 +160 X49 +160 X50
  +160 X51 +160 X52 +160 X53 +160 X54 +160 X55 +160 X56 +160 X57 +160 X58 +160 X59 +160 X60 +160 X62 +160 X63
  +160 X64 +160 X65 +160 X67 +160 X68 +160 X69 +160 X70 +160 X71 +160 X72 +160 X73 +160 X74 +160 X75 +160 X76
  +160 X77 +160 X78 +160 X79 +160 X80 +160 X81 +160 X82 +160 X83 +160 X85 +160 X86 +160 X87 +160 X88 +160 X89
  +160 X91 +160 X92 +160 X94 +160 X95 +160 X96 +160 X97 +160 X98 +160 X99 +160 X100 +160 X101 +160 X102
  +160 X103 +160 X104 +160 X105 +160 X106 +160 X107 +160 X108 +160 X109 +160 X110 +160 X111 +160 X113
  +160 X114 +160 X115 +160 X116 +160 X117 +160 X118 +160 X119 +160 X120 +160 X121 +160 X122 +160 X123
  +160 X124 +160 X125 +160 X126 >= -1520
 c64: +1 theta -160 X6 -160 X7 -160 X20 -160 X40 -160 X60 -160 X66 -160 X84 -160 X90 -160 X93 -160 X112
  -160 X127 +160 X0 +160 X1 +160 X2 +160 X3 +160 X4 +160 X5 +160 X8 +160 X9 +160 X10 +160 X11 +160 X12
  +160 X13 +160 X14 +160 X15 +160 X16 +160 X17 +160 X18 +160 X19 +160 X21 +160 X22 +160 X23 +160 X24 +160 X25
  +160 X26 +160 X27 +160 X28 +160 X29 +160 X30 +160 X31 +160 X32 +160 X33 +160 X34 +160 X35 +160 X36 +160 X37
  +160 X38 +160 X39 +160 X41 +160 X42 +160 X43 +160 X44 +160 X45 +160 X46 +160 X47 +160 X48 +160 X49 +160 X50
  +160 X51 +160 X52 +160 X53 +160 X54 +160 X55 +160 X56 +160 X57 +160 X58 +160 X59 +160 X61 +160 X62 +160 X63
  +160 X64 +160 X65 +160 X67 +160 X68 +160 X69 +160 X70 +160 X71 +160 X72 +160 X73 +160 X74 +160 X75 +160 X76
  +160 X77 +160 X78 +160 X79 +160 X80 +160 X81 +160 X82 +160 X83 +160 X85 +160 X86 +160 X87 +160 X88 +160 X89
  +160 X91 +160 X92 +160 X94 +160 X95 +160 X96 +160 X97 +160 X98 +160 X99 +160 X100 +160 X101 +160 X102
  +160 X103 +160 X104 +160 X105 +160 X106 +160 X107 +160 X108 +160 X109 +160 X110 +160 X111 +160 X113
  +160 X114 +160 X115 +160 X116 +160 X117 +160 X118 +160 X119 +160 X120 +160 X121 +160 X122 +160 X123
  +160 X124 +160 X125 +160 X126 >= -1520
 c65: +1 theta -160 X6 -160 X11 -160 X16 -160 X28 -160 X64 -160 X66 -160 X84 -160 X90 -160 X93 -160 X112
  -160 X127 +160 X0 +160 X1 +160 X2 +160 X3 +160 X4 +160 X5 +160 X7 +160 X8 +160 X9 +160 X10 +160 X12
  +160 X13 +160 X14 +160 X15 +160 X17 +160 X18 +160 X19 +160 X20 +160 X21 +160 X22 +160 X23 +160 X24 +160 X25
  +160 X26 +160 X27 +160 X29 +160 X30 +160 X31 +160 X32 +160 X33 +160 X34 +160 X35 +160 X36 +160 X37 +160 X38
  +160 X39 +160 X40 +160 X41 +160 X42 +160 X43 +160 X44 +160 X45 +160 X46 +160 X47 +160 X48 +160 X49 +160 X50
  +160 X51 +160 X52 +160 X53 +160 X54 +160 X55 +160 X56 +160 X57 +160 X58 +160 X59 +160 X60 +160 X61 +160 X62
  +160 X63 +160 X65 +160 X67 +160 X68 +160 X69 +160 X70 +160 X71 +160 X72 +160 X73 +160 X74 +160 X75 +160 X76
  +160 X77 +160 X78 +160 X79 +160 X80 +160 X81 +160 X82 +160 X83 +160 X85 +160 X86 +160 X87 +160 X88 +160 X89
  +160 X91 +160 X92 +160 X94 +160 X95 +160 X96 +160 X97 +160 X98 +160 X99 +160 X100 +160 X101 +160 X102
  +160 X103 +160 X104 +160 X105 +160 X106 +160 X107 +160 X108 +160 X109 +160 X110 +160 X111 +160 X113
  +160 X114 +160 X115 +160 X116 +160 X117 +160 X118 +160 X119 +160 X120 +160 X121 +160 X122 +160 X123
  +160 X124 +160 X125 +160 X126 >= -1520
 c66: +1 theta -130 X6 -130 X11 -130 X16 -130 X43 -130 X58 -130 X66 -130 X84 -130 X90 -130 X93 -130 X112
  -130 X127 +130 X0 +130 X1 +130 X2 +130 X3 +130 X4 +130 X5 +130 X7 +130 X8 +130 X9 +130 X10 +130 X12
  +130 X13 +130 X14 +130 X15 +130 X17 +130 X18 +130 X19 +130 X20 +130 X21 +130 X22 +130 X23 +130 X24 +130 X25
  +130 X26 +130 X27 +130 X28 +130 X29 +130 X30 +130 X31 +130 X32 +130 X33 +130 X34 +130 X35 +130 X36 +130 X37
  +130 X38 +130 X39 +130 X40 +130 X41 +130 X42 +130 X44 +130 X45 +130 X46 +130 X47 +130 X48 +130 X49 +130 X50
  +130 X51 +130 X52 +130 X53 +130 X54 +130 X55 +130 X56 +130 X57 +130 X59 +130 X60 +130 X61 +130 X62 +130 X63
  +130 X64 +130 X65 +130 X67 +130 X68 +130 X69 +130 X70 +130 X71 +130 X72 +130 X73 +130 X74 +130 X75 +130 X76
  +130 X77 +130 X78 +130 X79 +130 X80 +130 X81 +130 X82 +130 X83 +130 X85 +130 X86 +130 X87 +130 X88 +130 X89
  +130 X91 +130 X92 +130 X94 +130 X95 +130 X96 +130 X97 +130 X98 +130 X99 +130 X100 +130 X101 +130 X102
  +130 X103 +130 X104 +130 X105 +130 X106 +130 X107 +130 X108 +130 X109 +130 X110 +130 X111 +130 X113
  +130 X114 +130 X115 +130 X116 +130 X117 +130 X118 +130 X119 +130 X120 +130 X121 +130 X122 +130 X123
  +130 X124 +130 X125 +130 X126 >= -1220
 c67: +1 theta -160 X6 -160 X13 -160 X14 -160 X40 -160 X60 -160 X66 -160 X84 -160 X90 -160 X93 -160 X112
  -160 X127 +160 X0 +160 X1 +160 X2 +160 X3 +160 X4 +160 X5 +160 X7 +160 X8 +160 X9 +160 X10 +160 X11
  +160 X12 +160 X15 +160 X16 +160 X17 +160 X18 +160 X19 +160 X20 +160 X21 +160 X22 +160 X23 +160 X24 +160 X25
  +160 X26 +160 X27 +160 X28 +160 X29 +160 X30 +160 X31 +160 X32 +160 X33 +160 X34 +160 X35 +160 X36 +160 X37
  +160 X38 +160 X39 +160 X41 +160 X42 +160 X43 +160 X44 +160 X45 +160 X46 +160 X47 +160 X48 +160 X49 +160 X50
  +160 X51 +160 X52 +160 X53 +160 X54 +160 X55 +160 X56 +160 X57 +160 X58 +160 X59 +160 X61 +160 X62 +160 X63
  +160 X64 +160 X65 +160 X67 +160 X68 +160 X69 +160 X70 +160 X71 +160 X72 +160 X73 +160 X74 +160 X75 +160 X76
  +160 X77 +160 X78 +160 X79 +160 X80 +160 X81 +160 X82 +160 X83 +160 X85 +160 X86 +160 X87 +160 X88 +160 X89
  +160 X91 +160 X92 +160 X94 +160 X95 +160 X96 +160 X97 +160 X98 +160 X99 +160 X100 +160 X101 +160 X102
  +160 X103 +160 X104 +160 X105 +160 X106 +160 X107 +160 X108 +160 X109 +160 X110 +160 X111 +160 X113
  +160 X114 +160 X115 +160 X116 +160 X117 +160 X118 +160 X119 +160 X120 +160 X121 +160 X122 +160 X123
  +160 X124 +160 X125 +160 X126 >= -1520
 c68: +1 theta -160 X6 -160 X11 -160 X16 -160 X38 -160 X61 -160 X66 -160 X84 -160 X86 -160 X96 -160 X112
  -160 X127 +160 X0 +160 X1 +160 X2 +160 X3 +160 X4 +160 X5 +160 X7 +160 X8 +160 X9 +160 X10 +160 X12
  +160 X13 +160 X14 +160 X15 +160 X17 +160 X18 +160 X19 +160 X20 +160 X21 +160 X22 +160 X23 +160 X24 +160 X25
  +160 X26 +160 X27 +160 X28 +160 X29 +160 X30 +160 X31 +160 X32 +160 X33 +160 X34 +160 X35 +160 X36 +160 X37
  +160 X39 +160 X40 +160 X41 +160 X42 +160 X43 +160 X44 +160 X45 +160 X46 +160 X47 +160 X48 +160 X49 +160 X50
  +160 X51 +160 X52 +160 X53 +160 X54 +160 X55 +160 X56 +160 X57 +160 X58 +160 X59 +160 X60 +160 X62 +160 X63
  +160 X64 +160 X65 +160 X67 +160 X68 +160 X69 +160 X70 +160 X71 +160 X72 +160 X73 +160 X74 +160 X75 +160 X76
  +160 X77 +160 X78 +160 X79 +160 X80 +160 X81 +160 X82 +160 X83 +160 X85 +160 X87 +160 X88 +160 X89 +160 X90
  +160 X91 +160 X92 +160 X93 +160 X94 +160 X95 +160 X97 +160 X98 +160 X99 +160 X100 +160 X101 +160 X102
  +160 X103 +160 X104 +160 X105 +160 X106 +160 X107 +160 X108 +160 X109 +160 X110 +160 X111 +160 X113
  +160 X114 +160 X115 +160 X116 +160 X117 +160 X118 +160 X119 +160 X120 +160 X121 +160 X122 +160 X123
  +160 X124 +160 X125 +160 X126 >= -1520
 c69: +1 theta -160 X6 -160 X12 -160 X15 -160 X38 -160 X61 -160 X66 -160 X84 -160 X90 -160 X93 -160 X112
  -160 X127 +160 X0 +160 X1 +160 X2 +160 X3 +160 X4 +160 X5 +160 X7 +160 X8 +160 X9 +160 X10 +160 X11
  +160 X13 +160 X14 +160 X16 +160 X17 +160 X18 +160 X19 +160 X20 +160 X21 +160 X22 +160 X23 +160 X24 +160 X25
  +160 X26 +160 X27 +160 X28 +160 X29 +160 X30 +160 X31 +160 X32 +160 X33 +160 X34 +160 X35 +160 X36 +160 X37
  +160 X39 +160 X40 +160 X41 +160 X42 +160 X43 +160 X44 +160 X45 +160 X46 +160 X47 +160 X48 +160 X49 +160 X50
  +160 X51 +160 X52 +160 X53 +160 X54 +160 X55 +160 X56 +160 X57 +160 X58 +160 X59 +160 X60 +160 X62 +160 X63
  +160 X64 +160 X65 +160 X67 +160 X68 +160 X69 +160 X70 +160 X71 +160 X72 +160 X73 +160 X74 +160 X75 +160 X76
  +160 X77 +160 X78 +160 X79 +160 X80 +160 X81 +160 X82 +160 X83 +160 X85 +160 X86 +160 X87 +160 X88 +160 X89
  +160 X91 +160 X92 +160 X94 +160 X95 +160 X96 +160 X97 +160 X98 +160 X99 +160 X100 +160 X101 +160 X102
  +160 X103 +160 X104 +160 X105 +160 X106 +160 X107 +160 X108 +160 X109 +160 X110 +160 X111 +160 X113
  +160 X114 +160 X115 +160 X116 +160 X117 +160 X118 +160 X119 +160 X120 +160 X121 +160 X122 +160 X123
  +160 X124 +160 X125 +160 X126 >= -1520
 c70: +1 theta -160 X6 -160 X12 -160 X15 -160 X38 -160 X61 -160 X70 -160 X83 -160 X90 -160 X93 -160 X112
  -160 X127 +160 X0 +160 X1 +160 X2 +160 X3 +160 X4 +160 X5 +160 X7 +160 X8 +160 X9 +160 X10 +160 X11
  +160 X13 +160 X14 +160 X16 +160 X17 +160 X18 +160 X19 +160 X20 +160 X21 +160 X22 +160 X23 +160 X24 +160 X25
  +160 X26 +160 X27 +160 X28 +160 X29 +160 X30 +160 X31 +160 X32 +160 X33 +160 X34 +160 X35 +160 X36 +160 X37
  +160 X39 +160 X40 +160 X41 +160 X42 +160 X43 +160 X44 +160 X45 +160 X46 +160 X47 +160 X48 +160 X49 +160 X50
  +160 X51 +160 X52 +160 X53 +160 X54 +160 X55 +160 X56 +160 X57 +160 X58 +160 X59 +160 X60 +160 X62 +160 X63
  +160 X64 +160 X65 +160 X66 +160 X67 +160 X68 +160 X69 +160 X71 +160 X72 +160 X73 +160 X74 +160 X75 +160 X76
  +160 X77 +160 X78 +160 X79 +160 X80 +160 X81 +160 X82 +160 X84 +160 X85 +160 X86 +160 X87 +160 X88 +160 X89
  +160 X91 +160 X92 +160 X94 +160 X95 +160 X96 +160 X97 +160 X98 +160 X99 +160 X100 +160 X101 +160 X102
  +160 X103 +160 X104 +160 X105 +160 X106 +160 X107 +160 X108 +160 X109 +160 X110 +160 X111 +160 X113
  +160 X114 +160 X115 +160 X116 +160 X117 +160 X118 +160 X119 +160 X120 +160 X121 +160 X122 +160 X123
  +160 X124 +160 X125 +160 X126 >= -1520
 c71: +1 theta -160 X6 -160 X8 -160 X19 -160 X28 -160 X64 -160 X66 -160 X84 -160 X90 -160 X93 -160 X112
  -160 X127 +160 X0 +160 X1 +160 X2 +160 X3 +160 X4 +160 X5 +160 X7 +160 X9 +160 X10 +160 X11 +160 X12
  +160 X13 +160 X14 +160 X15 +160 X16 +160 X17 +160 X18 +160 X20 +160 X21 +160 X22 +160 X23 +160 X24 +160 X25
  +160 X26 +160 X27 +160 X29 +160 X30 +160 X31 +160 X32 +160 X33 +160 X34 +160 X35 +160 X36 +160 X37 +160 X38
  +160 X39 +160 X40 +160 X41 +160 X42 +160 X43 +160 X44 +160 X45 +160 X46 +160 X47 +160 X48 +160 X49 +160 X50
  +160 X51 +160 X52 +160 X53 +160 X54 +160 X55 +160 X56 +160 X57 +160 X58 +160 X59 +160 X60 +160 X61 +160 X62
  +160 X63 +160 X65 +160 X67 +160 X68 +160 X69 +160 X70 +160 X71 +160 X72 +160 X73 +160 X74 +160 X75 +160 X76
  +160 X77 +160 X78 +160 X79 +160 X80 +160 X81 +160 X82 +160 X83 +160 X85 +160 X86 +160 X87 +160 X88 +160 X89
  +160 X91 +160 X92 +160 X94 +160 X95 +160 X96 +160 X97 +160 X98 +160 X99 +160 X100 +160 X101 +160 X102
  +160 X103 +160 X104 +160 X105 +160 X106 +160 X107 +160 X108 +160 X109 +160 X110 +160 X111 +160 X113
  +160 X114 +160 X115 +160 X116 +160 X117 +160 X118 +160 X119 +160 X120 +160 X121 +160 X122 +160 X123
  +160 X124 +160 X125 +160 X126 >= -1520
 c72: +1 theta -160 X6 -160 X7 -160 X20 -160 X28 -160 X64 -160 X66 -160 X84 -160 X90 -160 X93 -160 X112
  -160 X127 +160 X0 +160 X1 +160 X2 +160 X3 +160 X4 +160 X5 +160 X8 +160 X9 +160 X10 +160 X11 +160 X12
  +160 X13 +160 X14 +160 X15 +160 X16 +160 X17 +160 X18 +160 X19 +160 X21 +160 X22 +160 X23 +160 X24 +160 X25
  +160 X26 +160 X27 +160 X29 +160 X30 +160 X31 +160 X32 +160 X33 +160 X34 +160 X35 +160 X36 +160 X37 +160 X38
  +160 X39 +160 X40 +160 X41 +160 X42 +160 X43 +160 X44 +160 X45 +160 X46 +160 X47 +160 X48 +160 X49 +160 X50
  +160 X51 +160 X52 +160 X53 +160 X54 +160 X55 +160 X56 +160 X57 +160 X58 +160 X59 +160 X60 +160 X61 +160 X62
  +160 X63 +160 X65 +160 X67 +160 X68 +160 X69 +160 X70 +160 X71 +160 X72 +160 X73 +160 X74 +160 X75 +160 X76
  +160 X77 +160 X78 +160 X79 +160 X80 +160 X81 +160 X82 +160 X83 +160 X85 +160 X86 +160 X87 +160 X88 +160 X89
  +160 X91 +160 X92 +160 X94 +160 X95 +160 X96 +160 X97 +160 X98 +160 X99 +160 X100 +160 X101 +160 X102
  +160 X103 +160 X104 +160 X105 +160 X106 +160 X107 +160 X108 +160 X109 +160 X110 +160 X111 +160 X113
  +160 X114 +160 X115 +160 X116 +160 X117 +160 X118 +160 X119 +160 X120 +160 X121 +160 X122 +160 X123
  +160 X124 +160 X125 +160 X126 >= -1520
 c73: +1 theta -160 X6 -160 X11 -160 X16 -160 X28 -160 X64 -160 X66 -160 X84 -160 X89 -160 X94 -160 X112
  -160 X127 +160 X0 +160 X1 +160 X2 +160 X3 +160 X4 +160 X5 +160 X7 +160 X8 +160 X9 +160 X10 +160 X12
  +160 X13 +160 X14 +160 X15 +160 X17 +160 X18 +160 X19 +160 X20 +160 X21 +160 X22 +160 X23 +160 X24 +160 X25
  +160 X26 +160 X27 +160 X29 +160 X30 +160 X31 +160 X32 +160 X33 +160 X34 +160 X35 +160 X36 +160 X37 +160 X38
  +160 X39 +160 X40 +160 X41 +160 X42 +160 X43 +160 X44 +160 X45 +160 X46 +160 X47 +160 X48 +160 X49 +160 X50
  +160 X51 +160 X52 +160 X53 +160 X54 +160 X55 +160 X56 +160 X57 +160 X58 +160 X59 +160 X60 +160 X61 +160 X62
  +160 X63 +160 X65 +160 X67 +160 X68 +160 X69 +160 X70 +160 X71 +160 X72 +160 X73 +160 X74 +160 X75 +160 X76
  +160 X77 +160 X78 +160 X79 +160 X80 +160 X81 +160 X82 +160 X83 +160 X85 +160 X86 +160 X87 +160 X88 +160 X90
  +160 X91 +160 X92 +160 X93 +160 X95 +160 X96 +160 X97 +160 X98 +160 X99 +160 X100 +160 X101 +160 X102
  +160 X103 +160 X104 +160 X105 +160 X106 +160 X107 +160 X108 +160 X109 +160 X110 +160 X111 +160 X113
  +160 X114 +160 X115 +160 X116 +160 X117 +160 X118 +160 X119 +160 X120 +160 X121 +160 X122 +160 X123
  +160 X124 +160 X125 +160 X126 >= -1520
 c74: +1 theta -160 X6 -160 X7 -160 X20 -160 X28 -160 X64 -160 X66 -160 X84 -160 X89 -160 X94 -160 X112
  -160 X127 +160 X0 +160 X1 +160 X2 +160 X3 +160 X4 +160 X5 +160 X8 +160 X9 +160 X10 +160 X11 +160 X12
  +160 X13 +160 X14 +160 X15 +160 X16 +160 X17 +160 X18 +160 X19 +160 X21 +160 X22 +160 X23 +160 X24 +160 X25
  +160 X26 +160 X27 +160 X29 +160 X30 +160 X31 +160 X32 +160 X33 +160 X34 +160 X35 +160 X36 +160 X37 +160 X38
  +160 X39 +160 X40 +160 X41 +160 X42 +160 X43 +160 X44 +160 X45 +160 X46 +160 X47 +160 X48 +160 X49 +160 X50
  +160 X51 +160 X52 +160 X53 +160 X54 +160 X55 +160 X56 +160 X57 +160 X58 +160 X59 +160 X60 +160 X61 +160 X62
  +160 X63 +160 X65 +160 X67 +160 X68 +160 X69 +160 X70 +160 X71 +160 X72 +160 X73 +160 X74 +160 X75 +160 X76
  +160 X77 +160 X78 +160 X79 +160 X80 +160 X81 +160 X82 +160 X83 +160 X85 +160 X86 +160 X87 +160 X88 +160 X90
  +160 X91 +160 X92 +160 X93 +160 X95 +160 X96 +160 X97 +160 X98 +160 X99 +160 X100 +160 X101 +160 X102
  +160 X103 +160 X104 +160 X105 +160 X106 +160 X107 +160 X108 +160 X109 +160 X110 +160 X111 +160 X113
  +160 X114 +160 X115 +160 X116 +160 X117 +160 X118 +160 X119 +160 X120 +160 X121 +160 X122 +160 X123
  +160 X124 +160 X125 +160 X126 >= -1520
 c75: +1 theta -160 X6 -160 X9 -160 X18 -160 X28 -160 X64 -160 X66 -160 X84 -160 X90 -160 X93 -160 X112
  -160 X127 +160 X0 +160 X1 +160 X2 +160 X3 +160 X4 +160 X5 +160 X7 +160 X8 +160 X10 +160 X11 +160 X12
  +160 X13 +160 X14 +160 X15 +160 X16 +160 X17 +160 X19 +160 X20 +160 X21 +160 X22 +160 X23 +160 X24 +160 X25
  +160 X26 +160 X27 +160 X29 +160 X30 +160 X31 +160 X32 +160 X33 +160 X34 +160 X35 +160 X36 +160 X37 +160 X38
  +160 X39 +160 X40 +160 X41 +160 X42 +160 X43 +160 X44 +160 X45 +160 X46 +160 X47 +160 X48 +160 X49 +160 X50
  +160 X51 +160 X52 +160 X53 +160 X54 +160 X55 +160 X56 +160 X57 +160 X58 +160 X59 +160 X60 +160 X61 +160 X62
  +160 X63 +160 X65 +160 X67 +160 X68 +160 X69 +160 X70 +160 X71 +160 X72 +160 X73 +160 X74 +160 X75 +160 X76
  +160 X77 +160 X78 +160 X79 +160 X80 +160 X81 +160 X82 +160 X83 +160 X85 +160 X86 +160 X87 +160 X88 +160 X89
  +160 X91 +160 X92 +160 X94 +160 X95 +160 X96 +160 X97 +160 X98 +160 X99 +160 X100 +160 X101 +160 X102
  +160 X103 +160 X104 +160 X105 +160 X106 +160 X107 +160 X108 +160 X109 +160 X110 +160 X111 +160 X113
  +160 X114 +160 X115 +160 X116 +160 X117 +160 X118 +160 X119 +160 X120 +160 X121 +160 X122 +160 X123
  +160 X124 +160 X125 +160 X126 >= -1520
 c76: +1 theta -160 X6 -160 X9 -160 X18 -160 X28 -160 X64 -160 X66 -160 X84 -160 X91 -160 X92 -160 X112
  -160 X127 +160 X0 +160 X1 +160 X2 +160 X3 +160 X4 +160 X5 +160 X7 +160 X8 +160 X10 +160 X11 +160 X12
  +160 X13 +160 X14 +160 X15 +160 X16 +160 X17 +160 X19 +160 X20 +160 X21 +160 X22 +160 X23 +160 X24 +160 X25
  +160 X26 +160 X27 +160 X29 +160 X30 +160 X31 +160 X32 +160 X33 +160 X34 +160 X35 +160 X36 +160 X37 +160 X38
  +160 X39 +160 X40 +160 X41 +160 X42 +160 X43 +160 X44 +160 X45 +160 X46 +160 X47 +160 X48 +160 X49 +160 X50
  +160 X51 +160 X52 +160 X53 +160 X54 +160 X55 +160 X56 +160 X57 +160 X58 +160 X59 +160 X60 +160 X61 +160 X62
  +160 X63 +160 X65 +160 X67 +160 X68 +160 X69 +160 X70 +160 X71 +160 X72 +160 X73 +160 X74 +160 X75 +160 X76
  +160 X77 +160 X78 +160 X79 +160 X80 +160 X81 +160 X82 +160 X83 +160 X85 +160 X86 +160 X87 +160 X88 +160 X89
  +160 X90 +160 X93 +160 X94 +160 X95 +160 X96 +160 X97 +160 X98 +160 X99 +160 X100 +160 X101 +160 X102
  +160 X103 +160 X104 +160 X105 +160 X106 +160 X107 +160 X108 +160 X109 +160 X110 +160 X111 +160 X113
  +160 X114 +160 X115 +160 X116 +160 X117 +160 X118 +160 X119 +160 X120 +160 X121 +160 X122 +160 X123
  +160 X124 +160 X125 +160 X126 >= -1520
 c77: +1 theta -160 X6 -160 X8 -160 X19 -160 X28 -160 X64 -160 X66 -160 X84 -160 X91 -160 X92 -160 X112
  -160 X127 +160 X0 +160 X1 +160 X2 +160 X3 +160 X4 +160 X5 +160 X7 +160 X9 +160 X10 +160 X11 +160 X12
  +160 X13 +160 X14 +160 X15 +160 X16 +160 X17 +160 X18 +160 X20 +160 X21 +160 X22 +160 X23 +160 X24 +160 X25
  +160 X26 +160 X27 +160 X29 +160 X30 +160 X31 +160 X32 +160 X33 +160 X34 +160 X35 +160 X36 +160 X37 +160 X38
  +160 X39 +160 X40 +160 X41 +160 X42 +160 X43 +160 X44 +160 X45 +160 X46 +160 X47 +160 X48 +160 X49 +160 X50
  +160 X51 +160 X52 +160 X53 +160 X54 +160 X55 +160 X56 +160 X57 +160 X58 +160 X59 +160 X60 +160 X61 +160 X62
  +160 X63 +160 X65 +160 X67 +160 X68 +160 X69 +160 X70 +160 X71 +160 X72 +160 X73 +160 X74 +160 X75 +160 X76
  +160 X77 +160 X78 +160 X79 +160 X80 +160 X81 +160 X82 +160 X83 +160 X85 +160 X86 +160 X87 +160 X88 +160 X89
  +160 X90 +160 X93 +160 X94 +160 X95 +160 X96 +160 X97 +160 X98 +160 X99 +160 X100 +160 X101 +160 X102
  +160 X103 +160 X104 +160 X105 +160 X106 +160 X107 +160 X108 +160 X109 +160 X110 +160 X111 +160 X113
  +160 X114 +160 X115 +160 X116 +160 X117 +160 X118 +160 X119 +160 X120 +160 X121 +160 X122 +160 X123
  +160 X124 +160 X125 +160 X126 >= -1520
 c78: +1 theta -160 X6 -160 X10 -160 X17 -160 X28 -160 X64 -160 X66 -160 X84 -160 X90 -160 X93 -160 X112
  -160 X127 +160 X0 +160 X1 +160 X2 +160 X3 +160 X4 +160 X5 +160 X7 +160 X8 +160 X9 +160 X11 +160 X12
  +160 X13 +160 X14 +160 X15 +160 X16 +160 X18 +160 X19 +160 X20 +160 X21 +160 X22 +160 X23 +160 X24 +160 X25
  +160 X26 +160 X27 +160 X29 +160 X30 +160 X31 +160 X32 +160 X33 +160 X34 +160 X35 +160 X36 +160 X37 +160 X38
  +160 X39 +160 X40 +160 X41 +160 X42 +160 X43 +160 X44 +160 X45 +160 X46 +160 X47 +160 X48 +160 X49 +160 X50
  +160 X51 +160 X52 +160 X53 +160 X54 +160 X55 +160 X56 +160 X57 +160 X58 +160 X59 +160 X60 +160 X61 +160 X62
  +160 X63 +160 X65 +160 X67 +160 X68 +160 X69 +160 X70 +160 X71 +160 X72 +160 X73 +160 X74 +160 X75 +160 X76
  +160 X77 +160 X78 +160 X79 +160 X80 +160 X81 +160 X82 +160 X83 +160 X85 +160 X86 +160 X87 +160 X88 +160 X89
  +160 X91 +160 X92 +160 X94 +160 X95 +160 X96 +160 X97 +160 X98 +160 X99 +160 X100 +160 X101 +160 X102
  +160 X103 +160 X104 +160 X105 +160 X106 +160 X107 +160 X108 +160 X109 +160 X110 +160 X111 +160 X113
  +160 X114 +160 X115 +160 X116 +160 X117 +160 X118 +160 X119 +160 X120 +160 X121 +160 X122 +160 X123
  +160 X124 +160 X125 +160 X126 >= -1520
 c79: +1 theta -160 X6 -160 X8 -160 X19 -160 X28 -160 X64 -160 X66 -160 X84 -160 X89 -160 X94 -160 X112
  -160 X127 +160 X0 +160 X1 +160 X2 +160 X3 +160 X4 +160 X5 +160 X7 +160 X9 +160 X10 +160 X11 +160 X12
  +160 X13 +160 X14 +160 X15 +160 X16 +160 X17 +160 X18 +160 X20 +160 X21 +160 X22 +160 X23 +160 X24 +160 X25
  +160 X26 +160 X27 +160 X29 +160 X30 +160 X31 +160 X32 +160 X33 +160 X34 +160 X35 +160 X36 +160 X37 +160 X38
  +160 X39 +160 X40 +160 X41 +160 X42 +160 X43 +160 X44 +160 X45 +160 X46 +160 X47 +160 X48 +160 X49 +160 X50
  +160 X51 +160 X52 +160 X53 +160 X54 +160 X55 +160 X56 +160 X57 +160 X58 +160 X59 +160 X60 +160 X61 +160 X62
  +160 X63 +160 X65 +160 X67 +160 X68 +160 X69 +160 X70 +160 X71 +160 X72 +160 X73 +160 X74 +160 X75 +160 X76
  +160 X77 +160 X78 +160 X79 +160 X80 +160 X81 +160 X82 +160 X83 +160 X85 +160 X86 +160 X87 +160 X88 +160 X90
  +160 X91 +160 X92 +160 X93 +160 X95 +160 X96 +160 X97 +160 X98 +160 X99 +160 X100 +160 X101 +160 X102
  +160 X103 +160 X104 +160 X105 +160 X106 +160 X107 +160 X108 +160 X109 +160 X110 +160 X111 +160 X113
  +160 X114 +160 X115 +160 X116 +160 X117 +160 X118 +160 X119 +160 X120 +160 X121 +160 X122 +160 X123
  +160 X124 +160 X125 +160 X126 >= -1520
 c80: +1 theta -160 X6 -160 X7 -160 X20 -160 X46 -160 X55 -160 X66 -160 X84 -160 X89 -160 X94 -160 X112
  -160 X127 +160 X0 +160 X1 +160 X2 +160 X3 +160 X4 +160 X5 +160 X8 +160 X9 +160 X10 +160 X11 +160 X12
  +160 X13 +160 X14 +160 X15 +160 X16 +160 X17 +160 X18 +160 X19 +160 X21 +160 X22 +160 X23 +160 X24 +160 X25
  +160 X26 +160 X27 +160 X28 +160 X29 +160 X30 +160 X31 +160 X32 +160 X33 +160 X34 +160 X35 +160 X36 +160 X37
  +160 X38 +160 X39 +160 X40 +160 X41 +160 X42 +160 X43 +160 X44 +160 X45 +160 X47 +160 X48 +160 X49 +160 X50
  +160 X51 +160 X52 +160 X53 +160 X54 +160 X56 +160 X57 +160 X58 +160 X59 +160 X60 +160 X61 +160 X62 +160 X63
  +160 X64 +160 X65 +160 X67 +160 X68 +160 X69 +160 X70 +160 X71 +160 X72 +160 X73 +160 X74 +160 X75 +160 X76
  +160 X77 +160 X78 +160 X79 +160 X80 +160 X81 +160 X82 +160 X83 +160 X85 +160 X86 +160 X87 +160 X88 +160 X90
  +160 X91 +160 X92 +160 X93 +160 X95 +160 X96 +160 X97 +160 X98 +160 X99 +160 X100 +160 X101 +160 X102
  +160 X103 +160 X104 +160 X105 +160 X106 +160 X107 +160 X108 +160 X109 +160 X110 +160 X111 +160 X113
  +160 X114 +160 X115 +160 X116 +160 X117 +160 X118 +160 X119 +160 X120 +160 X121 +160 X122 +160 X123
  +160 X124 +160 X125 +160 X126 >= -1520
 c81: +1 theta -160 X6 -160 X11 -160 X16 -160 X49 -160 X50 -160 X66 -160 X84 -160 X85 -160 X97 -160 X112
  -160 X127 +160 X0 +160 X1 +160 X2 +160 X3 +160 X4 +160 X5 +160 X7 +160 X8 +160 X9 +160 X10 +160 X12
  +160 X13 +160 X14 +160 X15 +160 X17 +160 X18 +160 X19 +160 X20 +160 X21 +160 X22 +160 X23 +160 X24 +160 X25
  +160 X26 +160 X27 +160 X28 +160 X29 +160 X30 +160 X31 +160 X32 +160 X33 +160 X34 +160 X35 +160 X36 +160 X37
  +160 X38 +160 X39 +160 X40 +160 X41 +160 X42 +160 X43 +160 X44 +160 X45 +160 X46 +160 X47 +160 X48 +160 X51
  +160 X52 +160 X53 +160 X54 +160 X55 +160 X56 +160 X57 +160 X58 +160 X59 +160 X60 +160 X61 +160 X62 +160 X63
  +160 X64 +160 X65 +160 X67 +160 X68 +160 X69 +160 X70 +160 X71 +160 X72 +160 X73 +160 X74 +160 X75 +160 X76
  +160 X77 +160 X78 +160 X79 +160 X80 +160 X81 +160 X82 +160 X83 +160 X86 +160 X87 +160 X88 +160 X89 +160 X90
  +160 X91 +160 X92 +160 X93 +160 X94 +160 X95 +160 X96 +160 X98 +160 X99 +160 X100 +160 X101 +160 X102
  +160 X103 +160 X104 +160 X105 +160 X106 +160 X107 +160 X108 +160 X109 +160 X110 +160 X111 +160 X113
  +160 X114 +160 X115 +160 X116 +160 X117 +160 X118 +160 X119 +160 X120 +160 X121 +160 X122 +160 X123
  +160 X124 +160 X125 +160 X126 >= -1520
 c82: +1 theta -160 X6 -160 X9 -160 X18 -160 X49 -160 X50 -160 X66 -160 X84 -160 X85 -160 X97 -160 X112
  -160 X127 +160 X0 +160 X1 +160 X2 +160 X3 +160 X4 +160 X5 +160 X7 +160 X8 +160 X10 +160 X11 +160 X12
  +160 X13 +160 X14 +160 X15 +160 X16 +160 X17 +160 X19 +160 X20 +160 X21 +160 X22 +160 X23 +160 X24 +160 X25
  +160 X26 +160 X27 +160 X28 +160 X29 +160 X30 +160 X31 +160 X32 +160 X33 +160 X34 +160 X35 +160 X36 +160 X37
  +160 X38 +160 X39 +160 X40 +160 X41 +160 X42 +160 X43 +160 X44 +160 X45 +160 X46 +160 X47 +160 X48 +160 X51
  +160 X52 +160 X53 +160 X54 +160 X55 +160 X56 +160 X57 +160 X58 +160 X59 +160 X60 +160 X61 +160 X62 +160 X63
  +160 X64 +160 X65 +160 X67 +160 X68 +160 X69 +160 X70 +160 X71 +160 X72 +160 X73 +160 X74 +160 X75 +160 X76
  +160 X77 +160 X78 +160 X79 +160 X80 +160 X81 +160 X82 +160 X83 +160 X86 +160 X87 +160 X88 +160 X89 +160 X90
  +160 X91 +160 X92 +160 X93 +160 X94 +160 X95 +160 X96 +160 X98 +160 X99 +160 X100 +160 X101 +160 X102
  +160 X103 +160 X104 +160 X105 +160 X106 +160 X107 +160 X108 +160 X109 +160 X110 +160 X111 +160 X113
  +160 X114 +160 X115 +160 X116 +160 X117 +160 X118 +160 X119 +160 X120 +160 X121 +160 X122 +160 X123
  +160 X124 +160 X125 +160 X126 >= -1520
 c83: +1 theta -160 X6 -160 X12 -160 X15 -160 X49 -160 X50 -160 X66 -160 X84 -160 X85 -160 X97 -160 X112
  -160 X127 +160 X0 +160 X1 +160 X2 +160 X3 +160 X4 +160 X5 +160 X7 +160 X8 +160 X9 +160 X10 +160 X11
  +160 X13 +160 X14 +160 X16 +160 X17 +160 X18 +160 X19 +160 X20 +160 X21 +160 X22 +160 X23 +160 X24 +160 X25
  +160 X26 +160 X27 +160 X28 +160 X29 +160 X30 +160 X31 +160 X32 +160 X33 +160 X34 +160 X35 +160 X36 +160 X37
  +160 X38 +160 X39 +160 X40 +160 X41 +160 X42 +160 X43 +160 X44 +160 X45 +160 X46 +160 X47 +160 X48 +160 X51
  +160 X52 +160 X53 +160 X54 +160 X55 +160 X56 +160 X57 +160 X58 +160 X59 +160 X60 +160 X61 +160 X62 +160 X63
  +160 X64 +160 X65 +160 X67 +160 X68 +160 X69 +160 X70 +160 X71 +160 X72 +160 X73 +160 X74 +160 X75 +160 X76
  +160 X77 +160 X78 +160 X79 +160 X80 +160 X81 +160 X82 +160 X83 +160 X86 +160 X87 +160 X88 +160 X89 +160 X90
  +160 X91 +160 X92 +160 X93 +160 X94 +160 X95 +160 X96 +160 X98 +160 X99 +160 X100 +160 X101 +160 X102
  +160 X103 +160 X104 +160 X105 +160 X106 +160 X107 +160 X108 +160 X109 +160 X110 +160 X111 +160 X113
  +160 X114 +160 X115 +160 X116 +160 X117 +160 X118 +160 X119 +160 X120 +160 X121 +160 X122 +160 X123
  +160 X124 +160 X125 +160 X126 >= -1520
 c84: +1 theta -160 X6 -160 X11 -160 X16 -160 X49 -160 X50 -160 X74 -160 X82 -160 X85 -160 X97 -160 X112
  -160 X127 +160 X0 +160 X1 +160 X2 +160 X3 +160 X4 +160 X5 +160 X7 +160 X8 +160 X9 +160 X10 +160 X12
  +160 X13 +160 X14 +160 X15 +160 X17 +160 X18 +160 X19 +160 X20 +160 X21 +160 X22 +160 X23 +160 X24 +160 X25
  +160 X26 +160 X27 +160 X28 +160 X29 +160 X30 +160 X31 +160 X32 +160 X33 +160 X34 +160 X35 +160 X36 +160 X37
  +160 X38 +160 X39 +160 X40 +160 X41 +160 X42 +160 X43 +160 X44 +160 X45 +160 X46 +160 X47 +160 X48 +160 X51
  +160 X52 +160 X53 +160 X54 +160 X55 +160 X56 +160 X57 +160 X58 +160 X59 +160 X60 +160 X61 +160 X62 +160 X63
  +160 X64 +160 X65 +160 X66 +160 X67 +160 X68 +160 X69 +160 X70 +160 X71 +160 X72 +160 X73 +160 X75 +160 X76
  +160 X77 +160 X78 +160 X79 +160 X80 +160 X81 +160 X83 +160 X84 +160 X86 +160 X87 +160 X88 +160 X89 +160 X90
  +160 X91 +160 X92 +160 X93 +160 X94 +160 X95 +160 X96 +160 X98 +160 X99 +160 X100 +160 X101 +160 X102
  +160 X103 +160 X104 +160 X105 +160 X106 +160 X107 +160 X108 +160 X109 +160 X110 +160 X111 +160 X113
  +160 X114 +160 X115 +160 X116 +160 X117 +160 X118 +160 X119 +160 X120 +160 X121 +160 X122 +160 X123
  +160 X124 +160 X125 +160 X126 >= -1520
 c85: +1 theta -160 X6 -160 X8 -160 X19 -160 X49 -160 X50 -160 X66 -160 X84 -160 X85 -160 X97 -160 X112
  -160 X127 +160 X0 +160 X1 +160 X2 +160 X3 +160 X4 +160 X5 +160 X7 +160 X9 +160 X10 +160 X11 +160 X12
  +160 X13 +160 X14 +160 X15 +160 X16 +160 X17 +160 X18 +160 X20 +160 X21 +160 X22 +160 X23 +160 X24 +160 X25
  +160 X26 +160 X27 +160 X28 +160 X29 +160 X30 +160 X31 +160 X32 +160 X33 +160 X34 +160 X35 +160 X36 +160 X37
  +160 X38 +160 X39 +160 X40 +160 X41 +160 X42 +160 X43 +160 X44 +160 X45 +160 X46 +160 X47 +160 X48 +160 X51
  +160 X52 +160 X53 +160 X54 +160 X55 +160 X56 +160 X57 +160 X58 +160 X59 +160 X60 +160 X61 +160 X62 +160 X63
  +160 X64 +160 X65 +160 X67 +160 X68 +160 X69 +160 X70 +160 X71 +160 X72 +160 X73 +160 X74 +160 X75 +160 X76
  +160 X77 +160 X78 +160 X79 +160 X80 +160 X81 +160 X82 +160 X83 +160 X86 +160 X87 +160 X88 +160 X89 +160 X90
  +160 X91 +160 X92 +160 X93 +160 X94 +160 X95 +160 X96 +160 X98 +160 X99 +160 X100 +160 X101 +160 X102
  +160 X103 +160 X104 +160 X105 +160 X106 +160 X107 +160 X108 +160 X109 +160 X110 +160 X111 +160 X113
  +160 X114 +160 X115 +160 X116 +160 X117 +160 X118 +160 X119 +160 X120 +160 X121 +160 X122 +160 X123
  +160 X124 +160 X125 +160 X126 >= -1520
 c86: +1 theta -160 X6 -160 X12 -160 X15 -160 X29 -160 X63 -160 X66 -160 X84 -160 X85 -160 X97 -160 X112
  -160 X127 +160 X0 +160 X1 +160 X2 +160 X3 +160 X4 +160 X5 +160 X7 +160 X8 +160 X9 +160 X10 +160 X11
  +160 X13 +160 X14 +160 X16 +160 X17 +160 X18 +160 X19 +160 X20 +160 X21 +160 X22 +160 X23 +160 X24 +160 X25
  +160 X26 +160 X27 +160 X28 +160 X30 +160 X31 +160 X32 +160 X33 +160 X34 +160 X35 +160 X36 +160 X37 +160 X38
  +160 X39 +160 X40 +160 X41 +160 X42 +160 X43 +160 X44 +160 X45 +160 X46 +160 X47 +160 X48 +160 X49 +160 X50
  +160 X51 +160 X52 +160 X53 +160 X54 +160 X55 +160 X56 +160 X57 +160 X58 +160 X59 +160 X60 +160 X61 +160 X62
  +160 X64 +160 X65 +160 X67 +160 X68 +160 X69 +160 X70 +160 X71 +160 X72 +160 X73 +160 X74 +160 X75 +160 X76
  +160 X77 +160 X78 +160 X79 +160 X80 +160 X81 +160 X82 +160 X83 +160 X86 +160 X87 +160 X88 +160 X89 +160 X90
  +160 X91 +160 X92 +160 X93 +160 X94 +160 X95 +160 X96 +160 X98 +160 X99 +160 X100 +160 X101 +160 X102
  +160 X103 +160 X104 +160 X105 +160 X106 +160 X107 +160 X108 +160 X109 +160 X110 +160 X111 +160 X113
  +160 X114 +160 X115 +160 X116 +160 X117 +160 X118 +160 X119 +160 X120 +160 X121 +160 X122 +160 X123
  +160 X124 +160 X125 +160 X126 >= -1520
 c87: +1 theta -160 X6 -160 X11 -160 X16 -160 X40 -160 X60 -160 X66 -160 X84 -160 X85 -160 X97 -160 X112
  -160 X127 +160 X0 +160 X1 +160 X2 +160 X3 +160 X4 +160 X5 +160 X7 +160 X8 +160 X9 +160 X10 +160 X12
  +160 X13 +160 X14 +160 X15 +160 X17 +160 X18 +160 X19 +160 X20 +160 X21 +160 X22 +160 X23 +160 X24 +160 X25
  +160 X26 +160 X27 +160 X28 +160 X29 +160 X30 +160 X31 +160 X32 +160 X33 +160 X34 +160 X35 +160 X36 +160 X37
  +160 X38 +160 X39 +160 X41 +160 X42 +160 X43 +160 X44 +160 X45 +160 X46 +160 X47 +160 X48 +160 X49 +160 X50
  +160 X51 +160 X52 +160 X53 +160 X54 +160 X55 +160 X56 +160 X57 +160 X58 +160 X59 +160 X61 +160 X62 +160 X63
  +160 X64 +160 X65 +160 X67 +160 X68 +160 X69 +160 X70 +160 X71 +160 X72 +160 X73 +160 X74 +160 X75 +160 X76
  +160 X77 +160 X78 +160 X79 +160 X80 +160 X81 +160 X82 +160 X83 +160 X86 +160 X87 +160 X88 +160 X89 +160 X90
  +160 X91 +160 X92 +160 X93 +160 X94 +160 X95 +160 X96 +160 X98 +160 X99 +160 X100 +160 X101 +160 X102
  +160 X103 +160 X104 +160 X105 +160 X106 +160 X107 +160 X108 +160 X109 +160 X110 +160 X111 +160 X113
  +160 X114 +160 X115 +160 X116 +160 X117 +160 X118 +160 X119 +160 X120 +160 X121 +160 X122 +160 X123
  +160 X124 +160 X125 +160 X126 >= -1520
 c88: +1 theta -160 X6 -160 X8 -160 X19 -160 X49 -160 X50 -160 X66 -160 X84 -160 X91 -160 X92 -160 X112
  -160 X127 +160 X0 +160 X1 +160 X2 +160 X3 +160 X4 +160 X5 +160 X7 +160 X9 +160 X10 +160 X11 +160 X12
  +160 X13 +160 X14 +160 X15 +160 X16 +160 X17 +160 X18 +160 X20 +160 X21 +160 X22 +160 X23 +160 X24 +160 X25
  +160 X26 +160 X27 +160 X28 +160 X29 +160 X30 +160 X31 +160 X32 +160 X33 +160 X34 +160 X35 +160 X36 +160 X37
  +160 X38 +160 X39 +160 X40 +160 X41 +160 X42 +160 X43 +160 X44 +160 X45 +160 X46 +160 X47 +160 X48 +160 X51
  +160 X52 +160 X53 +160 X54 +160 X55 +160 X56 +160 X57 +160 X58 +160 X59 +160 X60 +160 X61 +160 X62 +160 X63
  +160 X64 +160 X65 +160 X67 +160 X68 +160 X69 +160 X70 +160 X71 +160 X72 +160 X73 +160 X74 +160 X75 +160 X76
  +160 X77 +160 X78 +160 X79 +160 X80 +160 X81 +160 X82 +160 X83 +160 X85 +160 X86 +160 X87 +160 X88 +160 X89
  +160 X90 +160 X93 +160 X94 +160 X95 +160 X96 +160 X97 +160 X98 +160 X99 +160 X100 +160 X101 +160 X102
  +160 X103 +160 X104 +160 X105 +160 X106 +160 X107 +160 X108 +160 X109 +160 X110 +160 X111 +160 X113
  +160 X114 +160 X115 +160 X116 +160 X117 +160 X118 +160 X119 +160 X120 +160 X121 +160 X122 +160 X123
  +160 X124 +160 X125 +160 X126 >= -1520
 c89: +1 theta -160 X6 -160 X11 -160 X16 -160 X46 -160 X55 -160 X66 -160 X84 -160 X85 -160 X97 -160 X112
  -160 X127 +160 X0 +160 X1 +160 X2 +160 X3 +160 X4 +160 X5 +160 X7 +160 X8 +160 X9 +160 X10 +160 X12
  +160 X13 +160 X14 +160 X15 +160 X17 +160 X18 +160 X19 +160 X20 +160 X21 +160 X22 +160 X23 +160 X24 +160 X25
  +160 X26 +160 X27 +160 X28 +160 X29 +160 X30 +160 X31 +160 X32 +160 X33 +160 X34 +160 X35 +160 X36 +160 X37
  +160 X38 +160 X39 +160 X40 +160 X41 +160 X42 +160 X43 +160 X44 +160 X45 +160 X47 +160 X48 +160 X49 +160 X50
  +160 X51 +160 X52 +160 X53 +160 X54 +160 X56 +160 X57 +160 X58 +160 X59 +160 X60 +160 X61 +160 X62 +160 X63
  +160 X64 +160 X65 +160 X67 +160 X68 +160 X69 +160 X70 +160 X71 +160 X72 +160 X73 +160 X74 +160 X75 +160 X76
  +160 X77 +160 X78 +160 X79 +160 X80 +160 X81 +160 X82 +160 X83 +160 X86 +160 X87 +160 X88 +160 X89 +160 X90
  +160 X91 +160 X92 +160 X93 +160 X94 +160 X95 +160 X96 +160 X98 +160 X99 +160 X100 +160 X101 +160 X102
  +160 X103 +160 X104 +160 X105 +160 X106 +160 X107 +160 X108 +160 X109 +160 X110 +160 X111 +160 X113
  +160 X114 +160 X115 +160 X116 +160 X117 +160 X118 +160 X119 +160 X120 +160 X121 +160 X122 +160 X123
  +160 X124 +160 X125 +160 X126 >= -1520
 c90: +1 theta -160 X6 -160 X10 -160 X17 -160 X40 -160 X60 -160 X66 -160 X84 -160 X85 -160 X97 -160 X112
  -160 X127 +160 X0 +160 X1 +160 X2 +160 X3 +160 X4 +160 X5 +160 X7 +160 X8 +160 X9 +160 X11 +160 X12
  +160 X13 +160 X14 +160 X15 +160 X16 +160 X18 +160 X19 +160 X20 +160 X21 +160 X22 +160 X23 +160 X24 +160 X25
  +160 X26 +160 X27 +160 X28 +160 X29 +160 X30 +160 X31 +160 X32 +160 X33 +160 X34 +160 X35 +160 X36 +160 X37
  +160 X38 +160 X39 +160 X41 +160 X42 +160 X43 +160 X44 +160 X45 +160 X46 +160 X47 +160 X48 +160 X49 +160 X50
  +160 X51 +160 X52 +160 X53 +160 X54 +160 X55 +160 X56 +160 X57 +160 X58 +160 X59 +160 X61 +160 X62 +160 X63
  +160 X64 +160 X65 +160 X67 +160 X68 +160 X69 +160 X70 +160 X71 +160 X72 +160 X73 +160 X74 +160 X75 +160 X76
  +160 X77 +160 X78 +160 X79 +160 X80 +160 X81 +160 X82 +160 X83 +160 X86 +160 X87 +160 X88 +160 X89 +160 X90
  +160 X91 +160 X92 +160 X93 +160 X94 +160 X95 +160 X96 +160 X98 +160 X99 +160 X100 +160 X101 +160 X102
  +160 X103 +160 X104 +160 X105 +160 X106 +160 X107 +160 X108 +160 X109 +160 X110 +160 X111 +160 X113
  +160 X114 +160 X115 +160 X116 +160 X117 +160 X118 +160 X119 +160 X120 +160 X121 +160 X122 +160 X123
  +160 X124 +160 X125 +160 X126 >= -1520
 c91: +1 theta -160 X6 -160 X12 -160 X15 -160 X46 -160 X55 -160 X66 -160 X84 -160 X85 -160 X97 -160 X112
  -160 X127 +160 X0 +160 X1 +160 X2 +160 X3 +160 X4 +160 X5 +160 X7 +160 X8 +160 X9 +160 X10 +160 X11
  +160 X13 +160 X14 +160 X16 +160 X17 +160 X18 +160 X19 +160 X20 +160 X21 +160 X22 +160 X23 +160 X24 +160 X25
  +160 X26 +160 X27 +160 X28 +160 X29 +160 X30 +160 X31 +160 X32 +160 X33 +160 X34 +160 X35 +160 X36 +160 X37
  +160 X38 +160 X39 +160 X40 +160 X41 +160 X42 +160 X43 +160 X44 +160 X45 +160 X47 +160 X48 +160 X49 +160 X50
  +160 X51 +160 X52 +160 X53 +160 X54 +160 X56 +160 X57 +160 X58 +160 X59 +160 X60 +160 X61 +160 X62 +160 X63
  +160 X64 +160 X65 +160 X67 +160 X68 +160 X69 +160 X70 +160 X71 +160 X72 +160 X73 +160 X74 +160 X75 +160 X76
  +160 X77 +160 X78 +160 X79 +160 X80 +160 X81 +160 X82 +160 X83 +160 X86 +160 X87 +160 X88 +160 X89 +160 X90
  +160 X91 +160 X92 +160 X93 +160 X94 +160 X95 +160 X96 +160 X98 +160 X99 +160 X100 +160 X101 +160 X102
  +160 X103 +160 X104 +160 X105 +160 X106 +160 X107 +160 X108 +160 X109 +160 X110 +160 X111 +160 X113
  +160 X114 +160 X115 +160 X116 +160 X117 +160 X118 +160 X119 +160 X120 +160 X121 +160 X122 +160 X123
  +160 X124 +160 X125 +160 X126 >= -1520
 c92: +1 theta -160 X6 -160 X11 -160 X16 -160 X46 -160 X55 -160 X76 -160 X80 -160 X85 -160 X97 -160 X112
  -160 X127 +160 X0 +160 X1 +160 X2 +160 X3 +160 X4 +160 X5 +160 X7 +160 X8 +160 X9 +160 X10 +160 X12
  +160 X13 +160 X14 +160 X15 +160 X17 +160 X18 +160 X19 +160 X20 +160 X21 +160 X22 +160 X23 +160 X24 +160 X25
  +160 X26 +160 X27 +160 X28 +160 X29 +160 X30 +160 X31 +160 X32 +160 X33 +160 X34 +160 X35 +160 X36 +160 X37
  +160 X38 +160 X39 +160 X40 +160 X41 +160 X42 +160 X43 +160 X44 +160 X45 +160 X47 +160 X48 +160 X49 +160 X50
  +160 X51 +160 X52 +160 X53 +160 X54 +160 X56 +160 X57 +160 X58 +160 X59 +160 X60 +160 X61 +160 X62 +160 X63
  +160 X64 +160 X65 +160 X66 +160 X67 +160 X68 +160 X69 +160 X70 +160 X71 +160 X72 +160 X73 +160 X74 +160 X75
  +160 X77 +160 X78 +160 X79 +160 X81 +160 X82 +160 X83 +160 X84 +160 X86 +160 X87 +160 X88 +160 X89 +160 X90
  +160 X91 +160 X92 +160 X93 +160 X94 +160 X95 +160 X96 +160 X98 +160 X99 +160 X100 +160 X101 +160 X102
  +160 X103 +160 X104 +160 X105 +160 X106 +160 X107 +160 X108 +160 X109 +160 X110 +160 X111 +160 X113
  +160 X114 +160 X115 +160 X116 +160 X117 +160 X118 +160 X119 +160 X120 +160 X121 +160 X122 +160 X123
  +160 X124 +160 X125 +160 X126 >= -1520
 c93: +1 theta -160 X6 -160 X8 -160 X19 -160 X46 -160 X55 -160 X76 -160 X80 -160 X85 -160 X97 -160 X112
  -160 X127 +160 X0 +160 X1 +160 X2 +160 X3 +160 X4 +160 X5 +160 X7 +160 X9 +160 X10 +160 X11 +160 X12
  +160 X13 +160 X14 +160 X15 +160 X16 +160 X17 +160 X18 +160 X20 +160 X21 +160 X22 +160 X23 +160 X24 +160 X25
  +160 X26 +160 X27 +160 X28 +160 X29 +160 X30 +160 X31 +160 X32 +160 X33 +160 X34 +160 X35 +160 X36 +160 X37
  +160 X38 +160 X39 +160 X40 +160 X41 +160 X42 +160 X43 +160 X44 +160 X45 +160 X47 +160 X48 +160 X49 +160 X50
  +160 X51 +160 X52 +160 X53 +160 X54 +160 X56 +160 X57 +160 X58 +160 X59 +160 X60 +160 X61 +160 X62 +160 X63
  +160 X64 +160 X65 +160 X66 +160 X67 +160 X68 +160 X69 +160 X70 +160 X71 +160 X72 +160 X73 +160 X74 +160 X75
  +160 X77 +160 X78 +160 X79 +160 X81 +160 X82 +160 X83 +160 X84 +160 X86 +160 X87 +160 X88 +160 X89 +160 X90
  +160 X91 +160 X92 +160 X93 +160 X94 +160 X95 +160 X96 +160 X98 +160 X99 +160 X100 +160 X101 +160 X102
  +160 X103 +160 X104 +160 X105 +160 X106 +160 X107 +160 X108 +160 X109 +160 X110 +160 X111 +160 X113
  +160 X114 +160 X115 +160 X116 +160 X117 +160 X118 +160 X119 +160 X120 +160 X121 +160 X122 +160 X123
  +160 X124 +160 X125 +160 X126 >= -1520
 c94: +1 theta -160 X6 -160 X9 -160 X18 -160 X44 -160 X57 -160 X66 -160 X84 -160 X85 -160 X97 -160 X112
  -160 X127 +160 X0 +160 X1 +160 X2 +160 X3 +160 X4 +160 X5 +160 X7 +160 X8 +160 X10 +160 X11 +160 X12
  +160 X13 +160 X14 +160 X15 +160 X16 +160 X17 +160 X19 +160 X20 +160 X21 +160 X22 +160 X23 +160 X24 +160 X25
  +160 X26 +160 X27 +160 X28 +160 X29 +160 X30 +160 X31 +160 X32 +160 X33 +160 X34 +160 X35 +160 X36 +160 X37
  +160 X38 +160 X39 +160 X40 +160 X41 +160 X42 +160 X43 +160 X45 +160 X46 +160 X47 +160 X48 +160 X49 +160 X50
  +160 X51 +160 X52 +160 X53 +160 X54 +160 X55 +160 X56 +160 X58 +160 X59 +160 X60 +160 X61 +160 X62 +160 X63
  +160 X64 +160 X65 +160 X67 +160 X68 +160 X69 +160 X70 +160 X71 +160 X72 +160 X73 +160 X74 +160 X75 +160 X76
  +160 X77 +160 X78 +160 X79 +160 X80 +160 X81 +160 X82 +160 X83 +160 X86 +160 X87 +160 X88 +160 X89 +160 X90
  +160 X91 +160 X92 +160 X93 +160 X94 +160 X95 +160 X96 +160 X98 +160 X99 +160 X100 +160 X101 +160 X102
  +160 X103 +160 X104 +160 X105 +160 X106 +160 X107 +160 X108 +160 X109 +160 X110 +160 X111 +160 X113
  +160 X114 +160 X115 +160 X116 +160 X117 +160 X118 +160 X119 +160 X120 +160 X121 +160 X122 +160 X123
  +160 X124 +160 X125 +160 X126 >= -1520
 c95: +1 theta -160 X6 -160 X9 -160 X18 -160 X28 -160 X64 -160 X66 -160 X84 -160 X85 -160 X97 -160 X112
  -160 X127 +160 X0 +160 X1 +160 X2 +160 X3 +160 X4 +160 X5 +160 X7 +160 X8 +160 X10 +160 X11 +160 X12
  +160 X13 +160 X14 +160 X15 +160 X16 +160 X17 +160 X19 +160 X20 +160 X21 +160 X22 +160 X23 +160 X24 +160 X25
  +160 X26 +160 X27 +160 X29 +160 X30 +160 X31 +160 X32 +160 X33 +160 X34 +160 X35 +160 X36 +160 X37 +160 X38
  +160 X39 +160 X40 +160 X41 +160 X42 +160 X43 +160 X44 +160 X45 +160 X46 +160 X47 +160 X48 +160 X49 +160 X50
  +160 X51 +160 X52 +160 X53 +160 X54 +160 X55 +160 X56 +160 X57 +160 X58 +160 X59 +160 X60 +160 X61 +160 X62
  +160 X63 +160 X65 +160 X67 +160 X68 +160 X69 +160 X70 +160 X71 +160 X72 +160 X73 +160 X74 +160 X75 +160 X76
  +160 X77 +160 X78 +160 X79 +160 X80 +160 X81 +160 X82 +160 X83 +160 X86 +160 X87 +160 X88 +160 X89 +160 X90
  +160 X91 +160 X92 +160 X93 +160 X94 +160 X95 +160 X96 +160 X98 +160 X99 +160 X100 +160 X101 +160 X102
  +160 X103 +160 X104 +160 X105 +160 X106 +160 X107 +160 X108 +160 X109 +160 X110 +160 X111 +160 X113
  +160 X114 +160 X115 +160 X116 +160 X117 +160 X118 +160 X119 +160 X120 +160 X121 +160 X122 +160 X123
  +160 X124 +160 X125 +160 X126 >= -1520
 c96: +1 theta -130 X6 -130 X9 -130 X18 -130 X31 -130 X62 -130 X66 -130 X84 -130 X85 -130 X97 -130 X112
  -130 X127 +130 X0 +130 X1 +130 X2 +130 X3 +130 X4 +130 X5 +130 X7 +130 X8 +130 X10 +130 X11 +130 X12
  +130 X13 +130 X14 +130 X15 +130 X16 +130 X17 +130 X19 +130 X20 +130 X21 +130 X22 +130 X23 +130 X24 +130 X25
  +130 X26 +130 X27 +130 X28 +130 X29 +130 X30 +130 X32 +130 X33 +130 X34 +130 X35 +130 X36 +130 X37 +130 X38
  +130 X39 +130 X40 +130 X41 +130 X42 +130 X43 +130 X44 +130 X45 +130 X46 +130 X47 +130 X48 +130 X49 +130 X50
  +130 X51 +130 X52 +130 X53 +130 X54 +130 X55 +130 X56 +130 X57 +130 X58 +130 X59 +130 X60 +130 X61 +130 X63
  +130 X64 +130 X65 +130 X67 +130 X68 +130 X69 +130 X70 +130 X71 +130 X72 +130 X73 +130 X74 +130 X75 +130 X76
  +130 X77 +130 X78 +130 X79 +130 X80 +130 X81 +130 X82 +130 X83 +130 X86 +130 X87 +130 X88 +130 X89 +130 X90
  +130 X91 +130 X92 +130 X93 +130 X94 +130 X95 +130 X96 +130 X98 +130 X99 +130 X100 +130 X101 +130 X102
  +130 X103 +130 X104 +130 X105 +130 X106 +130 X107 +130 X108 +130 X109 +130 X110 +130 X111 +130 X113
  +130 X114 +130 X115 +130 X116 +130 X117 +130 X118 +130 X119 +130 X120 +130 X121 +130 X122 +130 X123
  +130 X124 +130 X125 +130 X126 >= -1220
 c97: +1 theta -130 X6 -130 X9 -130 X18 -130 X31 -130 X62 -130 X70 -130 X83 -130 X85 -130 X97 -130 X112
  -130 X127 +130 X0 +130 X1 +130 X2 +130 X3 +130 X4 +130 X5 +130 X7 +130 X8 +130 X10 +130 X11 +130 X12
  +130 X13 +130 X14 +130 X15 +130 X16 +130 X17 +130 X19 +130 X20 +130 X21 +130 X22 +130 X23 +130 X24 +130 X25
  +130 X26 +130 X27 +130 X28 +130 X29 +130 X30 +130 X32 +130 X33 +130 X34 +130 X35 +130 X36 +130 X37 +130 X38
  +130 X39 +130 X40 +130 X41 +130 X42 +130 X43 +130 X44 +130 X45 +130 X46 +130 X47 +130 X48 +130 X49 +130 X50
  +130 X51 +130 X52 +130 X53 +130 X54 +130 X55 +130 X56 +130 X57 +130 X58 +130 X59 +130 X60 +130 X61 +130 X63
  +130 X64 +130 X65 +130 X66 +130 X67 +130 X68 +130 X69 +130 X71 +130 X72 +130 X73 +130 X74 +130 X75 +130 X76
  +130 X77 +130 X78 +130 X79 +130 X80 +130 X81 +130 X82 +130 X84 +130 X86 +130 X87 +130 X88 +130 X89 +130 X90
  +130 X91 +130 X92 +130 X93 +130 X94 +130 X95 +130 X96 +130 X98 +130 X99 +130 X100 +130 X101 +130 X102
  +130 X103 +130 X104 +130 X105 +130 X106 +130 X107 +130 X108 +130 X109 +130 X110 +130 X111 +130 X113
  +130 X114 +130 X115 +130 X116 +130 X117 +130 X118 +130 X119 +130 X120 +130 X121 +130 X122 +130 X123
  +130 X124 +130 X125 +130 X126 >= -1220
 c98: +1 theta -160 X6 -160 X9 -160 X18 -160 X45 -160 X56 -160 X66 -160 X84 -160 X85 -160 X97 -160 X112
  -160 X127 +160 X0 +160 X1 +160 X2 +160 X3 +160 X4 +160 X5 +160 X7 +160 X8 +160 X10 +160 X11 +160 X12
  +160 X13 +160 X14 +160 X15 +160 X16 +160 X17 +160 X19 +160 X20 +160 X21 +160 X22 +160 X23 +160 X24 +160 X25
  +160 X26 +160 X27 +160 X28 +160 X29 +160 X30 +160 X31 +160 X32 +160 X33 +160 X34 +160 X35 +160 X36 +160 X37
  +160 X38 +160 X39 +160 X40 +160 X41 +160 X42 +160 X43 +160 X44 +160 X46 +160 X47 +160 X48 +160 X49 +160 X50
  +160 X51 +160 X52 +160 X53 +160 X54 +160 X55 +160 X57 +160 X58 +160 X59 +160 X60 +160 X61 +160 X62 +160 X63
  +160 X64 +160 X65 +160 X67 +160 X68 +160 X69 +160 X70 +160 X71 +160 X72 +160 X73 +160 X74 +160 X75 +160 X76
  +160 X77 +160 X78 +160 X79 +160 X80 +160 X81 +160 X82 +160 X83 +160 X86 +160 X87 +160 X88 +160 X89 +160 X90
  +160 X91 +160 X92 +160 X93 +160 X94 +160 X95 +160 X96 +160 X98 +160 X99 +160 X100 +160 X101 +160 X102
  +160 X103 +160 X104 +160 X105 +160 X106 +160 X107 +160 X108 +160 X109 +160 X110 +160 X111 +160 X113
  +160 X114 +160 X115 +160 X116 +160 X117 +160 X118 +160 X119 +160 X120 +160 X121 +160 X122 +160 X123
  +160 X124 +160 X125 +160 X126 >= -1520
 c99: +1 theta -160 X6 -160 X11 -160 X16 -160 X44 -160 X57 -160 X66 -160 X84 -160 X85 -160 X97 -160 X112
  -160 X127 +160 X0 +160 X1 +160 X2 +160 X3 +160 X4 +160 X5 +160 X7 +160 X8 +160 X9 +160 X10 +160 X12
  +160 X13 +160 X14 +160 X15 +160 X17 +160 X18 +160 X19 +160 X20 +160 X21 +160 X22 +160 X23 +160 X24 +160 X25
  +160 X26 +160 X27 +160 X28 +160 X29 +160 X30 +160 X31 +160 X32 +160 X33 +160 X34 +160 X35 +160 X36 +160 X37
  +160 X38 +160 X39 +160 X40 +160 X41 +160 X42 +160 X43 +160 X45 +160 X46 +160 X47 +160 X48 +160 X49 +160 X50
  +160 X51 +160 X52 +160 X53 +160 X54 +160 X55 +160 X56 +160 X58 +160 X59 +160 X60 +160 X61 +160 X62 +160 X63
  +160 X64 +160 X65 +160 X67 +160 X68 +160 X69 +160 X70 +160 X71 +160 X72 +160 X73 +160 X74 +160 X75 +160 X76
  +160 X77 +160 X78 +160 X79 +160 X80 +160 X81 +160 X82 +160 X83 +160 X86 +160 X87 +160 X88 +160 X89 +160 X90
  +160 X91 +160 X92 +160 X93 +160 X94 +160 X95 +160 X96 +160 X98 +160 X99 +160 X100 +160 X101 +160 X102
  +160 X103 +160 X104 +160 X105 +160 X106 +160 X107 +160 X108 +160 X109 +160 X110 +160 X111 +160 X113
  +160 X114 +160 X115 +160 X116 +160 X117 +160 X118 +160 X119 +160 X120 +160 X121 +160 X122 +160 X123
  +160 X124 +160 X125 +160 X126 >= -1520
 c100: +1 theta -160 X6 -160 X9 -160 X18 -160 X28 -160 X64 -160 X70 -160 X83 -160 X85 -160 X97 -160 X112
  -160 X127 +160 X0 +160 X1 +160 X2 +160 X3 +160 X4 +160 X5 +160 X7 +160 X8 +160 X10 +160 X11 +160 X12
  +160 X13 +160 X14 +160 X15 +160 X16 +160 X17 +160 X19 +160 X20 +160 X21 +160 X22 +160 X23 +160 X24 +160 X25
  +160 X26 +160 X27 +160 X29 +160 X30 +160 X31 +160 X32 +160 X33 +160 X34 +160 X35 +160 X36 +160 X37 +160 X38
  +160 X39 +160 X40 +160 X41 +160 X42 +160 X43 +160 X44 +160 X45 +160 X46 +160 X47 +160 X48 +160 X49 +160 X50
  +160 X51 +160 X52 +160 X53 +160 X54 +160 X55 +160 X56 +160 X57 +160 X58 +160 X59 +160 X60 +160 X61 +160 X62
  +160 X63 +160 X65 +160 X66 +160 X67 +160 X68 +160 X69 +160 X71 +160 X72 +160 X73 +160 X74 +160 X75 +160 X76
  +160 X77 +160 X78 +160 X79 +160 X80 +160 X81 +160 X82 +160 X84 +160 X86 +160 X87 +160 X88 +160 X89 +160 X90
  +160 X91 +160 X92 +160 X93 +160 X94 +160 X95 +160 X96 +160 X98 +160 X99 +160 X100 +160 X101 +160 X102
  +160 X103 +160 X104 +160 X105 +160 X106 +160 X107 +160 X108 +160 X109 +160 X110 +160 X111 +160 X113
  +160 X114 +160 X115 +160 X116 +160 X117 +160 X118 +160 X119 +160 X120 +160 X121 +160 X122 +160 X123
  +160 X124 +160 X125 +160 X126 >= -1520
 c101: +1 theta -160 X6 -160 X9 -160 X18 -160 X45 -160 X56 -160 X70 -160 X83 -160 X85 -160 X97 -160 X112
  -160 X127 +160 X0 +160 X1 +160 X2 +160 X3 +160 X4 +160 X5 +160 X7 +160 X8 +160 X10 +160 X11 +160 X12
  +160 X13 +160 X14 +160 X15 +160 X16 +160 X17 +160 X19 +160 X20 +160 X21 +160 X22 +160 X23 +160 X24 +160 X25
  +160 X26 +160 X27 +160 X28 +160 X29 +160 X30 +160 X31 +160 X32 +160 X33 +160 X34 +160 X35 +160 X36 +160 X37
  +160 X38 +160 X39 +160 X40 +160 X41 +160 X42 +160 X43 +160 X44 +160 X46 +160 X47 +160 X48 +160 X49 +160 X50
  +160 X51 +160 X52 +160 X53 +160 X54 +160 X55 +160 X57 +160 X58 +160 X59 +160 X60 +160 X61 +160 X62 +160 X63
  +160 X64 +160 X65 +160 X66 +160 X67 +160 X68 +160 X69 +160 X71 +160 X72 +160 X73 +160 X74 +160 X75 +160 X76
  +160 X77 +160 X78 +160 X79 +160 X80 +160 X81 +160 X82 +160 X84 +160 X86 +160 X87 +160 X88 +160 X89 +160 X90
  +160 X91 +160 X92 +160 X93 +160 X94 +160 X95 +160 X96 +160 X98 +160 X99 +160 X100 +160 X101 +160 X102
  +160 X103 +160 X104 +160 X105 +160 X106 +160 X107 +160 X108 +160 X109 +160 X110 +160 X111 +160 X113
  +160 X114 +160 X115 +160 X116 +160 X117 +160 X118 +160 X119 +160 X120 +160 X121 +160 X122 +160 X123
  +160 X124 +160 X125 +160 X126 >= -1520
 c102: +1 theta -160 X6 -160 X9 -160 X18 -160 X28 -160 X64 -160 X76 -160 X80 -160 X85 -160 X97 -160 X112
  -160 X127 +160 X0 +160 X1 +160 X2 +160 X3 +160 X4 +160 X5 +160 X7 +160 X8 +160 X10 +160 X11 +160 X12
  +160 X13 +160 X14 +160 X15 +160 X16 +160 X17 +160 X19 +160 X20 +160 X21 +160 X22 +160 X23 +160 X24 +160 X25
  +160 X26 +160 X27 +160 X29 +160 X30 +160 X31 +160 X32 +160 X33 +160 X34 +160 X35 +160 X36 +160 X37 +160 X38
  +160 X39 +160 X40 +160 X41 +160 X42 +160 X43 +160 X44 +160 X45 +160 X46 +160 X47 +160 X48 +160 X49 +160 X50
  +160 X51 +160 X52 +160 X53 +160 X54 +160 X55 +160 X56 +160 X57 +160 X58 +160 X59 +160 X60 +160 X61 +160 X62
  +160 X63 +160 X65 +160 X66 +160 X67 +160 X68 +160 X69 +160 X70 +160 X71 +160 X72 +160 X73 +160 X74 +160 X75
  +160 X77 +160 X78 +160 X79 +160 X81 +160 X82 +160 X83 +160 X84 +160 X86 +160 X87 +160 X88 +160 X89 +160 X90
  +160 X91 +160 X92 +160 X93 +160 X94 +160 X95 +160 X96 +160 X98 +160 X99 +160 X100 +160 X101 +160 X102
  +160 X103 +160 X104 +160 X105 +160 X106 +160 X107 +160 X108 +160 X109 +160 X110 +160 X111 +160 X113
  +160 X114 +160 X115 +160 X116 +160 X117 +160 X118 +160 X119 +160 X120 +160 X121 +160 X122 +160 X123
  +160 X124 +160 X125 +160 X126 >= -1520
 c103: +1 theta -160 X6 -160 X9 -160 X18 -160 X44 -160 X57 -160 X66 -160 X84 -160 X86 -160 X96 -160 X112
  -160 X127 +160 X0 +160 X1 +160 X2 +160 X3 +160 X4 +160 X5 +160 X7 +160 X8 +160 X10 +160 X11 +160 X12
  +160 X13 +160 X14 +160 X15 +160 X16 +160 X17 +160 X19 +160 X20 +160 X21 +160 X22 +160 X23 +160 X24 +160 X25
  +160 X26 +160 X27 +160 X28 +160 X29 +160 X30 +160 X31 +160 X32 +160 X33 +160 X34 +160 X35 +160 X36 +160 X37
  +160 X38 +160 X39 +160 X40 +160 X41 +160 X42 +160 X43 +160 X45 +160 X46 +160 X47 +160 X48 +160 X49 +160 X50
  +160 X51 +160 X52 +160 X53 +160 X54 +160 X55 +160 X56 +160 X58 +160 X59 +160 X60 +160 X61 +160 X62 +160 X63
  +160 X64 +160 X65 +160 X67 +160 X68 +160 X69 +160 X70 +160 X71 +160 X72 +160 X73 +160 X74 +160 X75 +160 X76
  +160 X77 +160 X78 +160 X79 +160 X80 +160 X81 +160 X82 +160 X83 +160 X85 +160 X87 +160 X88 +160 X89 +160 X90
  +160 X91 +160 X92 +160 X93 +160 X94 +160 X95 +160 X97 +160 X98 +160 X99 +160 X100 +160 X101 +160 X102
  +160 X103 +160 X104 +160 X105 +160 X106 +160 X107 +160 X108 +160 X109 +160 X110 +160 X111 +160 X113
  +160 X114 +160 X115 +160 X116 +160 X117 +160 X118 +160 X119 +160 X120 +160 X121 +160 X122 +160 X123
  +160 X124 +160 X125 +160 X126 >= -1520
 c104: +1 theta -160 X6 -160 X9 -160 X18 -160 X44 -160 X57 -160 X70 -160 X83 -160 X85 -160 X97 -160 X112
  -160 X127 +160 X0 +160 X1 +160 X2 +160 X3 +160 X4 +160 X5 +160 X7 +160 X8 +160 X10 +160 X11 +160 X12
  +160 X13 +160 X14 +160 X15 +160 X16 +160 X17 +160 X19 +160 X20 +160 X21 +160 X22 +160 X23 +160 X24 +160 X25
  +160 X26 +160 X27 +160 X28 +160 X29 +160 X30 +160 X31 +160 X32 +160 X33 +160 X34 +160 X35 +160 X36 +160 X37
  +160 X38 +160 X39 +160 X40 +160 X41 +160 X42 +160 X43 +160 X45 +160 X46 +160 X47 +160 X48 +160 X49 +160 X50
  +160 X51 +160 X52 +160 X53 +160 X54 +160 X55 +160 X56 +160 X58 +160 X59 +160 X60 +160 X61 +160 X62 +160 X63
  +160 X64 +160 X65 +160 X66 +160 X67 +160 X68 +160 X69 +160 X71 +160 X72 +160 X73 +160 X74 +160 X75 +160 X76
  +160 X77 +160 X78 +160 X79 +160 X80 +160 X81 +160 X82 +160 X84 +160 X86 +160 X87 +160 X88 +160 X89 +160 X90
  +160 X91 +160 X92 +160 X93 +160 X94 +160 X95 +160 X96 +160 X98 +160 X99 +160 X100 +160 X101 +160 X102
  +160 X103 +160 X104 +160 X105 +160 X106 +160 X107 +160 X108 +160 X109 +160 X110 +160 X111 +160 X113
  +160 X114 +160 X115 +160 X116 +160 X117 +160 X118 +160 X119 +160 X120 +160 X121 +160 X122 +160 X123
  +160 X124 +160 X125 +160 X126 >= -1520
 c105: +1 theta -130 X6 -130 X9 -130 X18 -130 X48 -130 X52 -130 X66 -130 X84 -130 X85 -130 X97 -130 X112
  -130 X127 +130 X0 +130 X1 +130 X2 +130 X3 +130 X4 +130 X5 +130 X7 +130 X8 +130 X10 +130 X11 +130 X12
  +130 X13 +130 X14 +130 X15 +130 X16 +130 X17 +130 X19 +130 X20 +130 X21 +130 X22 +130 X23 +130 X24 +130 X25
  +130 X26 +130 X27 +130 X28 +130 X29 +130 X30 +130 X31 +130 X32 +130 X33 +130 X34 +130 X35 +130 X36 +130 X37
  +130 X38 +130 X39 +130 X40 +130 X41 +130 X42 +130 X43 +130 X44 +130 X45 +130 X46 +130 X47 +130 X49 +130 X50
  +130 X51 +130 X53 +130 X54 +130 X55 +130 X56 +130 X57 +130 X58 +130 X59 +130 X60 +130 X61 +130 X62 +130 X63
  +130 X64 +130 X65 +130 X67 +130 X68 +130 X69 +130 X70 +130 X71 +130 X72 +130 X73 +130 X74 +130 X75 +130 X76
  +130 X77 +130 X78 +130 X79 +130 X80 +130 X81 +130 X82 +130 X83 +130 X86 +130 X87 +130 X88 +130 X89 +130 X90
  +130 X91 +130 X92 +130 X93 +130 X94 +130 X95 +130 X96 +130 X98 +130 X99 +130 X100 +130 X101 +130 X102
  +130 X103 +130 X104 +130 X105 +130 X106 +130 X107 +130 X108 +130 X109 +130 X110 +130 X111 +130 X113
  +130 X114 +130 X115 +130 X116 +130 X117 +130 X118 +130 X119 +130 X120 +130 X121 +130 X122 +130 X123
  +130 X124 +130 X125 +130 X126 >= -1220
 c106: +1 theta -130 X6 -130 X9 -130 X18 -130 X47 -130 X54 -130 X66 -130 X84 -130 X85 -130 X97 -130 X112
  -130 X127 +130 X0 +130 X1 +130 X2 +130 X3 +130 X4 +130 X5 +130 X7 +130 X8 +130 X10 +130 X11 +130 X12
  +130 X13 +130 X14 +130 X15 +130 X16 +130 X17 +130 X19 +130 X20 +130 X21 +130 X22 +130 X23 +130 X24 +130 X25
  +130 X26 +130 X27 +130 X28 +130 X29 +130 X30 +130 X31 +130 X32 +130 X33 +130 X34 +130 X35 +130 X36 +130 X37
  +130 X38 +130 X39 +130 X40 +130 X41 +130 X42 +130 X43 +130 X44 +130 X45 +130 X46 +130 X48 +130 X49 +130 X50
  +130 X51 +130 X52 +130 X53 +130 X55 +130 X56 +130 X57 +130 X58 +130 X59 +130 X60 +130 X61 +130 X62 +130 X63
  +130 X64 +130 X65 +130 X67 +130 X68 +130 X69 +130 X70 +130 X71 +130 X72 +130 X73 +130 X74 +130 X75 +130 X76
  +130 X77 +130 X78 +130 X79 +130 X80 +130 X81 +130 X82 +130 X83 +130 X86 +130 X87 +130 X88 +130 X89 +130 X90
  +130 X91 +130 X92 +130 X93 +130 X94 +130 X95 +130 X96 +130 X98 +130 X99 +130 X100 +130 X101 +130 X102
  +130 X103 +130 X104 +130 X105 +130 X106 +130 X107 +130 X108 +130 X109 +130 X110 +130 X111 +130 X113
  +130 X114 +130 X115 +130 X116 +130 X117 +130 X118 +130 X119 +130 X120 +130 X121 +130 X122 +130 X123
  +130 X124 +130 X125 +130 X126 >= -1220
 c107: +1 theta -160 X6 -160 X10 -160 X17 -160 X44 -160 X57 -160 X66 -160 X84 -160 X85 -160 X97 -160 X112
  -160 X127 +160 X0 +160 X1 +160 X2 +160 X3 +160 X4 +160 X5 +160 X7 +160 X8 +160 X9 +160 X11 +160 X12
  +160 X13 +160 X14 +160 X15 +160 X16 +160 X18 +160 X19 +160 X20 +160 X21 +160 X22 +160 X23 +160 X24 +160 X25
  +160 X26 +160 X27 +160 X28 +160 X29 +160 X30 +160 X31 +160 X32 +160 X33 +160 X34 +160 X35 +160 X36 +160 X37
  +160 X38 +160 X39 +160 X40 +160 X41 +160 X42 +160 X43 +160 X45 +160 X46 +160 X47 +160 X48 +160 X49 +160 X50
  +160 X51 +160 X52 +160 X53 +160 X54 +160 X55 +160 X56 +160 X58 +160 X59 +160 X60 +160 X61 +160 X62 +160 X63
  +160 X64 +160 X65 +160 X67 +160 X68 +160 X69 +160 X70 +160 X71 +160 X72 +160 X73 +160 X74 +160 X75 +160 X76
  +160 X77 +160 X78 +160 X79 +160 X80 +160 X81 +160 X82 +160 X83 +160 X86 +160 X87 +160 X88 +160 X89 +160 X90
  +160 X91 +160 X92 +160 X93 +160 X94 +160 X95 +160 X96 +160 X98 +160 X99 +160 X100 +160 X101 +160 X102
  +160 X103 +160 X104 +160 X105 +160 X106 +160 X107 +160 X108 +160 X109 +160 X110 +160 X111 +160 X113
  +160 X114 +160 X115 +160 X116 +160 X117 +160 X118 +160 X119 +160 X120 +160 X121 +160 X122 +160 X123
  +160 X124 +160 X125 +160 X126 >= -1520
 c108: +1 theta -160 X6 -160 X13 -160 X14 -160 X49 -160 X50 -160 X66 -160 X84 -160 X85 -160 X97 -160 X112
  -160 X127 +160 X0 +160 X1 +160 X2 +160 X3 +160 X4 +160 X5 +160 X7 +160 X8 +160 X9 +160 X10 +160 X11
  +160 X12 +160 X15 +160 X16 +160 X17 +160 X18 +160 X19 +160 X20 +160 X21 +160 X22 +160 X23 +160 X24 +160 X25
  +160 X26 +160 X27 +160 X28 +160 X29 +160 X30 +160 X31 +160 X32 +160 X33 +160 X34 +160 X35 +160 X36 +160 X37
  +160 X38 +160 X39 +160 X40 +160 X41 +160 X42 +160 X43 +160 X44 +160 X45 +160 X46 +160 X47 +160 X48 +160 X51
  +160 X52 +160 X53 +160 X54 +160 X55 +160 X56 +160 X57 +160 X58 +160 X59 +160 X60 +160 X61 +160 X62 +160 X63
  +160 X64 +160 X65 +160 X67 +160 X68 +160 X69 +160 X70 +160 X71 +160 X72 +160 X73 +160 X74 +160 X75 +160 X76
  +160 X77 +160 X78 +160 X79 +160 X80 +160 X81 +160 X82 +160 X83 +160 X86 +160 X87 +160 X88 +160 X89 +160 X90
  +160 X91 +160 X92 +160 X93 +160 X94 +160 X95 +160 X96 +160 X98 +160 X99 +160 X100 +160 X101 +160 X102
  +160 X103 +160 X104 +160 X105 +160 X106 +160 X107 +160 X108 +160 X109 +160 X110 +160 X111 +160 X113
  +160 X114 +160 X115 +160 X116 +160 X117 +160 X118 +160 X119 +160 X120 +160 X121 +160 X122 +160 X123
  +160 X124 +160 X125 +160 X126 >= -1520
 c109: +1 theta -160 X6 -160 X13 -160 X14 -160 X49 -160 X50 -160 X66 -160 X84 -160 X90 -160 X93 -160 X112
  -160 X127 +160 X0 +160 X1 +160 X2 +160 X3 +160 X4 +160 X5 +160 X7 +160 X8 +160 X9 +160 X10 +160 X11
  +160 X12 +160 X15 +160 X16 +160 X17 +160 X18 +160 X19 +160 X20 +160 X21 +160 X22 +160 X23 +160 X24 +160 X25
  +160 X26 +160 X27 +160 X28 +160 X29 +160 X30 +160 X31 +160 X32 +160 X33 +160 X34 +160 X35 +160 X36 +160 X37
  +160 X38 +160 X39 +160 X40 +160 X41 +160 X42 +160 X43 +160 X44 +160 X45 +160 X46 +160 X47 +160 X48 +160 X51
  +160 X52 +160 X53 +160 X54 +160 X55 +160 X56 +160 X57 +160 X58 +160 X59 +160 X60 +160 X61 +160 X62 +160 X63
  +160 X64 +160 X65 +160 X67 +160 X68 +160 X69 +160 X70 +160 X71 +160 X72 +160 X73 +160 X74 +160 X75 +160 X76
  +160 X77 +160 X78 +160 X79 +160 X80 +160 X81 +160 X82 +160 X83 +160 X85 +160 X86 +160 X87 +160 X88 +160 X89
  +160 X91 +160 X92 +160 X94 +160 X95 +160 X96 +160 X97 +160 X98 +160 X99 +160 X100 +160 X101 +160 X102
  +160 X103 +160 X104 +160 X105 +160 X106 +160 X107 +160 X108 +160 X109 +160 X110 +160 X111 +160 X113
  +160 X114 +160 X115 +160 X116 +160 X117 +160 X118 +160 X119 +160 X120 +160 X121 +160 X122 +160 X123
  +160 X124 +160 X125 +160 X126 >= -1520
 c110: +1 theta -160 X6 -160 X11 -160 X16 -160 X49 -160 X50 -160 X66 -160 X84 -160 X91 -160 X92 -160 X112
  -160 X127 +160 X0 +160 X1 +160 X2 +160 X3 +160 X4 +160 X5 +160 X7 +160 X8 +160 X9 +160 X10 +160 X12
  +160 X13 +160 X14 +160 X15 +160 X17 +160 X18 +160 X19 +160 X20 +160 X21 +160 X22 +160 X23 +160 X24 +160 X25
  +160 X26 +160 X27 +160 X28 +160 X29 +160 X30 +160 X31 +160 X32 +160 X33 +160 X34 +160 X35 +160 X36 +160 X37
  +160 X38 +160 X39 +160 X40 +160 X41 +160 X42 +160 X43 +160 X44 +160 X45 +160 X46 +160 X47 +160 X48 +160 X51
  +160 X52 +160 X53 +160 X54 +160 X55 +160 X56 +160 X57 +160 X58 +160 X59 +160 X60 +160 X61 +160 X62 +160 X63
  +160 X64 +160 X65 +160 X67 +160 X68 +160 X69 +160 X70 +160 X71 +160 X72 +160 X73 +160 X74 +160 X75 +160 X76
  +160 X77 +160 X78 +160 X79 +160 X80 +160 X81 +160 X82 +160 X83 +160 X85 +160 X86 +160 X87 +160 X88 +160 X89
  +160 X90 +160 X93 +160 X94 +160 X95 +160 X96 +160 X97 +160 X98 +160 X99 +160 X100 +160 X101 +160 X102
  +160 X103 +160 X104 +160 X105 +160 X106 +160 X107 +160 X108 +160 X109 +160 X110 +160 X111 +160 X113
  +160 X114 +160 X115 +160 X116 +160 X117 +160 X118 +160 X119 +160 X120 +160 X121 +160 X122 +160 X123
  +160 X124 +160 X125 +160 X126 >= -1520
 c111: +1 theta -160 X6 -160 X13 -160 X14 -160 X49 -160 X50 -160 X66 -160 X84 -160 X89 -160 X94 -160 X112
  -160 X127 +160 X0 +160 X1 +160 X2 +160 X3 +160 X4 +160 X5 +160 X7 +160 X8 +160 X9 +160 X10 +160 X11
  +160 X12 +160 X15 +160 X16 +160 X17 +160 X18 +160 X19 +160 X20 +160 X21 +160 X22 +160 X23 +160 X24 +160 X25
  +160 X26 +160 X27 +160 X28 +160 X29 +160 X30 +160 X31 +160 X32 +160 X33 +160 X34 +160 X35 +160 X36 +160 X37
  +160 X38 +160 X39 +160 X40 +160 X41 +160 X42 +160 X43 +160 X44 +160 X45 +160 X46 +160 X47 +160 X48 +160 X51
  +160 X52 +160 X53 +160 X54 +160 X55 +160 X56 +160 X57 +160 X58 +160 X59 +160 X60 +160 X61 +160 X62 +160 X63
  +160 X64 +160 X65 +160 X67 +160 X68 +160 X69 +160 X70 +160 X71 +160 X72 +160 X73 +160 X74 +160 X75 +160 X76
  +160 X77 +160 X78 +160 X79 +160 X80 +160 X81 +160 X82 +160 X83 +160 X85 +160 X86 +160 X87 +160 X88 +160 X90
  +160 X91 +160 X92 +160 X93 +160 X95 +160 X96 +160 X97 +160 X98 +160 X99 +160 X100 +160 X101 +160 X102
  +160 X103 +160 X104 +160 X105 +160 X106 +160 X107 +160 X108 +160 X109 +160 X110 +160 X111 +160 X113
  +160 X114 +160 X115 +160 X116 +160 X117 +160 X118 +160 X119 +160 X120 +160 X121 +160 X122 +160 X123
  +160 X124 +160 X125 +160 X126 >= -1520
 c112: +1 theta -160 X6 -160 X10 -160 X17 -160 X49 -160 X50 -160 X66 -160 X84 -160 X91 -160 X92 -160 X112
  -160 X127 +160 X0 +160 X1 +160 X2 +160 X3 +160 X4 +160 X5 +160 X7 +160 X8 +160 X9 +160 X11 +160 X12
  +160 X13 +160 X14 +160 X15 +160 X16 +160 X18 +160 X19 +160 X20 +160 X21 +160 X22 +160 X23 +160 X24 +160 X25
  +160 X26 +160 X27 +160 X28 +160 X29 +160 X30 +160 X31 +160 X32 +160 X33 +160 X34 +160 X35 +160 X36 +160 X37
  +160 X38 +160 X39 +160 X40 +160 X41 +160 X42 +160 X43 +160 X44 +160 X45 +160 X46 +160 X47 +160 X48 +160 X51
  +160 X52 +160 X53 +160 X54 +160 X55 +160 X56 +160 X57 +160 X58 +160 X59 +160 X60 +160 X61 +160 X62 +160 X63
  +160 X64 +160 X65 +160 X67 +160 X68 +160 X69 +160 X70 +160 X71 +160 X72 +160 X73 +160 X74 +160 X75 +160 X76
  +160 X77 +160 X78 +160 X79 +160 X80 +160 X81 +160 X82 +160 X83 +160 X85 +160 X86 +160 X87 +160 X88 +160 X89
  +160 X90 +160 X93 +160 X94 +160 X95 +160 X96 +160 X97 +160 X98 +160 X99 +160 X100 +160 X101 +160 X102
  +160 X103 +160 X104 +160 X105 +160 X106 +160 X107 +160 X108 +160 X109 +160 X110 +160 X111 +160 X113
  +160 X114 +160 X115 +160 X116 +160 X117 +160 X118 +160 X119 +160 X120 +160 X121 +160 X122 +160 X123
  +160 X124 +160 X125 +160 X126 >= -1520
 c113: +1 theta -160 X6 -160 X11 -160 X16 -160 X49 -160 X50 -160 X66 -160 X84 -160 X89 -160 X94 -160 X112
  -160 X127 +160 X0 +160 X1 +160 X2 +160 X3 +160 X4 +160 X5 +160 X7 +160 X8 +160 X9 +160 X10 +160 X12
  +160 X13 +160 X14 +160 X15 +160 X17 +160 X18 +160 X19 +160 X20 +160 X21 +160 X22 +160 X23 +160 X24 +160 X25
  +160 X26 +160 X27 +160 X28 +160 X29 +160 X30 +160 X31 +160 X32 +160 X33 +160 X34 +160 X35 +160 X36 +160 X37
  +160 X38 +160 X39 +160 X40 +160 X41 +160 X42 +160 X43 +160 X44 +160 X45 +160 X46 +160 X47 +160 X48 +160 X51
  +160 X52 +160 X53 +160 X54 +160 X55 +160 X56 +160 X57 +160 X58 +160 X59 +160 X60 +160 X61 +160 X62 +160 X63
  +160 X64 +160 X65 +160 X67 +160 X68 +160 X69 +160 X70 +160 X71 +160 X72 +160 X73 +160 X74 +160 X75 +160 X76
  +160 X77 +160 X78 +160 X79 +160 X80 +160 X81 +160 X82 +160 X83 +160 X85 +160 X86 +160 X87 +160 X88 +160 X90
  +160 X91 +160 X92 +160 X93 +160 X95 +160 X96 +160 X97 +160 X98 +160 X99 +160 X100 +160 X101 +160 X102
  +160 X103 +160 X104 +160 X105 +160 X106 +160 X107 +160 X108 +160 X109 +160 X110 +160 X111 +160 X113
  +160 X114 +160 X115 +160 X116 +160 X117 +160 X118 +160 X119 +160 X120 +160 X121 +160 X122 +160 X123
  +160 X124 +160 X125 +160 X126 >= -1520
 c114: +1 theta -160 X6 -160 X11 -160 X16 -160 X49 -160 X50 -160 X70 -160 X83 -160 X89 -160 X94 -160 X112
  -160 X127 +160 X0 +160 X1 +160 X2 +160 X3 +160 X4 +160 X5 +160 X7 +160 X8 +160 X9 +160 X10 +160 X12
  +160 X13 +160 X14 +160 X15 +160 X17 +160 X18 +160 X19 +160 X20 +160 X21 +160 X22 +160 X23 +160 X24 +160 X25
  +160 X26 +160 X27 +160 X28 +160 X29 +160 X30 +160 X31 +160 X32 +160 X33 +160 X34 +160 X35 +160 X36 +160 X37
  +160 X38 +160 X39 +160 X40 +160 X41 +160 X42 +160 X43 +160 X44 +160 X45 +160 X46 +160 X47 +160 X48 +160 X51
  +160 X52 +160 X53 +160 X54 +160 X55 +160 X56 +160 X57 +160 X58 +160 X59 +160 X60 +160 X61 +160 X62 +160 X63
  +160 X64 +160 X65 +160 X66 +160 X67 +160 X68 +160 X69 +160 X71 +160 X72 +160 X73 +160 X74 +160 X75 +160 X76
  +160 X77 +160 X78 +160 X79 +160 X80 +160 X81 +160 X82 +160 X84 +160 X85 +160 X86 +160 X87 +160 X88 +160 X90
  +160 X91 +160 X92 +160 X93 +160 X95 +160 X96 +160 X97 +160 X98 +160 X99 +160 X100 +160 X101 +160 X102
  +160 X103 +160 X104 +160 X105 +160 X106 +160 X107 +160 X108 +160 X109 +160 X110 +160 X111 +160 X113
  +160 X114 +160 X115 +160 X116 +160 X117 +160 X118 +160 X119 +160 X120 +160 X121 +160 X122 +160 X123
  +160 X124 +160 X125 +160 X126 >= -1520
 c115: +1 theta -160 X6 -160 X13 -160 X14 -160 X40 -160 X60 -160 X70 -160 X83 -160 X89 -160 X94 -160 X112
  -160 X127 +160 X0 +160 X1 +160 X2 +160 X3 +160 X4 +160 X5 +160 X7 +160 X8 +160 X9 +160 X10 +160 X11
  +160 X12 +160 X15 +160 X16 +160 X17 +160 X18 +160 X19 +160 X20 +160 X21 +160 X22 +160 X23 +160 X24 +160 X25
  +160 X26 +160 X27 +160 X28 +160 X29 +160 X30 +160 X31 +160 X32 +160 X33 +160 X34 +160 X35 +160 X36 +160 X37
  +160 X38 +160 X39 +160 X41 +160 X42 +160 X43 +160 X44 +160 X45 +160 X46 +160 X47 +160 X48 +160 X49 +160 X50
  +160 X51 +160 X52 +160 X53 +160 X54 +160 X55 +160 X56 +160 X57 +160 X58 +160 X59 +160 X61 +160 X62 +160 X63
  +160 X64 +160 X65 +160 X66 +160 X67 +160 X68 +160 X69 +160 X71 +160 X72 +160 X73 +160 X74 +160 X75 +160 X76
  +160 X77 +160 X78 +160 X79 +160 X80 +160 X81 +160 X82 +160 X84 +160 X85 +160 X86 +160 X87 +160 X88 +160 X90
  +160 X91 +160 X92 +160 X93 +160 X95 +160 X96 +160 X97 +160 X98 +160 X99 +160 X100 +160 X101 +160 X102
  +160 X103 +160 X104 +160 X105 +160 X106 +160 X107 +160 X108 +160 X109 +160 X110 +160 X111 +160 X113
  +160 X114 +160 X115 +160 X116 +160 X117 +160 X118 +160 X119 +160 X120 +160 X121 +160 X122 +160 X123
  +160 X124 +160 X125 +160 X126 >= -1520
 c116: +1 theta -160 X6 -160 X9 -160 X18 -160 X40 -160 X60 -160 X70 -160 X83 -160 X89 -160 X94 -160 X112
  -160 X127 +160 X0 +160 X1 +160 X2 +160 X3 +160 X4 +160 X5 +160 X7 +160 X8 +160 X10 +160 X11 +160 X12
  +160 X13 +160 X14 +160 X15 +160 X16 +160 X17 +160 X19 +160 X20 +160 X21 +160 X22 +160 X23 +160 X24 +160 X25
  +160 X26 +160 X27 +160 X28 +160 X29 +160 X30 +160 X31 +160 X32 +160 X33 +160 X34 +160 X35 +160 X36 +160 X37
  +160 X38 +160 X39 +160 X41 +160 X42 +160 X43 +160 X44 +160 X45 +160 X46 +160 X47 +160 X48 +160 X49 +160 X50
  +160 X51 +160 X52 +160 X53 +160 X54 +160 X55 +160 X56 +160 X57 +160 X58 +160 X59 +160 X61 +160 X62 +160 X63
  +160 X64 +160 X65 +160 X66 +160 X67 +160 X68 +160 X69 +160 X71 +160 X72 +160 X73 +160 X74 +160 X75 +160 X76
  +160 X77 +160 X78 +160 X79 +160 X80 +160 X81 +160 X82 +160 X84 +160 X85 +160 X86 +160 X87 +160 X88 +160 X90
  +160 X91 +160 X92 +160 X93 +160 X95 +160 X96 +160 X97 +160 X98 +160 X99 +160 X100 +160 X101 +160 X102
  +160 X103 +160 X104 +160 X105 +160 X106 +160 X107 +160 X108 +160 X109 +160 X110 +160 X111 +160 X113
  +160 X114 +160 X115 +160 X116 +160 X117 +160 X118 +160 X119 +160 X120 +160 X121 +160 X122 +160 X123
  +160 X124 +160 X125 +160 X126 >= -1520
 c117: +1 theta -160 X6 -160 X13 -160 X14 -160 X45 -160 X56 -160 X70 -160 X83 -160 X89 -160 X94 -160 X112
  -160 X127 +160 X0 +160 X1 +160 X2 +160 X3 +160 X4 +160 X5 +160 X7 +160 X8 +160 X9 +160 X10 +160 X11
  +160 X12 +160 X15 +160 X16 +160 X17 +160 X18 +160 X19 +160 X20 +160 X21 +160 X22 +160 X23 +160 X24 +160 X25
  +160 X26 +160 X27 +160 X28 +160 X29 +160 X30 +160 X31 +160 X32 +160 X33 +160 X34 +160 X35 +160 X36 +160 X37
  +160 X38 +160 X39 +160 X40 +160 X41 +160 X42 +160 X43 +160 X44 +160 X46 +160 X47 +160 X48 +160 X49 +160 X50
  +160 X51 +160 X52 +160 X53 +160 X54 +160 X55 +160 X57 +160 X58 +160 X59 +160 X60 +160 X61 +160 X62 +160 X63
  +160 X64 +160 X65 +160 X66 +160 X67 +160 X68 +160 X69 +160 X71 +160 X72 +160 X73 +160 X74 +160 X75 +160 X76
  +160 X77 +160 X78 +160 X79 +160 X80 +160 X81 +160 X82 +160 X84 +160 X85 +160 X86 +160 X87 +160 X88 +160 X90
  +160 X91 +160 X92 +160 X93 +160 X95 +160 X96 +160 X97 +160 X98 +160 X99 +160 X100 +160 X101 +160 X102
  +160 X103 +160 X104 +160 X105 +160 X106 +160 X107 +160 X108 +160 X109 +160 X110 +160 X111 +160 X113
  +160 X114 +160 X115 +160 X116 +160 X117 +160 X118 +160 X119 +160 X120 +160 X121 +160 X122 +160 X123
  +160 X124 +160 X125 +160 X126 >= -1520
 c118: +1 theta -160 X6 -160 X10 -160 X17 -160 X45 -160 X56 -160 X70 -160 X83 -160 X89 -160 X94 -160 X112
  -160 X127 +160 X0 +160 X1 +160 X2 +160 X3 +160 X4 +160 X5 +160 X7 +160 X8 +160 X9 +160 X11 +160 X12
  +160 X13 +160 X14 +160 X15 +160 X16 +160 X18 +160 X19 +160 X20 +160 X21 +160 X22 +160 X23 +160 X24 +160 X25
  +160 X26 +160 X27 +160 X28 +160 X29 +160 X30 +160 X31 +160 X32 +160 X33 +160 X34 +160 X35 +160 X36 +160 X37
  +160 X38 +160 X39 +160 X40 +160 X41 +160 X42 +160 X43 +160 X44 +160 X46 +160 X47 +160 X48 +160 X49 +160 X50
  +160 X51 +160 X52 +160 X53 +160 X54 +160 X55 +160 X57 +160 X58 +160 X59 +160 X60 +160 X61 +160 X62 +160 X63
  +160 X64 +160 X65 +160 X66 +160 X67 +160 X68 +160 X69 +160 X71 +160 X72 +160 X73 +160 X74 +160 X75 +160 X76
  +160 X77 +160 X78 +160 X79 +160 X80 +160 X81 +160 X82 +160 X84 +160 X85 +160 X86 +160 X87 +160 X88 +160 X90
  +160 X91 +160 X92 +160 X93 +160 X95 +160 X96 +160 X97 +160 X98 +160 X99 +160 X100 +160 X101 +160 X102
  +160 X103 +160 X104 +160 X105 +160 X106 +160 X107 +160 X108 +160 X109 +160 X110 +160 X111 +160 X113
  +160 X114 +160 X115 +160 X116 +160 X117 +160 X118 +160 X119 +160 X120 +160 X121 +160 X122 +160 X123
  +160 X124 +160 X125 +160 X126 >= -1520
 c119: +1 theta -160 X6 -160 X8 -160 X19 -160 X45 -160 X56 -160 X70 -160 X83 -160 X89 -160 X94 -160 X112
  -160 X127 +160 X0 +160 X1 +160 X2 +160 X3 +160 X4 +160 X5 +160 X7 +160 X9 +160 X10 +160 X11 +160 X12
  +160 X13 +160 X14 +160 X15 +160 X16 +160 X17 +160 X18 +160 X20 +160 X21 +160 X22 +160 X23 +160 X24 +160 X25
  +160 X26 +160 X27 +160 X28 +160 X29 +160 X30 +160 X31 +160 X32 +160 X33 +160 X34 +160 X35 +160 X36 +160 X37
  +160 X38 +160 X39 +160 X40 +160 X41 +160 X42 +160 X43 +160 X44 +160 X46 +160 X47 +160 X48 +160 X49 +160 X50
  +160 X51 +160 X52 +160 X53 +160 X54 +160 X55 +160 X57 +160 X58 +160 X59 +160 X60 +160 X61 +160 X62 +160 X63
  +160 X64 +160 X65 +160 X66 +160 X67 +160 X68 +160 X69 +160 X71 +160 X72 +160 X73 +160 X74 +160 X75 +160 X76
  +160 X77 +160 X78 +160 X79 +160 X80 +160 X81 +160 X82 +160 X84 +160 X85 +160 X86 +160 X87 +160 X88 +160 X90
  +160 X91 +160 X92 +160 X93 +160 X95 +160 X96 +160 X97 +160 X98 +160 X99 +160 X100 +160 X101 +160 X102
  +160 X103 +160 X104 +160 X105 +160 X106 +160 X107 +160 X108 +160 X109 +160 X110 +160 X111 +160 X113
  +160 X114 +160 X115 +160 X116 +160 X117 +160 X118 +160 X119 +160 X120 +160 X121 +160 X122 +160 X123
  +160 X124 +160 X125 +160 X126 >= -1520
 c120: +1 theta -160 X6 -160 X13 -160 X14 -160 X40 -160 X60 -160 X76 -160 X80 -160 X89 -160 X94 -160 X112
  -160 X127 +160 X0 +160 X1 +160 X2 +160 X3 +160 X4 +160 X5 +160 X7 +160 X8 +160 X9 +160 X10 +160 X11
  +160 X12 +160 X15 +160 X16 +160 X17 +160 X18 +160 X19 +160 X20 +160 X21 +160 X22 +160 X23 +160 X24 +160 X25
  +160 X26 +160 X27 +160 X28 +160 X29 +160 X30 +160 X31 +160 X32 +160 X33 +160 X34 +160 X35 +160 X36 +160 X37
  +160 X38 +160 X39 +160 X41 +160 X42 +160 X43 +160 X44 +160 X45 +160 X46 +160 X47 +160 X48 +160 X49 +160 X50
  +160 X51 +160 X52 +160 X53 +160 X54 +160 X55 +160 X56 +160 X57 +160 X58 +160 X59 +160 X61 +160 X62 +160 X63
  +160 X64 +160 X65 +160 X66 +160 X67 +160 X68 +160 X69 +160 X70 +160 X71 +160 X72 +160 X73 +160 X74 +160 X75
  +160 X77 +160 X78 +160 X79 +160 X81 +160 X82 +160 X83 +160 X84 +160 X85 +160 X86 +160 X87 +160 X88 +160 X90
  +160 X91 +160 X92 +160 X93 +160 X95 +160 X96 +160 X97 +160 X98 +160 X99 +160 X100 +160 X101 +160 X102
  +160 X103 +160 X104 +160 X105 +160 X106 +160 X107 +160 X108 +160 X109 +160 X110 +160 X111 +160 X113
  +160 X114 +160 X115 +160 X116 +160 X117 +160 X118 +160 X119 +160 X120 +160 X121 +160 X122 +160 X123
  +160 X124 +160 X125 +160 X126 >= -1520
 c121: +1 theta -160 X6 -160 X13 -160 X14 -160 X38 -160 X61 -160 X76 -160 X80 -160 X89 -160 X94 -160 X112
  -160 X127 +160 X0 +160 X1 +160 X2 +160 X3 +160 X4 +160 X5 +160 X7 +160 X8 +160 X9 +160 X10 +160 X11
  +160 X12 +160 X15 +160 X16 +160 X17 +160 X18 +160 X19 +160 X20 +160 X21 +160 X22 +160 X23 +160 X24 +160 X25
  +160 X26 +160 X27 +160 X28 +160 X29 +160 X30 +160 X31 +160 X32 +160 X33 +160 X34 +160 X35 +160 X36 +160 X37
  +160 X39 +160 X40 +160 X41 +160 X42 +160 X43 +160 X44 +160 X45 +160 X46 +160 X47 +160 X48 +160 X49 +160 X50
  +160 X51 +160 X52 +160 X53 +160 X54 +160 X55 +160 X56 +160 X57 +160 X58 +160 X59 +160 X60 +160 X62 +160 X63
  +160 X64 +160 X65 +160 X66 +160 X67 +160 X68 +160 X69 +160 X70 +160 X71 +160 X72 +160 X73 +160 X74 +160 X75
  +160 X77 +160 X78 +160 X79 +160 X81 +160 X82 +160 X83 +160 X84 +160 X85 +160 X86 +160 X87 +160 X88 +160 X90
  +160 X91 +160 X92 +160 X93 +160 X95 +160 X96 +160 X97 +160 X98 +160 X99 +160 X100 +160 X101 +160 X102
  +160 X103 +160 X104 +160 X105 +160 X106 +160 X107 +160 X108 +160 X109 +160 X110 +160 X111 +160 X113
  +160 X114 +160 X115 +160 X116 +160 X117 +160 X118 +160 X119 +160 X120 +160 X121 +160 X122 +160 X123
  +160 X124 +160 X125 +160 X126 >= -1520
 c122: +1 theta -160 X6 -160 X10 -160 X17 -160 X38 -160 X61 -160 X76 -160 X80 -160 X89 -160 X94 -160 X112
  -160 X127 +160 X0 +160 X1 +160 X2 +160 X3 +160 X4 +160 X5 +160 X7 +160 X8 +160 X9 +160 X11 +160 X12
  +160 X13 +160 X14 +160 X15 +160 X16 +160 X18 +160 X19 +160 X20 +160 X21 +160 X22 +160 X23 +160 X24 +160 X25
  +160 X26 +160 X27 +160 X28 +160 X29 +160 X30 +160 X31 +160 X32 +160 X33 +160 X34 +160 X35 +160 X36 +160 X37
  +160 X39 +160 X40 +160 X41 +160 X42 +160 X43 +160 X44 +160 X45 +160 X46 +160 X47 +160 X48 +160 X49 +160 X50
  +160 X51 +160 X52 +160 X53 +160 X54 +160 X55 +160 X56 +160 X57 +160 X58 +160 X59 +160 X60 +160 X62 +160 X63
  +160 X64 +160 X65 +160 X66 +160 X67 +160 X68 +160 X69 +160 X70 +160 X71 +160 X72 +160 X73 +160 X74 +160 X75
  +160 X77 +160 X78 +160 X79 +160 X81 +160 X82 +160 X83 +160 X84 +160 X85 +160 X86 +160 X87 +160 X88 +160 X90
  +160 X91 +160 X92 +160 X93 +160 X95 +160 X96 +160 X97 +160 X98 +160 X99 +160 X100 +160 X101 +160 X102
  +160 X103 +160 X104 +160 X105 +160 X106 +160 X107 +160 X108 +160 X109 +160 X110 +160 X111 +160 X113
  +160 X114 +160 X115 +160 X116 +160 X117 +160 X118 +160 X119 +160 X120 +160 X121 +160 X122 +160 X123
  +160 X124 +160 X125 +160 X126 >= -1520
 c123: +1 theta -160 X6 -160 X9 -160 X18 -160 X38 -160 X61 -160 X76 -160 X80 -160 X89 -160 X94 -160 X112
  -160 X127 +160 X0 +160 X1 +160 X2 +160 X3 +160 X4 +160 X5 +160 X7 +160 X8 +160 X10 +160 X11 +160 X12
  +160 X13 +160 X14 +160 X15 +160 X16 +160 X17 +160 X19 +160 X20 +160 X21 +160 X22 +160 X23 +160 X24 +160 X25
  +160 X26 +160 X27 +160 X28 +160 X29 +160 X30 +160 X31 +160 X32 +160 X33 +160 X34 +160 X35 +160 X36 +160 X37
  +160 X39 +160 X40 +160 X41 +160 X42 +160 X43 +160 X44 +160 X45 +160 X46 +160 X47 +160 X48 +160 X49 +160 X50
  +160 X51 +160 X52 +160 X53 +160 X54 +160 X55 +160 X56 +160 X57 +160 X58 +160 X59 +160 X60 +160 X62 +160 X63
  +160 X64 +160 X65 +160 X66 +160 X67 +160 X68 +160 X69 +160 X70 +160 X71 +160 X72 +160 X73 +160 X74 +160 X75
  +160 X77 +160 X78 +160 X79 +160 X81 +160 X82 +160 X83 +160 X84 +160 X85 +160 X86 +160 X87 +160 X88 +160 X90
  +160 X91 +160 X92 +160 X93 +160 X95 +160 X96 +160 X97 +160 X98 +160 X99 +160 X100 +160 X101 +160 X102
  +160 X103 +160 X104 +160 X105 +160 X106 +160 X107 +160 X108 +160 X109 +160 X110 +160 X111 +160 X113
  +160 X114 +160 X115 +160 X116 +160 X117 +160 X118 +160 X119 +160 X120 +160 X121 +160 X122 +160 X123
  +160 X124 +160 X125 +160 X126 >= -1520
 c124: +1 theta -160 X6 -160 X8 -160 X19 -160 X38 -160 X61 -160 X76 -160 X80 -160 X89 -160 X94 -160 X112
  -160 X127 +160 X0 +160 X1 +160 X2 +160 X3 +160 X4 +160 X5 +160 X7 +160 X9 +160 X10 +160 X11 +160 X12
  +160 X13 +160 X14 +160 X15 +160 X16 +160 X17 +160 X18 +160 X20 +160 X21 +160 X22 +160 X23 +160 X24 +160 X25
  +160 X26 +160 X27 +160 X28 +160 X29 +160 X30 +160 X31 +160 X32 +160 X33 +160 X34 +160 X35 +160 X36 +160 X37
  +160 X39 +160 X40 +160 X41 +160 X42 +160 X43 +160 X44 +160 X45 +160 X46 +160 X47 +160 X48 +160 X49 +160 X50
  +160 X51 +160 X52 +160 X53 +160 X54 +160 X55 +160 X56 +160 X57 +160 X58 +160 X59 +160 X60 +160 X62 +160 X63
  +160 X64 +160 X65 +160 X66 +160 X67 +160 X68 +160 X69 +160 X70 +160 X71 +160 X72 +160 X73 +160 X74 +160 X75
  +160 X77 +160 X78 +160 X79 +160 X81 +160 X82 +160 X83 +160 X84 +160 X85 +160 X86 +160 X87 +160 X88 +160 X90
  +160 X91 +160 X92 +160 X93 +160 X95 +160 X96 +160 X97 +160 X98 +160 X99 +160 X100 +160 X101 +160 X102
  +160 X103 +160 X104 +160 X105 +160 X106 +160 X107 +160 X108 +160 X109 +160 X110 +160 X111 +160 X113
  +160 X114 +160 X115 +160 X116 +160 X117 +160 X118 +160 X119 +160 X120 +160 X121 +160 X122 +160 X123
  +160 X124 +160 X125 +160 X126 >= -1520
 c125: +1 theta -160 X6 -160 X9 -160 X18 -160 X38 -160 X61 -160 X76 -160 X80 -160 X88 -160 X95 -160 X112
  -160 X127 +160 X0 +160 X1 +160 X2 +160 X3 +160 X4 +160 X5 +160 X7 +160 X8 +160 X10 +160 X11 +160 X12
  +160 X13 +160 X14 +160 X15 +160 X16 +160 X17 +160 X19 +160 X20 +160 X21 +160 X22 +160 X23 +160 X24 +160 X25
  +160 X26 +160 X27 +160 X28 +160 X29 +160 X30 +160 X31 +160 X32 +160 X33 +160 X34 +160 X35 +160 X36 +160 X37
  +160 X39 +160 X40 +160 X41 +160 X42 +160 X43 +160 X44 +160 X45 +160 X46 +160 X47 +160 X48 +160 X49 +160 X50
  +160 X51 +160 X52 +160 X53 +160 X54 +160 X55 +160 X56 +160 X57 +160 X58 +160 X59 +160 X60 +160 X62 +160 X63
  +160 X64 +160 X65 +160 X66 +160 X67 +160 X68 +160 X69 +160 X70 +160 X71 +160 X72 +160 X73 +160 X74 +160 X75
  +160 X77 +160 X78 +160 X79 +160 X81 +160 X82 +160 X83 +160 X84 +160 X85 +160 X86 +160 X87 +160 X89 +160 X90
  +160 X91 +160 X92 +160 X93 +160 X94 +160 X96 +160 X97 +160 X98 +160 X99 +160 X100 +160 X101 +160 X102
  +160 X103 +160 X104 +160 X105 +160 X106 +160 X107 +160 X108 +160 X109 +160 X110 +160 X111 +160 X113
  +160 X114 +160 X115 +160 X116 +160 X117 +160 X118 +160 X119 +160 X120 +160 X121 +160 X122 +160 X123
  +160 X124 +160 X125 +160 X126 >= -1520
 c126: +1 theta -160 X6 -160 X8 -160 X19 -160 X38 -160 X61 -160 X76 -160 X80 -160 X88 -160 X95 -160 X112
  -160 X127 +160 X0 +160 X1 +160 X2 +160 X3 +160 X4 +160 X5 +160 X7 +160 X9 +160 X10 +160 X11 +160 X12
  +160 X13 +160 X14 +160 X15 +160 X16 +160 X17 +160 X18 +160 X20 +160 X21 +160 X22 +160 X23 +160 X24 +160 X25
  +160 X26 +160 X27 +160 X28 +160 X29 +160 X30 +160 X31 +160 X32 +160 X33 +160 X34 +160 X35 +160 X36 +160 X37
  +160 X39 +160 X40 +160 X41 +160 X42 +160 X43 +160 X44 +160 X45 +160 X46 +160 X47 +160 X48 +160 X49 +160 X50
  +160 X51 +160 X52 +160 X53 +160 X54 +160 X55 +160 X56 +160 X57 +160 X58 +160 X59 +160 X60 +160 X62 +160 X63
  +160 X64 +160 X65 +160 X66 +160 X67 +160 X68 +160 X69 +160 X70 +160 X71 +160 X72 +160 X73 +160 X74 +160 X75
  +160 X77 +160 X78 +160 X79 +160 X81 +160 X82 +160 X83 +160 X84 +160 X85 +160 X86 +160 X87 +160 X89 +160 X90
  +160 X91 +160 X92 +160 X93 +160 X94 +160 X96 +160 X97 +160 X98 +160 X99 +160 X100 +160 X101 +160 X102
  +160 X103 +160 X104 +160 X105 +160 X106 +160 X107 +160 X108 +160 X109 +160 X110 +160 X111 +160 X113
  +160 X114 +160 X115 +160 X116 +160 X117 +160 X118 +160 X119 +160 X120 +160 X121 +160 X122 +160 X123
  +160 X124 +160 X125 +160 X126 >= -1520
 c127: +1 theta -160 X6 -160 X8 -160 X19 -160 X40 -160 X60 -160 X76 -160 X80 -160 X89 -160 X94 -160 X112
  -160 X127 +160 X0 +160 X1 +160 X2 +160 X3 +160 X4 +160 X5 +160 X7 +160 X9 +160 X10 +160 X11 +160 X12
  +160 X13 +160 X14 +160 X15 +160 X16 +160 X17 +160 X18 +160 X20 +160 X21 +160 X22 +160 X23 +160 X24 +160 X25
  +160 X26 +160 X27 +160 X28 +160 X29 +160 X30 +160 X31 +160 X32 +160 X33 +160 X34 +160 X35 +160 X36 +160 X37
  +160 X38 +160 X39 +160 X41 +160 X42 +160 X43 +160 X44 +160 X45 +160 X46 +160 X47 +160 X48 +160 X49 +160 X50
  +160 X51 +160 X52 +160 X53 +160 X54 +160 X55 +160 X56 +160 X57 +160 X58 +160 X59 +160 X61 +160 X62 +160 X63
  +160 X64 +160 X65 +160 X66 +160 X67 +160 X68 +160 X69 +160 X70 +160 X71 +160 X72 +160 X73 +160 X74 +160 X75
  +160 X77 +160 X78 +160 X79 +160 X81 +160 X82 +160 X83 +160 X84 +160 X85 +160 X86 +160 X87 +160 X88 +160 X90
  +160 X91 +160 X92 +160 X93 +160 X95 +160 X96 +160 X97 +160 X98 +160 X99 +160 X100 +160 X101 +160 X102
  +160 X103 +160 X104 +160 X105 +160 X106 +160 X107 +160 X108 +160 X109 +160 X110 +160 X111 +160 X113
  +160 X114 +160 X115 +160 X116 +160 X117 +160 X118 +160 X119 +160 X120 +160 X121 +160 X122 +160 X123
  +160 X124 +160 X125 +160 X126 >= -1520
 c128: +1 theta -160 X6 -160 X13 -160 X14 -160 X28 -160 X64 -160 X76 -160 X80 -160 X89 -160 X94 -160 X112
  -160 X127 +160 X0 +160 X1 +160 X2 +160 X3 +160 X4 +160 X5 +160 X7 +160 X8 +160 X9 +160 X10 +160 X11
  +160 X12 +160 X15 +160 X16 +160 X17 +160 X18 +160 X19 +160 X20 +160 X21 +160 X22 +160 X23 +160 X24 +160 X25
  +160 X26 +160 X27 +160 X29 +160 X30 +160 X31 +160 X32 +160 X33 +160 X34 +160 X35 +160 X36 +160 X37 +160 X38
  +160 X39 +160 X40 +160 X41 +160 X42 +160 X43 +160 X44 +160 X45 +160 X46 +160 X47 +160 X48 +160 X49 +160 X50
  +160 X51 +160 X52 +160 X53 +160 X54 +160 X55 +160 X56 +160 X57 +160 X58 +160 X59 +160 X60 +160 X61 +160 X62
  +160 X63 +160 X65 +160 X66 +160 X67 +160 X68 +160 X69 +160 X70 +160 X71 +160 X72 +160 X73 +160 X74 +160 X75
  +160 X77 +160 X78 +160 X79 +160 X81 +160 X82 +160 X83 +160 X84 +160 X85 +160 X86 +160 X87 +160 X88 +160 X90
  +160 X91 +160 X92 +160 X93 +160 X95 +160 X96 +160 X97 +160 X98 +160 X99 +160 X100 +160 X101 +160 X102
  +160 X103 +160 X104 +160 X105 +160 X106 +160 X107 +160 X108 +160 X109 +160 X110 +160 X111 +160 X113
  +160 X114 +160 X115 +160 X116 +160 X117 +160 X118 +160 X119 +160 X120 +160 X121 +160 X122 +160 X123
  +160 X124 +160 X125 +160 X126 >= -1520
 c129: +1 theta -160 X6 -160 X13 -160 X14 -160 X46 -160 X55 -160 X76 -160 X80 -160 X89 -160 X94 -160 X112
  -160 X127 +160 X0 +160 X1 +160 X2 +160 X3 +160 X4 +160 X5 +160 X7 +160 X8 +160 X9 +160 X10 +160 X11
  +160 X12 +160 X15 +160 X16 +160 X17 +160 X18 +160 X19 +160 X20 +160 X21 +160 X22 +160 X23 +160 X24 +160 X25
  +160 X26 +160 X27 +160 X28 +160 X29 +160 X30 +160 X31 +160 X32 +160 X33 +160 X34 +160 X35 +160 X36 +160 X37
  +160 X38 +160 X39 +160 X40 +160 X41 +160 X42 +160 X43 +160 X44 +160 X45 +160 X47 +160 X48 +160 X49 +160 X50
  +160 X51 +160 X52 +160 X53 +160 X54 +160 X56 +160 X57 +160 X58 +160 X59 +160 X60 +160 X61 +160 X62 +160 X63
  +160 X64 +160 X65 +160 X66 +160 X67 +160 X68 +160 X69 +160 X70 +160 X71 +160 X72 +160 X73 +160 X74 +160 X75
  +160 X77 +160 X78 +160 X79 +160 X81 +160 X82 +160 X83 +160 X84 +160 X85 +160 X86 +160 X87 +160 X88 +160 X90
  +160 X91 +160 X92 +160 X93 +160 X95 +160 X96 +160 X97 +160 X98 +160 X99 +160 X100 +160 X101 +160 X102
  +160 X103 +160 X104 +160 X105 +160 X106 +160 X107 +160 X108 +160 X109 +160 X110 +160 X111 +160 X113
  +160 X114 +160 X115 +160 X116 +160 X117 +160 X118 +160 X119 +160 X120 +160 X121 +160 X122 +160 X123
  +160 X124 +160 X125 +160 X126 >= -1520
 c130: +1 theta -160 X6 -160 X10 -160 X17 -160 X46 -160 X55 -160 X76 -160 X80 -160 X89 -160 X94 -160 X112
  -160 X127 +160 X0 +160 X1 +160 X2 +160 X3 +160 X4 +160 X5 +160 X7 +160 X8 +160 X9 +160 X11 +160 X12
  +160 X13 +160 X14 +160 X15 +160 X16 +160 X18 +160 X19 +160 X20 +160 X21 +160 X22 +160 X23 +160 X24 +160 X25
  +160 X26 +160 X27 +160 X28 +160 X29 +160 X30 +160 X31 +160 X32 +160 X33 +160 X34 +160 X35 +160 X36 +160 X37
  +160 X38 +160 X39 +160 X40 +160 X41 +160 X42 +160 X43 +160 X44 +160 X45 +160 X47 +160 X48 +160 X49 +160 X50
  +160 X51 +160 X52 +160 X53 +160 X54 +160 X56 +160 X57 +160 X58 +160 X59 +160 X60 +160 X61 +160 X62 +160 X63
  +160 X64 +160 X65 +160 X66 +160 X67 +160 X68 +160 X69 +160 X70 +160 X71 +160 X72 +160 X73 +160 X74 +160 X75
  +160 X77 +160 X78 +160 X79 +160 X81 +160 X82 +160 X83 +160 X84 +160 X85 +160 X86 +160 X87 +160 X88 +160 X90
  +160 X91 +160 X92 +160 X93 +160 X95 +160 X96 +160 X97 +160 X98 +160 X99 +160 X100 +160 X101 +160 X102
  +160 X103 +160 X104 +160 X105 +160 X106 +160 X107 +160 X108 +160 X109 +160 X110 +160 X111 +160 X113
  +160 X114 +160 X115 +160 X116 +160 X117 +160 X118 +160 X119 +160 X120 +160 X121 +160 X122 +160 X123
  +160 X124 +160 X125 +160 X126 >= -1520
 c131: +1 theta -160 X6 -160 X10 -160 X17 -160 X40 -160 X60 -160 X76 -160 X80 -160 X89 -160 X94 -160 X112
  -160 X127 +160 X0 +160 X1 +160 X2 +160 X3 +160 X4 +160 X5 +160 X7 +160 X8 +160 X9 +160 X11 +160 X12
  +160 X13 +160 X14 +160 X15 +160 X16 +160 X18 +160 X19 +160 X20 +160 X21 +160 X22 +160 X23 +160 X24 +160 X25
  +160 X26 +160 X27 +160 X28 +160 X29 +160 X30 +160 X31 +160 X32 +160 X33 +160 X34 +160 X35 +160 X36 +160 X37
  +160 X38 +160 X39 +160 X41 +160 X42 +160 X43 +160 X44 +160 X45 +160 X46 +160 X47 +160 X48 +160 X49 +160 X50
  +160 X51 +160 X52 +160 X53 +160 X54 +160 X55 +160 X56 +160 X57 +160 X58 +160 X59 +160 X61 +160 X62 +160 X63
  +160 X64 +160 X65 +160 X66 +160 X67 +160 X68 +160 X69 +160 X70 +160 X71 +160 X72 +160 X73 +160 X74 +160 X75
  +160 X77 +160 X78 +160 X79 +160 X81 +160 X82 +160 X83 +160 X84 +160 X85 +160 X86 +160 X87 +160 X88 +160 X90
  +160 X91 +160 X92 +160 X93 +160 X95 +160 X96 +160 X97 +160 X98 +160 X99 +160 X100 +160 X101 +160 X102
  +160 X103 +160 X104 +160 X105 +160 X106 +160 X107 +160 X108 +160 X109 +160 X110 +160 X111 +160 X113
  +160 X114 +160 X115 +160 X116 +160 X117 +160 X118 +160 X119 +160 X120 +160 X121 +160 X122 +160 X123
  +160 X124 +160 X125 +160 X126 >= -1520
 c132: +1 theta -160 X6 -160 X13 -160 X14 -160 X28 -160 X64 -160 X70 -160 X83 -160 X89 -160 X94 -160 X112
  -160 X127 +160 X0 +160 X1 +160 X2 +160 X3 +160 X4 +160 X5 +160 X7 +160 X8 +160 X9 +160 X10 +160 X11
  +160 X12 +160 X15 +160 X16 +160 X17 +160 X18 +160 X19 +160 X20 +160 X21 +160 X22 +160 X23 +160 X24 +160 X25
  +160 X26 +160 X27 +160 X29 +160 X30 +160 X31 +160 X32 +160 X33 +160 X34 +160 X35 +160 X36 +160 X37 +160 X38
  +160 X39 +160 X40 +160 X41 +160 X42 +160 X43 +160 X44 +160 X45 +160 X46 +160 X47 +160 X48 +160 X49 +160 X50
  +160 X51 +160 X52 +160 X53 +160 X54 +160 X55 +160 X56 +160 X57 +160 X58 +160 X59 +160 X60 +160 X61 +160 X62
  +160 X63 +160 X65 +160 X66 +160 X67 +160 X68 +160 X69 +160 X71 +160 X72 +160 X73 +160 X74 +160 X75 +160 X76
  +160 X77 +160 X78 +160 X79 +160 X80 +160 X81 +160 X82 +160 X84 +160 X85 +160 X86 +160 X87 +160 X88 +160 X90
  +160 X91 +160 X92 +160 X93 +160 X95 +160 X96 +160 X97 +160 X98 +160 X99 +160 X100 +160 X101 +160 X102
  +160 X103 +160 X104 +160 X105 +160 X106 +160 X107 +160 X108 +160 X109 +160 X110 +160 X111 +160 X113
  +160 X114 +160 X115 +160 X116 +160 X117 +160 X118 +160 X119 +160 X120 +160 X121 +160 X122 +160 X123
  +160 X124 +160 X125 +160 X126 >= -1520
 c133: +1 theta -160 X6 -160 X7 -160 X20 -160 X38 -160 X61 -160 X76 -160 X80 -160 X89 -160 X94 -160 X112
  -160 X127 +160 X0 +160 X1 +160 X2 +160 X3 +160 X4 +160 X5 +160 X8 +160 X9 +160 X10 +160 X11 +160 X12
  +160 X13 +160 X14 +160 X15 +160 X16 +160 X17 +160 X18 +160 X19 +160 X21 +160 X22 +160 X23 +160 X24 +160 X25
  +160 X26 +160 X27 +160 X28 +160 X29 +160 X30 +160 X31 +160 X32 +160 X33 +160 X34 +160 X35 +160 X36 +160 X37
  +160 X39 +160 X40 +160 X41 +160 X42 +160 X43 +160 X44 +160 X45 +160 X46 +160 X47 +160 X48 +160 X49 +160 X50
  +160 X51 +160 X52 +160 X53 +160 X54 +160 X55 +160 X56 +160 X57 +160 X58 +160 X59 +160 X60 +160 X62 +160 X63
  +160 X64 +160 X65 +160 X66 +160 X67 +160 X68 +160 X69 +160 X70 +160 X71 +160 X72 +160 X73 +160 X74 +160 X75
  +160 X77 +160 X78 +160 X79 +160 X81 +160 X82 +160 X83 +160 X84 +160 X85 +160 X86 +160 X87 +160 X88 +160 X90
  +160 X91 +160 X92 +160 X93 +160 X95 +160 X96 +160 X97 +160 X98 +160 X99 +160 X100 +160 X101 +160 X102
  +160 X103 +160 X104 +160 X105 +160 X106 +160 X107 +160 X108 +160 X109 +160 X110 +160 X111 +160 X113
  +160 X114 +160 X115 +160 X116 +160 X117 +160 X118 +160 X119 +160 X120 +160 X121 +160 X122 +160 X123
  +160 X124 +160 X125 +160 X126 >= -1520
 c134: +1 theta -160 X6 -160 X12 -160 X15 -160 X46 -160 X55 -160 X76 -160 X80 -160 X89 -160 X94 -160 X112
  -160 X127 +160 X0 +160 X1 +160 X2 +160 X3 +160 X4 +160 X5 +160 X7 +160 X8 +160 X9 +160 X10 +160 X11
  +160 X13 +160 X14 +160 X16 +160 X17 +160 X18 +160 X19 +160 X20 +160 X21 +160 X22 +160 X23 +160 X24 +160 X25
  +160 X26 +160 X27 +160 X28 +160 X29 +160 X30 +160 X31 +160 X32 +160 X33 +160 X34 +160 X35 +160 X36 +160 X37
  +160 X38 +160 X39 +160 X40 +160 X41 +160 X42 +160 X43 +160 X44 +160 X45 +160 X47 +160 X48 +160 X49 +160 X50
  +160 X51 +160 X52 +160 X53 +160 X54 +160 X56 +160 X57 +160 X58 +160 X59 +160 X60 +160 X61 +160 X62 +160 X63
  +160 X64 +160 X65 +160 X66 +160 X67 +160 X68 +160 X69 +160 X70 +160 X71 +160 X72 +160 X73 +160 X74 +160 X75
  +160 X77 +160 X78 +160 X79 +160 X81 +160 X82 +160 X83 +160 X84 +160 X85 +160 X86 +160 X87 +160 X88 +160 X90
  +160 X91 +160 X92 +160 X93 +160 X95 +160 X96 +160 X97 +160 X98 +160 X99 +160 X100 +160 X101 +160 X102
  +160 X103 +160 X104 +160 X105 +160 X106 +160 X107 +160 X108 +160 X109 +160 X110 +160 X111 +160 X113
  +160 X114 +160 X115 +160 X116 +160 X117 +160 X118 +160 X119 +160 X120 +160 X121 +160 X122 +160 X123
  +160 X124 +160 X125 +160 X126 >= -1520
 c135: +1 theta -160 X6 -160 X8 -160 X19 -160 X46 -160 X55 -160 X76 -160 X80 -160 X89 -160 X94 -160 X112
  -160 X127 +160 X0 +160 X1 +160 X2 +160 X3 +160 X4 +160 X5 +160 X7 +160 X9 +160 X10 +160 X11 +160 X12
  +160 X13 +160 X14 +160 X15 +160 X16 +160 X17 +160 X18 +160 X20 +160 X21 +160 X22 +160 X23 +160 X24 +160 X25
  +160 X26 +160 X27 +160 X28 +160 X29 +160 X30 +160 X31 +160 X32 +160 X33 +160 X34 +160 X35 +160 X36 +160 X37
  +160 X38 +160 X39 +160 X40 +160 X41 +160 X42 +160 X43 +160 X44 +160 X45 +160 X47 +160 X48 +160 X49 +160 X50
  +160 X51 +160 X52 +160 X53 +160 X54 +160 X56 +160 X57 +160 X58 +160 X59 +160 X60 +160 X61 +160 X62 +160 X63
  +160 X64 +160 X65 +160 X66 +160 X67 +160 X68 +160 X69 +160 X70 +160 X71 +160 X72 +160 X73 +160 X74 +160 X75
  +160 X77 +160 X78 +160 X79 +160 X81 +160 X82 +160 X83 +160 X84 +160 X85 +160 X86 +160 X87 +160 X88 +160 X90
  +160 X91 +160 X92 +160 X93 +160 X95 +160 X96 +160 X97 +160 X98 +160 X99 +160 X100 +160 X101 +160 X102
  +160 X103 +160 X104 +160 X105 +160 X106 +160 X107 +160 X108 +160 X109 +160 X110 +160 X111 +160 X113
  +160 X114 +160 X115 +160 X116 +160 X117 +160 X118 +160 X119 +160 X120 +160 X121 +160 X122 +160 X123
  +160 X124 +160 X125 +160 X126 >= -1520
 c136: +1 theta -160 X6 -160 X8 -160 X19 -160 X28 -160 X64 -160 X76 -160 X80 -160 X89 -160 X94 -160 X112
  -160 X127 +160 X0 +160 X1 +160 X2 +160 X3 +160 X4 +160 X5 +160 X7 +160 X9 +160 X10 +160 X11 +160 X12
  +160 X13 +160 X14 +160 X15 +160 X16 +160 X17 +160 X18 +160 X20 +160 X21 +160 X22 +160 X23 +160 X24 +160 X25
  +160 X26 +160 X27 +160 X29 +160 X30 +160 X31 +160 X32 +160 X33 +160 X34 +160 X35 +160 X36 +160 X37 +160 X38
  +160 X39 +160 X40 +160 X41 +160 X42 +160 X43 +160 X44 +160 X45 +160 X46 +160 X47 +160 X48 +160 X49 +160 X50
  +160 X51 +160 X52 +160 X53 +160 X54 +160 X55 +160 X56 +160 X57 +160 X58 +160 X59 +160 X60 +160 X61 +160 X62
  +160 X63 +160 X65 +160 X66 +160 X67 +160 X68 +160 X69 +160 X70 +160 X71 +160 X72 +160 X73 +160 X74 +160 X75
  +160 X77 +160 X78 +160 X79 +160 X81 +160 X82 +160 X83 +160 X84 +160 X85 +160 X86 +160 X87 +160 X88 +160 X90
  +160 X91 +160 X92 +160 X93 +160 X95 +160 X96 +160 X97 +160 X98 +160 X99 +160 X100 +160 X101 +160 X102
  +160 X103 +160 X104 +160 X105 +160 X106 +160 X107 +160 X108 +160 X109 +160 X110 +160 X111 +160 X113
  +160 X114 +160 X115 +160 X116 +160 X117 +160 X118 +160 X119 +160 X120 +160 X121 +160 X122 +160 X123
  +160 X124 +160 X125 +160 X126 >= -1520
 c137: +1 theta -160 X6 -160 X13 -160 X14 -160 X44 -160 X57 -160 X70 -160 X83 -160 X89 -160 X94 -160 X112
  -160 X127 +160 X0 +160 X1 +160 X2 +160 X3 +160 X4 +160 X5 +160 X7 +160 X8 +160 X9 +160 X10 +160 X11
  +160 X12 +160 X15 +160 X16 +160 X17 +160 X18 +160 X19 +160 X20 +160 X21 +160 X22 +160 X23 +160 X24 +160 X25
  +160 X26 +160 X27 +160 X28 +160 X29 +160 X30 +160 X31 +160 X32 +160 X33 +160 X34 +160 X35 +160 X36 +160 X37
  +160 X38 +160 X39 +160 X40 +160 X41 +160 X42 +160 X43 +160 X45 +160 X46 +160 X47 +160 X48 +160 X49 +160 X50
  +160 X51 +160 X52 +160 X53 +160 X54 +160 X55 +160 X56 +160 X58 +160 X59 +160 X60 +160 X61 +160 X62 +160 X63
  +160 X64 +160 X65 +160 X66 +160 X67 +160 X68 +160 X69 +160 X71 +160 X72 +160 X73 +160 X74 +160 X75 +160 X76
  +160 X77 +160 X78 +160 X79 +160 X80 +160 X81 +160 X82 +160 X84 +160 X85 +160 X86 +160 X87 +160 X88 +160 X90
  +160 X91 +160 X92 +160 X93 +160 X95 +160 X96 +160 X97 +160 X98 +160 X99 +160 X100 +160 X101 +160 X102
  +160 X103 +160 X104 +160 X105 +160 X106 +160 X107 +160 X108 +160 X109 +160 X110 +160 X111 +160 X113
  +160 X114 +160 X115 +160 X116 +160 X117 +160 X118 +160 X119 +160 X120 +160 X121 +160 X122 +160 X123
  +160 X124 +160 X125 +160 X126 >= -1520
 c138: +1 theta -160 X6 -160 X13 -160 X14 -160 X40 -160 X60 -160 X75 -160 X81 -160 X89 -160 X94 -160 X112
  -160 X127 +160 X0 +160 X1 +160 X2 +160 X3 +160 X4 +160 X5 +160 X7 +160 X8 +160 X9 +160 X10 +160 X11
  +160 X12 +160 X15 +160 X16 +160 X17 +160 X18 +160 X19 +160 X20 +160 X21 +160 X22 +160 X23 +160 X24 +160 X25
  +160 X26 +160 X27 +160 X28 +160 X29 +160 X30 +160 X31 +160 X32 +160 X33 +160 X34 +160 X35 +160 X36 +160 X37
  +160 X38 +160 X39 +160 X41 +160 X42 +160 X43 +160 X44 +160 X45 +160 X46 +160 X47 +160 X48 +160 X49 +160 X50
  +160 X51 +160 X52 +160 X53 +160 X54 +160 X55 +160 X56 +160 X57 +160 X58 +160 X59 +160 X61 +160 X62 +160 X63
  +160 X64 +160 X65 +160 X66 +160 X67 +160 X68 +160 X69 +160 X70 +160 X71 +160 X72 +160 X73 +160 X74 +160 X76
  +160 X77 +160 X78 +160 X79 +160 X80 +160 X82 +160 X83 +160 X84 +160 X85 +160 X86 +160 X87 +160 X88 +160 X90
  +160 X91 +160 X92 +160 X93 +160 X95 +160 X96 +160 X97 +160 X98 +160 X99 +160 X100 +160 X101 +160 X102
  +160 X103 +160 X104 +160 X105 +160 X106 +160 X107 +160 X108 +160 X109 +160 X110 +160 X111 +160 X113
  +160 X114 +160 X115 +160 X116 +160 X117 +160 X118 +160 X119 +160 X120 +160 X121 +160 X122 +160 X123
  +160 X124 +160 X125 +160 X126 >= -1520
 c139: +1 theta -160 X6 -160 X12 -160 X15 -160 X28 -160 X64 -160 X76 -160 X80 -160 X89 -160 X94 -160 X112
  -160 X127 +160 X0 +160 X1 +160 X2 +160 X3 +160 X4 +160 X5 +160 X7 +160 X8 +160 X9 +160 X10 +160 X11
  +160 X13 +160 X14 +160 X16 +160 X17 +160 X18 +160 X19 +160 X20 +160 X21 +160 X22 +160 X23 +160 X24 +160 X25
  +160 X26 +160 X27 +160 X29 +160 X30 +160 X31 +160 X32 +160 X33 +160 X34 +160 X35 +160 X36 +160 X37 +160 X38
  +160 X39 +160 X40 +160 X41 +160 X42 +160 X43 +160 X44 +160 X45 +160 X46 +160 X47 +160 X48 +160 X49 +160 X50
  +160 X51 +160 X52 +160 X53 +160 X54 +160 X55 +160 X56 +160 X57 +160 X58 +160 X59 +160 X60 +160 X61 +160 X62
  +160 X63 +160 X65 +160 X66 +160 X67 +160 X68 +160 X69 +160 X70 +160 X71 +160 X72 +160 X73 +160 X74 +160 X75
  +160 X77 +160 X78 +160 X79 +160 X81 +160 X82 +160 X83 +160 X84 +160 X85 +160 X86 +160 X87 +160 X88 +160 X90
  +160 X91 +160 X92 +160 X93 +160 X95 +160 X96 +160 X97 +160 X98 +160 X99 +160 X100 +160 X101 +160 X102
  +160 X103 +160 X104 +160 X105 +160 X106 +160 X107 +160 X108 +160 X109 +160 X110 +160 X111 +160 X113
  +160 X114 +160 X115 +160 X116 +160 X117 +160 X118 +160 X119 +160 X120 +160 X121 +160 X122 +160 X123
  +160 X124 +160 X125 +160 X126 >= -1520
 c140: +1 theta -160 X6 -160 X12 -160 X15 -160 X44 -160 X57 -160 X76 -160 X80 -160 X89 -160 X94 -160 X112
  -160 X127 +160 X0 +160 X1 +160 X2 +160 X3 +160 X4 +160 X5 +160 X7 +160 X8 +160 X9 +160 X10 +160 X11
  +160 X13 +160 X14 +160 X16 +160 X17 +160 X18 +160 X19 +160 X20 +160 X21 +160 X22 +160 X23 +160 X24 +160 X25
  +160 X26 +160 X27 +160 X28 +160 X29 +160 X30 +160 X31 +160 X32 +160 X33 +160 X34 +160 X35 +160 X36 +160 X37
  +160 X38 +160 X39 +160 X40 +160 X41 +160 X42 +160 X43 +160 X45 +160 X46 +160 X47 +160 X48 +160 X49 +160 X50
  +160 X51 +160 X52 +160 X53 +160 X54 +160 X55 +160 X56 +160 X58 +160 X59 +160 X60 +160 X61 +160 X62 +160 X63
  +160 X64 +160 X65 +160 X66 +160 X67 +160 X68 +160 X69 +160 X70 +160 X71 +160 X72 +160 X73 +160 X74 +160 X75
  +160 X77 +160 X78 +160 X79 +160 X81 +160 X82 +160 X83 +160 X84 +160 X85 +160 X86 +160 X87 +160 X88 +160 X90
  +160 X91 +160 X92 +160 X93 +160 X95 +160 X96 +160 X97 +160 X98 +160 X99 +160 X100 +160 X101 +160 X102
  +160 X103 +160 X104 +160 X105 +160 X106 +160 X107 +160 X108 +160 X109 +160 X110 +160 X111 +160 X113
  +160 X114 +160 X115 +160 X116 +160 X117 +160 X118 +160 X119 +160 X120 +160 X121 +160 X122 +160 X123
  +160 X124 +160 X125 +160 X126 >= -1520
 c141: +1 theta -85 X6 -85 X11 -85 X16 -85 X43 -85 X58 -85 X76 -85 X80 -85 X89 -85 X94 -85 X112 -85 X127
  +85 X0 +85 X1 +85 X2 +85 X3 +85 X4 +85 X5 +85 X7 +85 X8 +85 X9 +85 X10 +85 X12 +85 X13 +85 X14 +85 X15
  +85 X17 +85 X18 +85 X19 +85 X20 +85 X21 +85 X22 +85 X23 +85 X24 +85 X25 +85 X26 +85 X27 +85 X28 +85 X29
  +85 X30 +85 X31 +85 X32 +85 X33 +85 X34 +85 X35 +85 X36 +85 X37 +85 X38 +85 X39 +85 X40 +85 X41 +85 X42
  +85 X44 +85 X45 +85 X46 +85 X47 +85 X48 +85 X49 +85 X50 +85 X51 +85 X52 +85 X53 +85 X54 +85 X55 +85 X56
  +85 X57 +85 X59 +85 X60 +85 X61 +85 X62 +85 X63 +85 X64 +85 X65 +85 X66 +85 X67 +85 X68 +85 X69 +85 X70
  +85 X71 +85 X72 +85 X73 +85 X74 +85 X75 +85 X77 +85 X78 +85 X79 +85 X81 +85 X82 +85 X83 +85 X84 +85 X85
  +85 X86 +85 X87 +85 X88 +85 X90 +85 X91 +85 X92 +85 X93 +85 X95 +85 X96 +85 X97 +85 X98 +85 X99 +85 X100
  +85 X101 +85 X102 +85 X103 +85 X104 +85 X105 +85 X106 +85 X107 +85 X108 +85 X109 +85 X110 +85 X111 +85 X113
  +85 X114 +85 X115 +85 X116 +85 X117 +85 X118 +85 X119 +85 X120 +85 X121 +85 X122 +85 X123 +85 X124 +85 X125
  +85 X126 >= -770
 c142: +1 theta -160 X6 -160 X8 -160 X19 -160 X28 -160 X64 -160 X75 -160 X81 -160 X89 -160 X94 -160 X112
  -160 X127 +160 X0 +160 X1 +160 X2 +160 X3 +160 X4 +160 X5 +160 X7 +160 X9 +160 X10 +160 X11 +160 X12
  +160 X13 +160 X14 +160 X15 +160 X16 +160 X17 +160 X18 +160 X20 +160 X21 +160 X22 +160 X23 +160 X24 +160 X25
  +160 X26 +160 X27 +160 X29 +160 X30 +160 X31 +160 X32 +160 X33 +160 X34 +160 X35 +160 X36 +160 X37 +160 X38
  +160 X39 +160 X40 +160 X41 +160 X42 +160 X43 +160 X44 +160 X45 +160 X46 +160 X47 +160 X48 +160 X49 +160 X50
  +160 X51 +160 X52 +160 X53 +160 X54 +160 X55 +160 X56 +160 X57 +160 X58 +160 X59 +160 X60 +160 X61 +160 X62
  +160 X63 +160 X65 +160 X66 +160 X67 +160 X68 +160 X69 +160 X70 +160 X71 +160 X72 +160 X73 +160 X74 +160 X76
  +160 X77 +160 X78 +160 X79 +160 X80 +160 X82 +160 X83 +160 X84 +160 X85 +160 X86 +160 X87 +160 X88 +160 X90
  +160 X91 +160 X92 +160 X93 +160 X95 +160 X96 +160 X97 +160 X98 +160 X99 +160 X100 +160 X101 +160 X102
  +160 X103 +160 X104 +160 X105 +160 X106 +160 X107 +160 X108 +160 X109 +160 X110 +160 X111 +160 X113
  +160 X114 +160 X115 +160 X116 +160 X117 +160 X118 +160 X119 +160 X120 +160 X121 +160 X122 +160 X123
  +160 X124 +160 X125 +160 X126 >= -1520
 c143: +1 theta -160 X6 -160 X13 -160 X14 -160 X28 -160 X64 -160 X75 -160 X81 -160 X89 -160 X94 -160 X112
  -160 X127 +160 X0 +160 X1 +160 X2 +160 X3 +160 X4 +160 X5 +160 X7 +160 X8 +160 X9 +160 X10 +160 X11
  +160 X12 +160 X15 +160 X16 +160 X17 +160 X18 +160 X19 +160 X20 +160 X21 +160 X22 +160 X23 +160 X24 +160 X25
  +160 X26 +160 X27 +160 X29 +160 X30 +160 X31 +160 X32 +160 X33 +160 X34 +160 X35 +160 X36 +160 X37 +160 X38
  +160 X39 +160 X40 +160 X41 +160 X42 +160 X43 +160 X44 +160 X45 +160 X46 +160 X47 +160 X48 +160 X49 +160 X50
  +160 X51 +160 X52 +160 X53 +160 X54 +160 X55 +160 X56 +160 X57 +160 X58 +160 X59 +160 X60 +160 X61 +160 X62
  +160 X63 +160 X65 +160 X66 +160 X67 +160 X68 +160 X69 +160 X70 +160 X71 +160 X72 +160 X73 +160 X74 +160 X76
  +160 X77 +160 X78 +160 X79 +160 X80 +160 X82 +160 X83 +160 X84 +160 X85 +160 X86 +160 X87 +160 X88 +160 X90
  +160 X91 +160 X92 +160 X93 +160 X95 +160 X96 +160 X97 +160 X98 +160 X99 +160 X100 +160 X101 +160 X102
  +160 X103 +160 X104 +160 X105 +160 X106 +160 X107 +160 X108 +160 X109 +160 X110 +160 X111 +160 X113
  +160 X114 +160 X115 +160 X116 +160 X117 +160 X118 +160 X119 +160 X120 +160 X121 +160 X122 +160 X123
  +160 X124 +160 X125 +160 X126 >= -1520
 c144: +1 theta -160 X6 -160 X8 -160 X19 -160 X28 -160 X64 -160 X74 -160 X82 -160 X89 -160 X94 -160 X112
  -160 X127 +160 X0 +160 X1 +160 X2 +160 X3 +160 X4 +160 X5 +160 X7 +160 X9 +160 X10 +160 X11 +160 X12
  +160 X13 +160 X14 +160 X15 +160 X16 +160 X17 +160 X18 +160 X20 +160 X21 +160 X22 +160 X23 +160 X24 +160 X25
  +160 X26 +160 X27 +160 X29 +160 X30 +160 X31 +160 X32 +160 X33 +160 X34 +160 X35 +160 X36 +160 X37 +160 X38
  +160 X39 +160 X40 +160 X41 +160 X42 +160 X43 +160 X44 +160 X45 +160 X46 +160 X47 +160 X48 +160 X49 +160 X50
  +160 X51 +160 X52 +160 X53 +160 X54 +160 X55 +160 X56 +160 X57 +160 X58 +160 X59 +160 X60 +160 X61 +160 X62
  +160 X63 +160 X65 +160 X66 +160 X67 +160 X68 +160 X69 +160 X70 +160 X71 +160 X72 +160 X73 +160 X75 +160 X76
  +160 X77 +160 X78 +160 X79 +160 X80 +160 X81 +160 X83 +160 X84 +160 X85 +160 X86 +160 X87 +160 X88 +160 X90
  +160 X91 +160 X92 +160 X93 +160 X95 +160 X96 +160 X97 +160 X98 +160 X99 +160 X100 +160 X101 +160 X102
  +160 X103 +160 X104 +160 X105 +160 X106 +160 X107 +160 X108 +160 X109 +160 X110 +160 X111 +160 X113
  +160 X114 +160 X115 +160 X116 +160 X117 +160 X118 +160 X119 +160 X120 +160 X121 +160 X122 +160 X123
  +160 X124 +160 X125 +160 X126 >= -1520
 c145: +1 theta -140 X6 -140 X8 -140 X19 -140 X31 -140 X62 -140 X74 -140 X82 -140 X89 -140 X94 -140 X112
  -140 X127 +140 X0 +140 X1 +140 X2 +140 X3 +140 X4 +140 X5 +140 X7 +140 X9 +140 X10 +140 X11 +140 X12
  +140 X13 +140 X14 +140 X15 +140 X16 +140 X17 +140 X18 +140 X20 +140 X21 +140 X22 +140 X23 +140 X24 +140 X25
  +140 X26 +140 X27 +140 X28 +140 X29 +140 X30 +140 X32 +140 X33 +140 X34 +140 X35 +140 X36 +140 X37 +140 X38
  +140 X39 +140 X40 +140 X41 +140 X42 +140 X43 +140 X44 +140 X45 +140 X46 +140 X47 +140 X48 +140 X49 +140 X50
  +140 X51 +140 X52 +140 X53 +140 X54 +140 X55 +140 X56 +140 X57 +140 X58 +140 X59 +140 X60 +140 X61 +140 X63
  +140 X64 +140 X65 +140 X66 +140 X67 +140 X68 +140 X69 +140 X70 +140 X71 +140 X72 +140 X73 +140 X75 +140 X76
  +140 X77 +140 X78 +140 X79 +140 X80 +140 X81 +140 X83 +140 X84 +140 X85 +140 X86 +140 X87 +140 X88 +140 X90
  +140 X91 +140 X92 +140 X93 +140 X95 +140 X96 +140 X97 +140 X98 +140 X99 +140 X100 +140 X101 +140 X102
  +140 X103 +140 X104 +140 X105 +140 X106 +140 X107 +140 X108 +140 X109 +140 X110 +140 X111 +140 X113
  +140 X114 +140 X115 +140 X116 +140 X117 +140 X118 +140 X119 +140 X120 +140 X121 +140 X122 +140 X123
  +140 X124 +140 X125 +140 X126 >= -1320
Bounds
 0 <= X0 <= 1
 0 <= X1 <= 1
 0 <= X2 <= 1
 0 <= X3 <= 1
 0 <= X4 <= 1
 0 <= X5 <= 1
 0 <= X6 <= 1
 0 <= X7 <= 1
 0 <= X8 <= 1
 0 <= X9 <= 1
 0 <= X10 <= 1
 0 <= X11 <= 1
 0 <= X12 <= 1
 0 <= X13 <= 1
 0 <= X14 <= 1
 0 <= X15 <= 1
 0 <= X16 <= 1
 0 <= X17 <= 1
 0 <= X18 <= 1
 0 <= X19 <= 1
 0 <= X20 <= 1
 0 <= X21 <= 1
 0 <= X22 <= 1
 0 <= X23 <= 1
 0 <= X24 <= 1
 0 <= X25 <= 1
 0 <= X26 <= 1
 0 <= X27 <= 1
 0 <= X28 <= 1
 0 <= X29 <= 1
 0 <= X30 <= 1
 0 <= X31 <= 1
 0 <= X32 <= 1
 0 <= X33 <= 1
 0 <= X34 <= 1
 0 <= X35 <= 1
 0 <= X36 <= 1
 0 <= X37 <= 1
 0 <= X38 <= 1
 0 <= X39 <= 1
 0 <= X40 <= 1
 0 <= X41 <= 1
 0 <= X42 <= 1
 0 <= X43 <= 1
 0 <= X44 <= 1
 0 <= X45 <= 1
 0 <= X46 <= 1
 0 <= X47 <= 1
 0 <= X48 <= 1
 0 <= X49 <= 1
 0 <= X50 <= 1
 0 <= X51 <= 1
 0 <= X52 <= 1
 0 <= X53 <= 1
 0 <= X54 <= 1
 0 <= X55 <= 1
 0 <= X56 <= 1
 0 <= X57 <= 1
 0 <= X58 <= 1
 0 <= X59 <= 1
 0 <= X60 <= 1
 0 <= X61 <= 1
 0 <= X62 <= 1
 0 <= X63 <= 1
 0 <= X64 <= 1
 0 <= X65 <= 1
 0 <= X66 <= 1
 0 <= X67 <= 1
 0 <= X68 <= 1
 0 <= X69 <= 1
 0 <= X70 <= 1
 0 <= X71 <= 1
 0 <= X72 <= 1
 0 <= X73 <= 1
 0 <= X74 <= 1
 0 <= X75 <= 1
 0 <= X76 <= 1
 0 <= X77 <= 1
 0 <= X78 <= 1
 0 <= X79 <= 1
 0 <= X80 <= 1
 0 <= X81 <= 1
 0 <= X82 <= 1
 0 <= X83 <= 1
 0 <= X84 <= 1
 0 <= X85 <= 1
 0 <= X86 <= 1
 0 <= X87 <= 1
 0 <= X88 <= 1
 0 <= X89 <= 1
 0 <= X90 <= 1
 0 <= X91 <= 1
 0 <= X92 <= 1
 0 <= X93 <= 1
 0 <= X94 <= 1
 0 <= X95 <= 1
 0 <= X96 <= 1
 0 <= X97 <= 1
 0 <= X98 <= 1
 0 <= X99 <= 1
 0 <= X100 <= 1
 0 <= X101 <= 1
 0 <= X102 <= 1
 0 <= X103 <= 1
 0 <= X104 <= 1
 0 <= X105 <= 1
 0 <= X106 <= 1
 0 <= X107 <= 1
 0 <= X108 <= 1
 0 <= X109 <= 1
 0 <= X110 <= 1
 0 <= X111 <= 1
 0 <= X112 <= 1
 0 <= X113 <= 1
 0 <= X114 <= 1
 0 <= X115 <= 1
 0 <= X116 <= 1
 0 <= X117 <= 1
 0 <= X118 <= 1
 0 <= X119 <= 1
 0 <= X120 <= 1
 0 <= X121 <= 1
 0 <= X122 <= 1
 0 <= X123 <= 1
 0 <= X124 <= 1
 0 <= X125 <= 1
 0 <= X126 <= 1
 0 <= X127 <= 1
 80 <= theta
Binaries
 X0 X1 X2 X3 X4 X5 X6 X7 X8 X9 X10 X11 X12 X13 X14 X15 X16 X17 X18 X19 X20 X21 X22 X23 X24 X25 X26 X27
 X28 X29 X30 X31 X32 X33 X34 X35 X36 X37 X38 X39 X40 X41 X42 X43 X44 X45 X46 X47 X48 X49 X50 X51 X52 X53
 X54 X55 X56 X57 X58 X59 X60 X61 X62 X63 X64 X65 X66 X67 X68 X69 X70 X71 X72 X73 X74 X75 X76 X77 X78 X79
 X80 X81 X82 X83 X84 X85 X86 X87 X88 X89 X90 X91 X92 X93 X94 X95 X96 X97 X98 X99 X100 X101 X102 X103 X104
 X105 X106 X107 X108 X109 X110 X111 X112 X113 X114 X115 X116 X117 X118 X119 X120 X121 X122 X123 X124 X125
 X126 X127
End
