\ SCIP STATISTICS
\   Problem name     : Sub
\   Variables        : 56 (55 binary, 0 integer, 0 implicit integer, 1 continuous)
\   Constraints      : 101
Minimize
 Obj: +1 Cmax
Subject to
 c1: +1 Y6,0 +1 Y6,1 +1 Y6,2 +1 Y6,3 +1 Y6,4 = +1
 c2: +1 Y8,0 +1 Y8,1 +1 Y8,2 +1 Y8,3 +1 Y8,4 = +1
 c3: +1 Y19,0 +1 Y19,1 +1 Y19,2 +1 Y19,3 +1 Y19,4 = +1
 c4: +1 Y38,0 +1 Y38,1 +1 Y38,2 +1 Y38,3 +1 Y38,4 = +1
 c5: +1 Y61,0 +1 Y61,1 +1 Y61,2 +1 Y61,3 +1 Y61,4 = +1
 c6: +1 Y66,0 +1 Y66,1 +1 Y66,2 +1 Y66,3 +1 Y66,4 = +1
 c7: +1 Y84,0 +1 Y84,1 +1 Y84,2 +1 Y84,3 +1 Y84,4 = +1
 c8: +1 Y90,0 +1 Y90,1 +1 Y90,2 +1 Y90,3 +1 Y90,4 = +1
 c9: +1 Y93,0 +1 Y93,1 +1 Y93,2 +1 Y93,3 +1 Y93,4 = +1
 c10: +1 Y112,0 +1 Y112,1 +1 Y112,2 +1 Y112,3 +1 Y112,4 = +1
 c11: +1 Y127,0 +1 Y127,1 +1 Y127,2 +1 Y127,3 +1 Y127,4 = +1
 c12: +1 Y6,1 = +0
 c13: +1 Y6,2 = +0
 c14: +1 Y8,1 = +0
 c15: +1 Y8,3 = +0
 c16: +1 Y8,4 = +0
 c17: +1 Y19,1 = +0
 c18: +1 Y19,3 = +0
 c19: +1 Y19,4 = +0
 c20: +1 Y38,0 = +0
 c21: +1 Y38,3 = +0
 c22: +1 Y61,0 = +0
 c23: +1 Y61,3 = +0
 c24: +1 Y66,0 = +0
 c25: +1 Y66,2 = +0
 c26: +1 Y66,4 = +0
 c27: +1 Y84,0 = +0
 c28: +1 Y84,2 = +0
 c29: +1 Y84,4 = +0
 c30: +1 Y90,0 = +0
 c31: +1 Y90,1 = +0
 c32: +1 Y90,4 = +0
 c33: +1 Y93,0 = +0
 c34: +1 Y93,1 = +0
 c35: +1 Y93,4 = +0
 c36: +1 Y112,0 = +0
 c37: +1 Y112,2 = +0
 c38: +1 Y112,3 = +0
 c39: +1 Y127,1 = +0
 c40: +1 Y127,2 = +0
 c41: +1 Y127,3 = +0
 c42: +1 Cmax -70 Y6,0 -60 Y8,0 -60 Y19,0 -80 Y38,0 -80 Y61,0 -65 Y66,0 -65 Y84,0 -50 Y90,0 -50 Y93,0
  -45 Y112,0 -45 Y127,0 >= +0
 c43: +1 Cmax -70 Y6,1 -60 Y8,1 -60 Y19,1 -80 Y38,1 -80 Y61,1 -65 Y66,1 -65 Y84,1 -50 Y90,1 -50 Y93,1
  -45 Y112,1 -45 Y127,1 >= +0
 c44: +1 Cmax -70 Y6,2 -60 Y8,2 -60 Y19,2 -80 Y38,2 -80 Y61,2 -65 Y66,2 -65 Y84,2 -50 Y90,2 -50 Y93,2
  -45 Y112,2 -45 Y127,2 >= +0
 c45: +1 Cmax -70 Y6,3 -60 Y8,3 -60 Y19,3 -80 Y38,3 -80 Y61,3 -65 Y66,3 -65 Y84,3 -50 Y90,3 -50 Y93,3
  -45 Y112,3 -45 Y127,3 >= +0
 c46: +1 Cmax -70 Y6,4 -60 Y8,4 -60 Y19,4 -80 Y38,4 -80 Y61,4 -65 Y66,4 -65 Y84,4 -50 Y90,4 -50 Y93,4
  -45 Y112,4 -45 Y127,4 >= +0
 c47: +56.3 Y6,0 <= +40
 c48: +56.3 Y6,1 <= +30
 c49: +56.3 Y6,2 <= +50
 c50: +56.3 Y6,3 <= +40
 c51: +56.3 Y6,4 <= +60
 c52: +11.1 Y8,0 <= +40
 c53: +11.1 Y8,1 <= +30
 c54: +11.1 Y8,2 <= +50
 c55: +11.1 Y8,3 <= +40
 c56: +11.1 Y8,4 <= +60
 c57: +41.3 Y19,0 <= +40
 c58: +41.3 Y19,1 <= +30
 c59: +41.3 Y19,2 <= +50
 c60: +41.3 Y19,3 <= +40
 c61: +41.3 Y19,4 <= +60
 c62: +38.6 Y38,0 <= +40
 c63: +38.6 Y38,1 <= +30
 c64: +38.6 Y38,2 <= +50
 c65: +38.6 Y38,3 <= +40
 c66: +38.6 Y38,4 <= +60
 c67: +57.3 Y61,0 <= +40
 c68: +57.3 Y61,1 <= +30
 c69: +57.3 Y61,2 <= +50
 c70: +57.3 Y61,3 <= +40
 c71: +57.3 Y61,4 <= +60
 c72: +27.5 Y66,0 <= +40
 c73: +27.5 Y66,1 <= +30
 c74: +27.5 Y66,2 <= +50
 c75: +27.5 Y66,3 <= +40
 c76: +27.5 Y66,4 <= +60
 c77: +30.6 Y84,0 <= +40
 c78: +30.6 Y84,1 <= +30
 c79: +30.6 Y84,2 <= +50
 c80: +30.6 Y84,3 <= +40
 c81: +30.6 Y84,4 <= +60
 c82: +20.8 Y90,0 <= +40
 c83: +20.8 Y90,1 <= +30
 c84: +20.8 Y90,2 <= +50
 c85: +20.8 Y90,3 <= +40
 c86: +20.8 Y90,4 <= +60
 c87: +40.8 Y93,0 <= +40
 c88: +40.8 Y93,1 <= +30
 c89: +40.8 Y93,2 <= +50
 c90: +40.8 Y93,3 <= +40
 c91: +40.8 Y93,4 <= +60
 c92: +41 Y112,0 <= +40
 c93: +41 Y112,1 <= +30
 c94: +41 Y112,2 <= +50
 c95: +41 Y112,3 <= +40
 c96: +41 Y112,4 <= +60
 c97: +49.9 Y127,0 <= +40
 c98: +49.9 Y127,1 <= +30
 c99: +49.9 Y127,2 <= +50
 c100: +49.9 Y127,3 <= +40
 c101: +49.9 Y127,4 <= +60
Bounds
 0 <= Y6,0 <= 1
 0 <= Y6,1 <= 1
 0 <= Y6,2 <= 1
 0 <= Y6,3 <= 1
 0 <= Y6,4 <= 1
 0 <= Y8,0 <= 1
 0 <= Y8,1 <= 1
 0 <= Y8,2 <= 1
 0 <= Y8,3 <= 1
 0 <= Y8,4 <= 1
 0 <= Y19,0 <= 1
 0 <= Y19,1 <= 1
 0 <= Y19,2 <= 1
 0 <= Y19,3 <= 1
 0 <= Y19,4 <= 1
 0 <= Y38,0 <= 1
 0 <= Y38,1 <= 1
 0 <= Y38,2 <= 1
 0 <= Y38,3 <= 1
 0 <= Y38,4 <= 1
 0 <= Y61,0 <= 1
 0 <= Y61,1 <= 1
 0 <= Y61,2 <= 1
 0 <= Y61,3 <= 1
 0 <= Y61,4 <= 1
 0 <= Y66,0 <= 1
 0 <= Y66,1 <= 1
 0 <= Y66,2 <= 1
 0 <= Y66,3 <= 1
 0 <= Y66,4 <= 1
 0 <= Y84,0 <= 1
 0 <= Y84,1 <= 1
 0 <= Y84,2 <= 1
 0 <= Y84,3 <= 1
 0 <= Y84,4 <= 1
 0 <= Y90,0 <= 1
 0 <= Y90,1 <= 1
 0 <= Y90,2 <= 1
 0 <= Y90,3 <= 1
 0 <= Y90,4 <= 1
 0 <= Y93,0 <= 1
 0 <= Y93,1 <= 1
 0 <= Y93,2 <= 1
 0 <= Y93,3 <= 1
 0 <= Y93,4 <= 1
 0 <= Y112,0 <= 1
 0 <= Y112,1 <= 1
 0 <= Y112,2 <= 1
 0 <= Y112,3 <= 1
 0 <= Y112,4 <= 1
 0 <= Y127,0 <= 1
 0 <= Y127,1 <= 1
 0 <= Y127,2 <= 1
 0 <= Y127,3 <= 1
 0 <= Y127,4 <= 1
 45 <= Cmax
Binaries
 Y6,0 Y6,1 Y6,2 Y6,3 Y6,4 Y8,0 Y8,1 Y8,2 Y8,3 Y8,4 Y19,0 Y19,1 Y19,2 Y19,3 Y19,4 Y38,0 Y38,1 Y38,2 Y38,3
 Y38,4 Y61,0 Y61,1 Y61,2 Y61,3 Y61,4 Y66,0 Y66,1 Y66,2 Y66,3 Y66,4 Y84,0 Y84,1 Y84,2 Y84,3 Y84,4 Y90,0
 Y90,1 Y90,2 Y90,3 Y90,4 Y93,0 Y93,1 Y93,2 Y93,3 Y93,4 Y112,0 Y112,1 Y112,2 Y112,3 Y112,4 Y127,0 Y127,1
 Y127,2 Y127,3 Y127,4
End
