\ SCIP STATISTICS
\   Problem name     : Sub
\   Variables        : 56 (55 binary, 0 integer, 0 implicit integer, 1 continuous)
\   Constraints      : 101
Minimize
 Obj: +1 Cmax
Subject to
 c1: +1 Y6,0 +1 Y6,1 +1 Y6,2 +1 Y6,3 +1 Y6,4 = +1
 c2: +1 Y8,0 +1 Y8,1 +1 Y8,2 +1 Y8,3 +1 Y8,4 = +1
 c3: +1 Y19,0 +1 Y19,1 +1 Y19,2 +1 Y19,3 +1 Y19,4 = +1
 c4: +1 Y38,0 +1 Y38,1 +1 Y38,2 +1 Y38,3 +1 Y38,4 = +1
 c5: +1 Y61,0 +1 Y61,1 +1 Y61,2 +1 Y61,3 +1 Y61,4 = +1
 c6: +1 Y75,0 +1 Y75,1 +1 Y75,2 +1 Y75,3 +1 Y75,4 = +1
 c7: +1 Y81,0 +1 Y81,1 +1 Y81,2 +1 Y81,3 +1 Y81,4 = +1
 c8: +1 Y91,0 +1 Y91,1 +1 Y91,2 +1 Y91,3 +1 Y91,4 = +1
 c9: +1 Y92,0 +1 Y92,1 +1 Y92,2 +1 Y92,3 +1 Y92,4 = +1
 c10: +1 Y112,0 +1 Y112,1 +1 Y112,2 +1 Y112,3 +1 Y112,4 = +1
 c11: +1 Y127,0 +1 Y127,1 +1 Y127,2 +1 Y127,3 +1 Y127,4 = +1
 c12: +1 Y6,1 = +0
 c13: +1 Y6,2 = +0
 c14: +1 Y8,1 = +0
 c15: +1 Y8,3 = +0
 c16: +1 Y8,4 = +0
 c17: +1 Y19,1 = +0
 c18: +1 Y19,3 = +0
 c19: +1 Y19,4 = +0
 c20: +1 Y38,0 = +0
 c21: +1 Y38,3 = +0
 c22: +1 Y61,0 = +0
 c23: +1 Y61,3 = +0
 c24: +1 Y75,0 = +0
 c25: +1 Y75,2 = +0
 c26: +1 Y75,4 = +0
 c27: +1 Y81,0 = +0
 c28: +1 Y81,2 = +0
 c29: +1 Y81,4 = +0
 c30: +1 Y91,0 = +0
 c31: +1 Y91,1 = +0
 c32: +1 Y91,4 = +0
 c33: +1 Y92,0 = +0
 c34: +1 Y92,1 = +0
 c35: +1 Y92,4 = +0
 c36: +1 Y112,0 = +0
 c37: +1 Y112,2 = +0
 c38: +1 Y112,3 = +0
 c39: +1 Y127,1 = +0
 c40: +1 Y127,2 = +0
 c41: +1 Y127,3 = +0
 c42: +1 Cmax -70 Y6,0 -60 Y8,0 -60 Y19,0 -80 Y38,0 -80 Y61,0 -65 Y75,0 -65 Y81,0 -50 Y91,0 -50 Y92,0
  -45 Y112,0 -45 Y127,0 >= +0
 c43: +1 Cmax -70 Y6,1 -60 Y8,1 -60 Y19,1 -80 Y38,1 -80 Y61,1 -65 Y75,1 -65 Y81,1 -50 Y91,1 -50 Y92,1
  -45 Y112,1 -45 Y127,1 >= +0
 c44: +1 Cmax -70 Y6,2 -60 Y8,2 -60 Y19,2 -80 Y38,2 -80 Y61,2 -65 Y75,2 -65 Y81,2 -50 Y91,2 -50 Y92,2
  -45 Y112,2 -45 Y127,2 >= +0
 c45: +1 Cmax -70 Y6,3 -60 Y8,3 -60 Y19,3 -80 Y38,3 -80 Y61,3 -65 Y75,3 -65 Y81,3 -50 Y91,3 -50 Y92,3
  -45 Y112,3 -45 Y127,3 >= +0
 c46: +1 Cmax -70 Y6,4 -60 Y8,4 -60 Y19,4 -80 Y38,4 -80 Y61,4 -65 Y75,4 -65 Y81,4 -50 Y91,4 -50 Y92,4
  -45 Y112,4 -45 Y127,4 >= +0
 c47: +56.3 Y6,0 <= +40
 c48: +56.3 Y6,1 <= +30
 c49: +56.3 Y6,2 <= +50
 c50: +56.3 Y6,3 <= +40
 c51: +56.3 Y6,4 <= +60
 c52: +11.1 Y8,0 <= +40
 c53: +11.1 Y8,1 <= +30
 c54: +11.1 Y8,2 <= +50
 c55: +11.1 Y8,3 <= +40
 c56: +11.1 Y8,4 <= +60
 c57: +41.3 Y19,0 <= +40
 c58: +41.3 Y19,1 <= +30
 c59: +41.3 Y19,2 <= +50
 c60: +41.3 Y19,3 <= +40
 c61: +41.3 Y19,4 <= +60
 c62: +38.6 Y38,0 <= +40
 c63: +38.6 Y38,1 <= +30
 c64: +38.6 Y38,2 <= +50
 c65: +38.6 Y38,3 <= +40
 c66: +38.6 Y38,4 <= +60
 c67: +57.3 Y61,0 <= +40
 c68: +57.3 Y61,1 <= +30
 c69: +57.3 Y61,2 <= +50
 c70: +57.3 Y61,3 <= +40
 c71: +57.3 Y61,4 <= +60
 c72: +37.9 Y75,0 <= +40
 c73: +37.9 Y75,1 <= +30
 c74: +37.9 Y75,2 <= +50
 c75: +37.9 Y75,3 <= +40
 c76: +37.9 Y75,4 <= +60
 c77: +20.2 Y81,0 <= +40
 c78: +20.2 Y81,1 <= +30
 c79: +20.2 Y81,2 <= +50
 c80: +20.2 Y81,3 <= +40
 c81: +20.2 Y81,4 <= +60
 c82: +32.4 Y91,0 <= +40
 c83: +32.4 Y91,1 <= +30
 c84: +32.4 Y91,2 <= +50
 c85: +32.4 Y91,3 <= +40
 c86: +32.4 Y91,4 <= +60
 c87: +29.2 Y92,0 <= +40
 c88: +29.2 Y92,1 <= +30
 c89: +29.2 Y92,2 <= +50
 c90: +29.2 Y92,3 <= +40
 c91: +29.2 Y92,4 <= +60
 c92: +41 Y112,0 <= +40
 c93: +41 Y112,1 <= +30
 c94: +41 Y112,2 <= +50
 c95: +41 Y112,3 <= +40
 c96: +41 Y112,4 <= +60
 c97: +49.9 Y127,0 <= +40
 c98: +49.9 Y127,1 <= +30
 c99: +49.9 Y127,2 <= +50
 c100: +49.9 Y127,3 <= +40
 c101: +49.9 Y127,4 <= +60
Bounds
 0 <= Y6,0 <= 1
 0 <= Y6,1 <= 1
 0 <= Y6,2 <= 1
 0 <= Y6,3 <= 1
 0 <= Y6,4 <= 1
 0 <= Y8,0 <= 1
 0 <= Y8,1 <= 1
 0 <= Y8,2 <= 1
 0 <= Y8,3 <= 1
 0 <= Y8,4 <= 1
 0 <= Y19,0 <= 1
 0 <= Y19,1 <= 1
 0 <= Y19,2 <= 1
 0 <= Y19,3 <= 1
 0 <= Y19,4 <= 1
 0 <= Y38,0 <= 1
 0 <= Y38,1 <= 1
 0 <= Y38,2 <= 1
 0 <= Y38,3 <= 1
 0 <= Y38,4 <= 1
 0 <= Y61,0 <= 1
 0 <= Y61,1 <= 1
 0 <= Y61,2 <= 1
 0 <= Y61,3 <= 1
 0 <= Y61,4 <= 1
 0 <= Y75,0 <= 1
 0 <= Y75,1 <= 1
 0 <= Y75,2 <= 1
 0 <= Y75,3 <= 1
 0 <= Y75,4 <= 1
 0 <= Y81,0 <= 1
 0 <= Y81,1 <= 1
 0 <= Y81,2 <= 1
 0 <= Y81,3 <= 1
 0 <= Y81,4 <= 1
 0 <= Y91,0 <= 1
 0 <= Y91,1 <= 1
 0 <= Y91,2 <= 1
 0 <= Y91,3 <= 1
 0 <= Y91,4 <= 1
 0 <= Y92,0 <= 1
 0 <= Y92,1 <= 1
 0 <= Y92,2 <= 1
 0 <= Y92,3 <= 1
 0 <= Y92,4 <= 1
 0 <= Y112,0 <= 1
 0 <= Y112,1 <= 1
 0 <= Y112,2 <= 1
 0 <= Y112,3 <= 1
 0 <= Y112,4 <= 1
 0 <= Y127,0 <= 1
 0 <= Y127,1 <= 1
 0 <= Y127,2 <= 1
 0 <= Y127,3 <= 1
 0 <= Y127,4 <= 1
 45 <= Cmax
Binaries
 Y6,0 Y6,1 Y6,2 Y6,3 Y6,4 Y8,0 Y8,1 Y8,2 Y8,3 Y8,4 Y19,0 Y19,1 Y19,2 Y19,3 Y19,4 Y38,0 Y38,1 Y38,2 Y38,3
 Y38,4 Y61,0 Y61,1 Y61,2 Y61,3 Y61,4 Y75,0 Y75,1 Y75,2 Y75,3 Y75,4 Y81,0 Y81,1 Y81,2 Y81,3 Y81,4 Y91,0
 Y91,1 Y91,2 Y91,3 Y91,4 Y92,0 Y92,1 Y92,2 Y92,3 Y92,4 Y112,0 Y112,1 Y112,2 Y112,3 Y112,4 Y127,0 Y127,1
 Y127,2 Y127,3 Y127,4
End
