\ SCIP STATISTICS
\   Problem name     : Sub
\   Variables        : 56 (55 binary, 0 integer, 0 implicit integer, 1 continuous)
\   Constraints      : 101
Minimize
 Obj: +1 Cmax
Subject to
 c1: +1 Y6,0 +1 Y6,1 +1 Y6,2 +1 Y6,3 +1 Y6,4 = +1
 c2: +1 Y9,0 +1 Y9,1 +1 Y9,2 +1 Y9,3 +1 Y9,4 = +1
 c3: +1 Y18,0 +1 Y18,1 +1 Y18,2 +1 Y18,3 +1 Y18,4 = +1
 c4: +1 Y40,0 +1 Y40,1 +1 Y40,2 +1 Y40,3 +1 Y40,4 = +1
 c5: +1 Y60,0 +1 Y60,1 +1 Y60,2 +1 Y60,3 +1 Y60,4 = +1
 c6: +1 Y76,0 +1 Y76,1 +1 Y76,2 +1 Y76,3 +1 Y76,4 = +1
 c7: +1 Y80,0 +1 Y80,1 +1 Y80,2 +1 Y80,3 +1 Y80,4 = +1
 c8: +1 Y88,0 +1 Y88,1 +1 Y88,2 +1 Y88,3 +1 Y88,4 = +1
 c9: +1 Y95,0 +1 Y95,1 +1 Y95,2 +1 Y95,3 +1 Y95,4 = +1
 c10: +1 Y112,0 +1 Y112,1 +1 Y112,2 +1 Y112,3 +1 Y112,4 = +1
 c11: +1 Y127,0 +1 Y127,1 +1 Y127,2 +1 Y127,3 +1 Y127,4 = +1
 c12: +1 Y6,1 = +0
 c13: +1 Y6,2 = +0
 c14: +1 Y9,1 = +0
 c15: +1 Y9,3 = +0
 c16: +1 Y9,4 = +0
 c17: +1 Y18,1 = +0
 c18: +1 Y18,3 = +0
 c19: +1 Y18,4 = +0
 c20: +1 Y40,0 = +0
 c21: +1 Y40,3 = +0
 c22: +1 Y60,0 = +0
 c23: +1 Y60,3 = +0
 c24: +1 Y76,0 = +0
 c25: +1 Y76,2 = +0
 c26: +1 Y76,4 = +0
 c27: +1 Y80,0 = +0
 c28: +1 Y80,2 = +0
 c29: +1 Y80,4 = +0
 c30: +1 Y88,0 = +0
 c31: +1 Y88,1 = +0
 c32: +1 Y88,4 = +0
 c33: +1 Y95,0 = +0
 c34: +1 Y95,1 = +0
 c35: +1 Y95,4 = +0
 c36: +1 Y112,0 = +0
 c37: +1 Y112,2 = +0
 c38: +1 Y112,3 = +0
 c39: +1 Y127,1 = +0
 c40: +1 Y127,2 = +0
 c41: +1 Y127,3 = +0
 c42: +1 Cmax -70 Y6,0 -60 Y9,0 -60 Y18,0 -80 Y40,0 -80 Y60,0 -65 Y76,0 -65 Y80,0 -50 Y88,0 -50 Y95,0
  -45 Y112,0 -45 Y127,0 >= +0
 c43: +1 Cmax -70 Y6,1 -60 Y9,1 -60 Y18,1 -80 Y40,1 -80 Y60,1 -65 Y76,1 -65 Y80,1 -50 Y88,1 -50 Y95,1
  -45 Y112,1 -45 Y127,1 >= +0
 c44: +1 Cmax -70 Y6,2 -60 Y9,2 -60 Y18,2 -80 Y40,2 -80 Y60,2 -65 Y76,2 -65 Y80,2 -50 Y88,2 -50 Y95,2
  -45 Y112,2 -45 Y127,2 >= +0
 c45: +1 Cmax -70 Y6,3 -60 Y9,3 -60 Y18,3 -80 Y40,3 -80 Y60,3 -65 Y76,3 -65 Y80,3 -50 Y88,3 -50 Y95,3
  -45 Y112,3 -45 Y127,3 >= +0
 c46: +1 Cmax -70 Y6,4 -60 Y9,4 -60 Y18,4 -80 Y40,4 -80 Y60,4 -65 Y76,4 -65 Y80,4 -50 Y88,4 -50 Y95,4
  -45 Y112,4 -45 Y127,4 >= +0
 c47: +56.3 Y6,0 <= +40
 c48: +56.3 Y6,1 <= +30
 c49: +56.3 Y6,2 <= +50
 c50: +56.3 Y6,3 <= +40
 c51: +56.3 Y6,4 <= +60
 c52: +20.8 Y9,0 <= +40
 c53: +20.8 Y9,1 <= +30
 c54: +20.8 Y9,2 <= +50
 c55: +20.8 Y9,3 <= +40
 c56: +20.8 Y9,4 <= +60
 c57: +31.6 Y18,0 <= +40
 c58: +31.6 Y18,1 <= +30
 c59: +31.6 Y18,2 <= +50
 c60: +31.6 Y18,3 <= +40
 c61: +31.6 Y18,4 <= +60
 c62: +37.5 Y40,0 <= +40
 c63: +37.5 Y40,1 <= +30
 c64: +37.5 Y40,2 <= +50
 c65: +37.5 Y40,3 <= +40
 c66: +37.5 Y40,4 <= +60
 c67: +58.4 Y60,0 <= +40
 c68: +58.4 Y60,1 <= +30
 c69: +58.4 Y60,2 <= +50
 c70: +58.4 Y60,3 <= +40
 c71: +58.4 Y60,4 <= +60
 c72: +34.4 Y76,0 <= +40
 c73: +34.4 Y76,1 <= +30
 c74: +34.4 Y76,2 <= +50
 c75: +34.4 Y76,3 <= +40
 c76: +34.4 Y76,4 <= +60
 c77: +23.7 Y80,0 <= +40
 c78: +23.7 Y80,1 <= +30
 c79: +23.7 Y80,2 <= +50
 c80: +23.7 Y80,3 <= +40
 c81: +23.7 Y80,4 <= +60
 c82: +19.5 Y88,0 <= +40
 c83: +19.5 Y88,1 <= +30
 c84: +19.5 Y88,2 <= +50
 c85: +19.5 Y88,3 <= +40
 c86: +19.5 Y88,4 <= +60
 c87: +42.1 Y95,0 <= +40
 c88: +42.1 Y95,1 <= +30
 c89: +42.1 Y95,2 <= +50
 c90: +42.1 Y95,3 <= +40
 c91: +42.1 Y95,4 <= +60
 c92: +41 Y112,0 <= +40
 c93: +41 Y112,1 <= +30
 c94: +41 Y112,2 <= +50
 c95: +41 Y112,3 <= +40
 c96: +41 Y112,4 <= +60
 c97: +49.9 Y127,0 <= +40
 c98: +49.9 Y127,1 <= +30
 c99: +49.9 Y127,2 <= +50
 c100: +49.9 Y127,3 <= +40
 c101: +49.9 Y127,4 <= +60
Bounds
 0 <= Y6,0 <= 1
 0 <= Y6,1 <= 1
 0 <= Y6,2 <= 1
 0 <= Y6,3 <= 1
 0 <= Y6,4 <= 1
 0 <= Y9,0 <= 1
 0 <= Y9,1 <= 1
 0 <= Y9,2 <= 1
 0 <= Y9,3 <= 1
 0 <= Y9,4 <= 1
 0 <= Y18,0 <= 1
 0 <= Y18,1 <= 1
 0 <= Y18,2 <= 1
 0 <= Y18,3 <= 1
 0 <= Y18,4 <= 1
 0 <= Y40,0 <= 1
 0 <= Y40,1 <= 1
 0 <= Y40,2 <= 1
 0 <= Y40,3 <= 1
 0 <= Y40,4 <= 1
 0 <= Y60,0 <= 1
 0 <= Y60,1 <= 1
 0 <= Y60,2 <= 1
 0 <= Y60,3 <= 1
 0 <= Y60,4 <= 1
 0 <= Y76,0 <= 1
 0 <= Y76,1 <= 1
 0 <= Y76,2 <= 1
 0 <= Y76,3 <= 1
 0 <= Y76,4 <= 1
 0 <= Y80,0 <= 1
 0 <= Y80,1 <= 1
 0 <= Y80,2 <= 1
 0 <= Y80,3 <= 1
 0 <= Y80,4 <= 1
 0 <= Y88,0 <= 1
 0 <= Y88,1 <= 1
 0 <= Y88,2 <= 1
 0 <= Y88,3 <= 1
 0 <= Y88,4 <= 1
 0 <= Y95,0 <= 1
 0 <= Y95,1 <= 1
 0 <= Y95,2 <= 1
 0 <= Y95,3 <= 1
 0 <= Y95,4 <= 1
 0 <= Y112,0 <= 1
 0 <= Y112,1 <= 1
 0 <= Y112,2 <= 1
 0 <= Y112,3 <= 1
 0 <= Y112,4 <= 1
 0 <= Y127,0 <= 1
 0 <= Y127,1 <= 1
 0 <= Y127,2 <= 1
 0 <= Y127,3 <= 1
 0 <= Y127,4 <= 1
 45 <= Cmax
Binaries
 Y6,0 Y6,1 Y6,2 Y6,3 Y6,4 Y9,0 Y9,1 Y9,2 Y9,3 Y9,4 Y18,0 Y18,1 Y18,2 Y18,3 Y18,4 Y40,0 Y40,1 Y40,2 Y40,3
 Y40,4 Y60,0 Y60,1 Y60,2 Y60,3 Y60,4 Y76,0 Y76,1 Y76,2 Y76,3 Y76,4 Y80,0 Y80,1 Y80,2 Y80,3 Y80,4 Y88,0
 Y88,1 Y88,2 Y88,3 Y88,4 Y95,0 Y95,1 Y95,2 Y95,3 Y95,4 Y112,0 Y112,1 Y112,2 Y112,3 Y112,4 Y127,0 Y127,1
 Y127,2 Y127,3 Y127,4
End
