\ SCIP STATISTICS
\   Problem name     : Sub
\   Variables        : 56 (55 binary, 0 integer, 0 implicit integer, 1 continuous)
\   Constraints      : 101
Minimize
 Obj: +1 Cmax
Subject to
 c1: +1 Y6,0 +1 Y6,1 +1 Y6,2 +1 Y6,3 +1 Y6,4 = +1
 c2: +1 Y9,0 +1 Y9,1 +1 Y9,2 +1 Y9,3 +1 Y9,4 = +1
 c3: +1 Y18,0 +1 Y18,1 +1 Y18,2 +1 Y18,3 +1 Y18,4 = +1
 c4: +1 Y46,0 +1 Y46,1 +1 Y46,2 +1 Y46,3 +1 Y46,4 = +1
 c5: +1 Y55,0 +1 Y55,1 +1 Y55,2 +1 Y55,3 +1 Y55,4 = +1
 c6: +1 Y70,0 +1 Y70,1 +1 Y70,2 +1 Y70,3 +1 Y70,4 = +1
 c7: +1 Y83,0 +1 Y83,1 +1 Y83,2 +1 Y83,3 +1 Y83,4 = +1
 c8: +1 Y89,0 +1 Y89,1 +1 Y89,2 +1 Y89,3 +1 Y89,4 = +1
 c9: +1 Y94,0 +1 Y94,1 +1 Y94,2 +1 Y94,3 +1 Y94,4 = +1
 c10: +1 Y112,0 +1 Y112,1 +1 Y112,2 +1 Y112,3 +1 Y112,4 = +1
 c11: +1 Y127,0 +1 Y127,1 +1 Y127,2 +1 Y127,3 +1 Y127,4 = +1
 c12: +1 Y6,1 = +0
 c13: +1 Y6,2 = +0
 c14: +1 Y9,1 = +0
 c15: +1 Y9,3 = +0
 c16: +1 Y9,4 = +0
 c17: +1 Y18,1 = +0
 c18: +1 Y18,3 = +0
 c19: +1 Y18,4 = +0
 c20: +1 Y46,0 = +0
 c21: +1 Y46,3 = +0
 c22: +1 Y55,0 = +0
 c23: +1 Y55,3 = +0
 c24: +1 Y70,0 = +0
 c25: +1 Y70,2 = +0
 c26: +1 Y70,4 = +0
 c27: +1 Y83,0 = +0
 c28: +1 Y83,2 = +0
 c29: +1 Y83,4 = +0
 c30: +1 Y89,0 = +0
 c31: +1 Y89,1 = +0
 c32: +1 Y89,4 = +0
 c33: +1 Y94,0 = +0
 c34: +1 Y94,1 = +0
 c35: +1 Y94,4 = +0
 c36: +1 Y112,0 = +0
 c37: +1 Y112,2 = +0
 c38: +1 Y112,3 = +0
 c39: +1 Y127,1 = +0
 c40: +1 Y127,2 = +0
 c41: +1 Y127,3 = +0
 c42: +1 Cmax -70 Y6,0 -60 Y9,0 -60 Y18,0 -80 Y46,0 -80 Y55,0 -65 Y70,0 -65 Y83,0 -50 Y89,0 -50 Y94,0
  -45 Y112,0 -45 Y127,0 >= +0
 c43: +1 Cmax -70 Y6,1 -60 Y9,1 -60 Y18,1 -80 Y46,1 -80 Y55,1 -65 Y70,1 -65 Y83,1 -50 Y89,1 -50 Y94,1
  -45 Y112,1 -45 Y127,1 >= +0
 c44: +1 Cmax -70 Y6,2 -60 Y9,2 -60 Y18,2 -80 Y46,2 -80 Y55,2 -65 Y70,2 -65 Y83,2 -50 Y89,2 -50 Y94,2
  -45 Y112,2 -45 Y127,2 >= +0
 c45: +1 Cmax -70 Y6,3 -60 Y9,3 -60 Y18,3 -80 Y46,3 -80 Y55,3 -65 Y70,3 -65 Y83,3 -50 Y89,3 -50 Y94,3
  -45 Y112,3 -45 Y127,3 >= +0
 c46: +1 Cmax -70 Y6,4 -60 Y9,4 -60 Y18,4 -80 Y46,4 -80 Y55,4 -65 Y70,4 -65 Y83,4 -50 Y89,4 -50 Y94,4
  -45 Y112,4 -45 Y127,4 >= +0
 c47: +56.3 Y6,0 <= +40
 c48: +56.3 Y6,1 <= +30
 c49: +56.3 Y6,2 <= +50
 c50: +56.3 Y6,3 <= +40
 c51: +56.3 Y6,4 <= +60
 c52: +20.8 Y9,0 <= +40
 c53: +20.8 Y9,1 <= +30
 c54: +20.8 Y9,2 <= +50
 c55: +20.8 Y9,3 <= +40
 c56: +20.8 Y9,4 <= +60
 c57: +31.6 Y18,0 <= +40
 c58: +31.6 Y18,1 <= +30
 c59: +31.6 Y18,2 <= +50
 c60: +31.6 Y18,3 <= +40
 c61: +31.6 Y18,4 <= +60
 c62: +55.4 Y46,0 <= +40
 c63: +55.4 Y46,1 <= +30
 c64: +55.4 Y46,2 <= +50
 c65: +55.4 Y46,3 <= +40
 c66: +55.4 Y46,4 <= +60
 c67: +40.5 Y55,0 <= +40
 c68: +40.5 Y55,1 <= +30
 c69: +40.5 Y55,2 <= +50
 c70: +40.5 Y55,3 <= +40
 c71: +40.5 Y55,4 <= +60
 c72: +33.6 Y70,0 <= +40
 c73: +33.6 Y70,1 <= +30
 c74: +33.6 Y70,2 <= +50
 c75: +33.6 Y70,3 <= +40
 c76: +33.6 Y70,4 <= +60
 c77: +24.5 Y83,0 <= +40
 c78: +24.5 Y83,1 <= +30
 c79: +24.5 Y83,2 <= +50
 c80: +24.5 Y83,3 <= +40
 c81: +24.5 Y83,4 <= +60
 c82: +34.2 Y89,0 <= +40
 c83: +34.2 Y89,1 <= +30
 c84: +34.2 Y89,2 <= +50
 c85: +34.2 Y89,3 <= +40
 c86: +34.2 Y89,4 <= +60
 c87: +27.4 Y94,0 <= +40
 c88: +27.4 Y94,1 <= +30
 c89: +27.4 Y94,2 <= +50
 c90: +27.4 Y94,3 <= +40
 c91: +27.4 Y94,4 <= +60
 c92: +41 Y112,0 <= +40
 c93: +41 Y112,1 <= +30
 c94: +41 Y112,2 <= +50
 c95: +41 Y112,3 <= +40
 c96: +41 Y112,4 <= +60
 c97: +49.9 Y127,0 <= +40
 c98: +49.9 Y127,1 <= +30
 c99: +49.9 Y127,2 <= +50
 c100: +49.9 Y127,3 <= +40
 c101: +49.9 Y127,4 <= +60
Bounds
 0 <= Y6,0 <= 1
 0 <= Y6,1 <= 1
 0 <= Y6,2 <= 1
 0 <= Y6,3 <= 1
 0 <= Y6,4 <= 1
 0 <= Y9,0 <= 1
 0 <= Y9,1 <= 1
 0 <= Y9,2 <= 1
 0 <= Y9,3 <= 1
 0 <= Y9,4 <= 1
 0 <= Y18,0 <= 1
 0 <= Y18,1 <= 1
 0 <= Y18,2 <= 1
 0 <= Y18,3 <= 1
 0 <= Y18,4 <= 1
 0 <= Y46,0 <= 1
 0 <= Y46,1 <= 1
 0 <= Y46,2 <= 1
 0 <= Y46,3 <= 1
 0 <= Y46,4 <= 1
 0 <= Y55,0 <= 1
 0 <= Y55,1 <= 1
 0 <= Y55,2 <= 1
 0 <= Y55,3 <= 1
 0 <= Y55,4 <= 1
 0 <= Y70,0 <= 1
 0 <= Y70,1 <= 1
 0 <= Y70,2 <= 1
 0 <= Y70,3 <= 1
 0 <= Y70,4 <= 1
 0 <= Y83,0 <= 1
 0 <= Y83,1 <= 1
 0 <= Y83,2 <= 1
 0 <= Y83,3 <= 1
 0 <= Y83,4 <= 1
 0 <= Y89,0 <= 1
 0 <= Y89,1 <= 1
 0 <= Y89,2 <= 1
 0 <= Y89,3 <= 1
 0 <= Y89,4 <= 1
 0 <= Y94,0 <= 1
 0 <= Y94,1 <= 1
 0 <= Y94,2 <= 1
 0 <= Y94,3 <= 1
 0 <= Y94,4 <= 1
 0 <= Y112,0 <= 1
 0 <= Y112,1 <= 1
 0 <= Y112,2 <= 1
 0 <= Y112,3 <= 1
 0 <= Y112,4 <= 1
 0 <= Y127,0 <= 1
 0 <= Y127,1 <= 1
 0 <= Y127,2 <= 1
 0 <= Y127,3 <= 1
 0 <= Y127,4 <= 1
 45 <= Cmax
Binaries
 Y6,0 Y6,1 Y6,2 Y6,3 Y6,4 Y9,0 Y9,1 Y9,2 Y9,3 Y9,4 Y18,0 Y18,1 Y18,2 Y18,3 Y18,4 Y46,0 Y46,1 Y46,2 Y46,3
 Y46,4 Y55,0 Y55,1 Y55,2 Y55,3 Y55,4 Y70,0 Y70,1 Y70,2 Y70,3 Y70,4 Y83,0 Y83,1 Y83,2 Y83,3 Y83,4 Y89,0
 Y89,1 Y89,2 Y89,3 Y89,4 Y94,0 Y94,1 Y94,2 Y94,3 Y94,4 Y112,0 Y112,1 Y112,2 Y112,3 Y112,4 Y127,0 Y127,1
 Y127,2 Y127,3 Y127,4
End
