\ SCIP STATISTICS
\   Problem name     : Sub
\   Variables        : 56 (55 binary, 0 integer, 0 implicit integer, 1 continuous)
\   Constraints      : 101
Minimize
 Obj: +1 Cmax
Subject to
 c1: +1 Y6,0 +1 Y6,1 +1 Y6,2 +1 Y6,3 +1 Y6,4 = +1
 c2: +1 Y11,0 +1 Y11,1 +1 Y11,2 +1 Y11,3 +1 Y11,4 = +1
 c3: +1 Y16,0 +1 Y16,1 +1 Y16,2 +1 Y16,3 +1 Y16,4 = +1
 c4: +1 Y44,0 +1 Y44,1 +1 Y44,2 +1 Y44,3 +1 Y44,4 = +1
 c5: +1 Y57,0 +1 Y57,1 +1 Y57,2 +1 Y57,3 +1 Y57,4 = +1
 c6: +1 Y66,0 +1 Y66,1 +1 Y66,2 +1 Y66,3 +1 Y66,4 = +1
 c7: +1 Y84,0 +1 Y84,1 +1 Y84,2 +1 Y84,3 +1 Y84,4 = +1
 c8: +1 Y85,0 +1 Y85,1 +1 Y85,2 +1 Y85,3 +1 Y85,4 = +1
 c9: +1 Y97,0 +1 Y97,1 +1 Y97,2 +1 Y97,3 +1 Y97,4 = +1
 c10: +1 Y112,0 +1 Y112,1 +1 Y112,2 +1 Y112,3 +1 Y112,4 = +1
 c11: +1 Y127,0 +1 Y127,1 +1 Y127,2 +1 Y127,3 +1 Y127,4 = +1
 c12: +1 Y6,1 = +0
 c13: +1 Y6,2 = +0
 c14: +1 Y11,1 = +0
 c15: +1 Y11,3 = +0
 c16: +1 Y11,4 = +0
 c17: +1 Y16,1 = +0
 c18: +1 Y16,3 = +0
 c19: +1 Y16,4 = +0
 c20: +1 Y44,0 = +0
 c21: +1 Y44,3 = +0
 c22: +1 Y57,0 = +0
 c23: +1 Y57,3 = +0
 c24: +1 Y66,0 = +0
 c25: +1 Y66,2 = +0
 c26: +1 Y66,4 = +0
 c27: +1 Y84,0 = +0
 c28: +1 Y84,2 = +0
 c29: +1 Y84,4 = +0
 c30: +1 Y85,0 = +0
 c31: +1 Y85,1 = +0
 c32: +1 Y85,4 = +0
 c33: +1 Y97,0 = +0
 c34: +1 Y97,1 = +0
 c35: +1 Y97,4 = +0
 c36: +1 Y112,0 = +0
 c37: +1 Y112,2 = +0
 c38: +1 Y112,3 = +0
 c39: +1 Y127,1 = +0
 c40: +1 Y127,2 = +0
 c41: +1 Y127,3 = +0
 c42: +1 Cmax -70 Y6,0 -60 Y11,0 -60 Y16,0 -80 Y44,0 -80 Y57,0 -65 Y66,0 -65 Y84,0 -50 Y85,0 -50 Y97,0
  -45 Y112,0 -45 Y127,0 >= +0
 c43: +1 Cmax -70 Y6,1 -60 Y11,1 -60 Y16,1 -80 Y44,1 -80 Y57,1 -65 Y66,1 -65 Y84,1 -50 Y85,1 -50 Y97,1
  -45 Y112,1 -45 Y127,1 >= +0
 c44: +1 Cmax -70 Y6,2 -60 Y11,2 -60 Y16,2 -80 Y44,2 -80 Y57,2 -65 Y66,2 -65 Y84,2 -50 Y85,2 -50 Y97,2
  -45 Y112,2 -45 Y127,2 >= +0
 c45: +1 Cmax -70 Y6,3 -60 Y11,3 -60 Y16,3 -80 Y44,3 -80 Y57,3 -65 Y66,3 -65 Y84,3 -50 Y85,3 -50 Y97,3
  -45 Y112,3 -45 Y127,3 >= +0
 c46: +1 Cmax -70 Y6,4 -60 Y11,4 -60 Y16,4 -80 Y44,4 -80 Y57,4 -65 Y66,4 -65 Y84,4 -50 Y85,4 -50 Y97,4
  -45 Y112,4 -45 Y127,4 >= +0
 c47: +56.3 Y6,0 <= +40
 c48: +56.3 Y6,1 <= +30
 c49: +56.3 Y6,2 <= +50
 c50: +56.3 Y6,3 <= +40
 c51: +56.3 Y6,4 <= +60
 c52: +19.9 Y11,0 <= +40
 c53: +19.9 Y11,1 <= +30
 c54: +19.9 Y11,2 <= +50
 c55: +19.9 Y11,3 <= +40
 c56: +19.9 Y11,4 <= +60
 c57: +32.5 Y16,0 <= +40
 c58: +32.5 Y16,1 <= +30
 c59: +32.5 Y16,2 <= +50
 c60: +32.5 Y16,3 <= +40
 c61: +32.5 Y16,4 <= +60
 c62: +42.2 Y44,0 <= +40
 c63: +42.2 Y44,1 <= +30
 c64: +42.2 Y44,2 <= +50
 c65: +42.2 Y44,3 <= +40
 c66: +42.2 Y44,4 <= +60
 c67: +53.7 Y57,0 <= +40
 c68: +53.7 Y57,1 <= +30
 c69: +53.7 Y57,2 <= +50
 c70: +53.7 Y57,3 <= +40
 c71: +53.7 Y57,4 <= +60
 c72: +27.5 Y66,0 <= +40
 c73: +27.5 Y66,1 <= +30
 c74: +27.5 Y66,2 <= +50
 c75: +27.5 Y66,3 <= +40
 c76: +27.5 Y66,4 <= +60
 c77: +30.6 Y84,0 <= +40
 c78: +30.6 Y84,1 <= +30
 c79: +30.6 Y84,2 <= +50
 c80: +30.6 Y84,3 <= +40
 c81: +30.6 Y84,4 <= +60
 c82: +12.9 Y85,0 <= +40
 c83: +12.9 Y85,1 <= +30
 c84: +12.9 Y85,2 <= +50
 c85: +12.9 Y85,3 <= +40
 c86: +12.9 Y85,4 <= +60
 c87: +48.7 Y97,0 <= +40
 c88: +48.7 Y97,1 <= +30
 c89: +48.7 Y97,2 <= +50
 c90: +48.7 Y97,3 <= +40
 c91: +48.7 Y97,4 <= +60
 c92: +41 Y112,0 <= +40
 c93: +41 Y112,1 <= +30
 c94: +41 Y112,2 <= +50
 c95: +41 Y112,3 <= +40
 c96: +41 Y112,4 <= +60
 c97: +49.9 Y127,0 <= +40
 c98: +49.9 Y127,1 <= +30
 c99: +49.9 Y127,2 <= +50
 c100: +49.9 Y127,3 <= +40
 c101: +49.9 Y127,4 <= +60
Bounds
 0 <= Y6,0 <= 1
 0 <= Y6,1 <= 1
 0 <= Y6,2 <= 1
 0 <= Y6,3 <= 1
 0 <= Y6,4 <= 1
 0 <= Y11,0 <= 1
 0 <= Y11,1 <= 1
 0 <= Y11,2 <= 1
 0 <= Y11,3 <= 1
 0 <= Y11,4 <= 1
 0 <= Y16,0 <= 1
 0 <= Y16,1 <= 1
 0 <= Y16,2 <= 1
 0 <= Y16,3 <= 1
 0 <= Y16,4 <= 1
 0 <= Y44,0 <= 1
 0 <= Y44,1 <= 1
 0 <= Y44,2 <= 1
 0 <= Y44,3 <= 1
 0 <= Y44,4 <= 1
 0 <= Y57,0 <= 1
 0 <= Y57,1 <= 1
 0 <= Y57,2 <= 1
 0 <= Y57,3 <= 1
 0 <= Y57,4 <= 1
 0 <= Y66,0 <= 1
 0 <= Y66,1 <= 1
 0 <= Y66,2 <= 1
 0 <= Y66,3 <= 1
 0 <= Y66,4 <= 1
 0 <= Y84,0 <= 1
 0 <= Y84,1 <= 1
 0 <= Y84,2 <= 1
 0 <= Y84,3 <= 1
 0 <= Y84,4 <= 1
 0 <= Y85,0 <= 1
 0 <= Y85,1 <= 1
 0 <= Y85,2 <= 1
 0 <= Y85,3 <= 1
 0 <= Y85,4 <= 1
 0 <= Y97,0 <= 1
 0 <= Y97,1 <= 1
 0 <= Y97,2 <= 1
 0 <= Y97,3 <= 1
 0 <= Y97,4 <= 1
 0 <= Y112,0 <= 1
 0 <= Y112,1 <= 1
 0 <= Y112,2 <= 1
 0 <= Y112,3 <= 1
 0 <= Y112,4 <= 1
 0 <= Y127,0 <= 1
 0 <= Y127,1 <= 1
 0 <= Y127,2 <= 1
 0 <= Y127,3 <= 1
 0 <= Y127,4 <= 1
 45 <= Cmax
Binaries
 Y6,0 Y6,1 Y6,2 Y6,3 Y6,4 Y11,0 Y11,1 Y11,2 Y11,3 Y11,4 Y16,0 Y16,1 Y16,2 Y16,3 Y16,4 Y44,0 Y44,1 Y44,2
 Y44,3 Y44,4 Y57,0 Y57,1 Y57,2 Y57,3 Y57,4 Y66,0 Y66,1 Y66,2 Y66,3 Y66,4 Y84,0 Y84,1 Y84,2 Y84,3 Y84,4
 Y85,0 Y85,1 Y85,2 Y85,3 Y85,4 Y97,0 Y97,1 Y97,2 Y97,3 Y97,4 Y112,0 Y112,1 Y112,2 Y112,3 Y112,4 Y127,0
 Y127,1 Y127,2 Y127,3 Y127,4
End
