\ SCIP STATISTICS
\   Problem name     : Sub
\   Variables        : 56 (55 binary, 0 integer, 0 implicit integer, 1 continuous)
\   Constraints      : 101
Minimize
 Obj: +1 Cmax
Subject to
 c1: +1 Y6,0 +1 Y6,1 +1 Y6,2 +1 Y6,3 +1 Y6,4 = +1
 c2: +1 Y8,0 +1 Y8,1 +1 Y8,2 +1 Y8,3 +1 Y8,4 = +1
 c3: +1 Y19,0 +1 Y19,1 +1 Y19,2 +1 Y19,3 +1 Y19,4 = +1
 c4: +1 Y45,0 +1 Y45,1 +1 Y45,2 +1 Y45,3 +1 Y45,4 = +1
 c5: +1 Y56,0 +1 Y56,1 +1 Y56,2 +1 Y56,3 +1 Y56,4 = +1
 c6: +1 Y74,0 +1 Y74,1 +1 Y74,2 +1 Y74,3 +1 Y74,4 = +1
 c7: +1 Y82,0 +1 Y82,1 +1 Y82,2 +1 Y82,3 +1 Y82,4 = +1
 c8: +1 Y91,0 +1 Y91,1 +1 Y91,2 +1 Y91,3 +1 Y91,4 = +1
 c9: +1 Y92,0 +1 Y92,1 +1 Y92,2 +1 Y92,3 +1 Y92,4 = +1
 c10: +1 Y112,0 +1 Y112,1 +1 Y112,2 +1 Y112,3 +1 Y112,4 = +1
 c11: +1 Y127,0 +1 Y127,1 +1 Y127,2 +1 Y127,3 +1 Y127,4 = +1
 c12: +1 Y6,1 = +0
 c13: +1 Y6,2 = +0
 c14: +1 Y8,1 = +0
 c15: +1 Y8,3 = +0
 c16: +1 Y8,4 = +0
 c17: +1 Y19,1 = +0
 c18: +1 Y19,3 = +0
 c19: +1 Y19,4 = +0
 c20: +1 Y45,0 = +0
 c21: +1 Y45,3 = +0
 c22: +1 Y56,0 = +0
 c23: +1 Y56,3 = +0
 c24: +1 Y74,0 = +0
 c25: +1 Y74,2 = +0
 c26: +1 Y74,4 = +0
 c27: +1 Y82,0 = +0
 c28: +1 Y82,2 = +0
 c29: +1 Y82,4 = +0
 c30: +1 Y91,0 = +0
 c31: +1 Y91,1 = +0
 c32: +1 Y91,4 = +0
 c33: +1 Y92,0 = +0
 c34: +1 Y92,1 = +0
 c35: +1 Y92,4 = +0
 c36: +1 Y112,0 = +0
 c37: +1 Y112,2 = +0
 c38: +1 Y112,3 = +0
 c39: +1 Y127,1 = +0
 c40: +1 Y127,2 = +0
 c41: +1 Y127,3 = +0
 c42: +1 Cmax -70 Y6,0 -60 Y8,0 -60 Y19,0 -80 Y45,0 -80 Y56,0 -65 Y74,0 -65 Y82,0 -50 Y91,0 -50 Y92,0
  -45 Y112,0 -45 Y127,0 >= +0
 c43: +1 Cmax -70 Y6,1 -60 Y8,1 -60 Y19,1 -80 Y45,1 -80 Y56,1 -65 Y74,1 -65 Y82,1 -50 Y91,1 -50 Y92,1
  -45 Y112,1 -45 Y127,1 >= +0
 c44: +1 Cmax -70 Y6,2 -60 Y8,2 -60 Y19,2 -80 Y45,2 -80 Y56,2 -65 Y74,2 -65 Y82,2 -50 Y91,2 -50 Y92,2
  -45 Y112,2 -45 Y127,2 >= +0
 c45: +1 Cmax -70 Y6,3 -60 Y8,3 -60 Y19,3 -80 Y45,3 -80 Y56,3 -65 Y74,3 -65 Y82,3 -50 Y91,3 -50 Y92,3
  -45 Y112,3 -45 Y127,3 >= +0
 c46: +1 Cmax -70 Y6,4 -60 Y8,4 -60 Y19,4 -80 Y45,4 -80 Y56,4 -65 Y74,4 -65 Y82,4 -50 Y91,4 -50 Y92,4
  -45 Y112,4 -45 Y127,4 >= +0
 c47: +56.3 Y6,0 <= +40
 c48: +56.3 Y6,1 <= +30
 c49: +56.3 Y6,2 <= +50
 c50: +56.3 Y6,3 <= +40
 c51: +56.3 Y6,4 <= +60
 c52: +11.1 Y8,0 <= +40
 c53: +11.1 Y8,1 <= +30
 c54: +11.1 Y8,2 <= +50
 c55: +11.1 Y8,3 <= +40
 c56: +11.1 Y8,4 <= +60
 c57: +41.3 Y19,0 <= +40
 c58: +41.3 Y19,1 <= +30
 c59: +41.3 Y19,2 <= +50
 c60: +41.3 Y19,3 <= +40
 c61: +41.3 Y19,4 <= +60
 c62: +56 Y45,0 <= +40
 c63: +56 Y45,1 <= +30
 c64: +56 Y45,2 <= +50
 c65: +56 Y45,3 <= +40
 c66: +56 Y45,4 <= +60
 c67: +39.9 Y56,0 <= +40
 c68: +39.9 Y56,1 <= +30
 c69: +39.9 Y56,2 <= +50
 c70: +39.9 Y56,3 <= +40
 c71: +39.9 Y56,4 <= +60
 c72: +34.7 Y74,0 <= +40
 c73: +34.7 Y74,1 <= +30
 c74: +34.7 Y74,2 <= +50
 c75: +34.7 Y74,3 <= +40
 c76: +34.7 Y74,4 <= +60
 c77: +23.4 Y82,0 <= +40
 c78: +23.4 Y82,1 <= +30
 c79: +23.4 Y82,2 <= +50
 c80: +23.4 Y82,3 <= +40
 c81: +23.4 Y82,4 <= +60
 c82: +32.4 Y91,0 <= +40
 c83: +32.4 Y91,1 <= +30
 c84: +32.4 Y91,2 <= +50
 c85: +32.4 Y91,3 <= +40
 c86: +32.4 Y91,4 <= +60
 c87: +29.2 Y92,0 <= +40
 c88: +29.2 Y92,1 <= +30
 c89: +29.2 Y92,2 <= +50
 c90: +29.2 Y92,3 <= +40
 c91: +29.2 Y92,4 <= +60
 c92: +41 Y112,0 <= +40
 c93: +41 Y112,1 <= +30
 c94: +41 Y112,2 <= +50
 c95: +41 Y112,3 <= +40
 c96: +41 Y112,4 <= +60
 c97: +49.9 Y127,0 <= +40
 c98: +49.9 Y127,1 <= +30
 c99: +49.9 Y127,2 <= +50
 c100: +49.9 Y127,3 <= +40
 c101: +49.9 Y127,4 <= +60
Bounds
 0 <= Y6,0 <= 1
 0 <= Y6,1 <= 1
 0 <= Y6,2 <= 1
 0 <= Y6,3 <= 1
 0 <= Y6,4 <= 1
 0 <= Y8,0 <= 1
 0 <= Y8,1 <= 1
 0 <= Y8,2 <= 1
 0 <= Y8,3 <= 1
 0 <= Y8,4 <= 1
 0 <= Y19,0 <= 1
 0 <= Y19,1 <= 1
 0 <= Y19,2 <= 1
 0 <= Y19,3 <= 1
 0 <= Y19,4 <= 1
 0 <= Y45,0 <= 1
 0 <= Y45,1 <= 1
 0 <= Y45,2 <= 1
 0 <= Y45,3 <= 1
 0 <= Y45,4 <= 1
 0 <= Y56,0 <= 1
 0 <= Y56,1 <= 1
 0 <= Y56,2 <= 1
 0 <= Y56,3 <= 1
 0 <= Y56,4 <= 1
 0 <= Y74,0 <= 1
 0 <= Y74,1 <= 1
 0 <= Y74,2 <= 1
 0 <= Y74,3 <= 1
 0 <= Y74,4 <= 1
 0 <= Y82,0 <= 1
 0 <= Y82,1 <= 1
 0 <= Y82,2 <= 1
 0 <= Y82,3 <= 1
 0 <= Y82,4 <= 1
 0 <= Y91,0 <= 1
 0 <= Y91,1 <= 1
 0 <= Y91,2 <= 1
 0 <= Y91,3 <= 1
 0 <= Y91,4 <= 1
 0 <= Y92,0 <= 1
 0 <= Y92,1 <= 1
 0 <= Y92,2 <= 1
 0 <= Y92,3 <= 1
 0 <= Y92,4 <= 1
 0 <= Y112,0 <= 1
 0 <= Y112,1 <= 1
 0 <= Y112,2 <= 1
 0 <= Y112,3 <= 1
 0 <= Y112,4 <= 1
 0 <= Y127,0 <= 1
 0 <= Y127,1 <= 1
 0 <= Y127,2 <= 1
 0 <= Y127,3 <= 1
 0 <= Y127,4 <= 1
 45 <= Cmax
Binaries
 Y6,0 Y6,1 Y6,2 Y6,3 Y6,4 Y8,0 Y8,1 Y8,2 Y8,3 Y8,4 Y19,0 Y19,1 Y19,2 Y19,3 Y19,4 Y45,0 Y45,1 Y45,2 Y45,3
 Y45,4 Y56,0 Y56,1 Y56,2 Y56,3 Y56,4 Y74,0 Y74,1 Y74,2 Y74,3 Y74,4 Y82,0 Y82,1 Y82,2 Y82,3 Y82,4 Y91,0
 Y91,1 Y91,2 Y91,3 Y91,4 Y92,0 Y92,1 Y92,2 Y92,3 Y92,4 Y112,0 Y112,1 Y112,2 Y112,3 Y112,4 Y127,0 Y127,1
 Y127,2 Y127,3 Y127,4
End
