\ SCIP STATISTICS
\   Problem name     : Master
\   Variables        : 32 (31 binary, 0 integer, 0 implicit integer, 1 continuous)
\   Constraints      : 5
Minimize
 Obj: +1 X0 +1 X1 +1 X2 +1 X3 +1 X4 +1 X5 +1 X6 +1 X7 +1 X8 +1 X9 +1 X10 +1 X11 +1 X12 +1 X13 +1 X14 +1 X15
      +1 X16 +1 X17 +1 X18 +1 X19 +1 X20 +1 X21 +1 X22 +1 X23 +1 X24 +1 X25 +1 X26 +1 X27 +1 X28 +1 X29
      +1 X30 +1 theta
Subject to
 c1: +1 X0 +1 X5 +1 X6 +1 X7 +1 X8 +1 X15 +1 X16 +1 X17 +1 X18 +1 X19 +1 X20 +1 X25 +1 X26 +1 X27 +1 X28
  +1 X30 = +1
 c2: +1 X1 +1 X5 +1 X9 +1 X10 +1 X11 +1 X15 +1 X16 +1 X17 +1 X21 +1 X22 +1 X23 +1 X25 +1 X26 +1 X27 +1 X29
  +1 X30 = +1
 c3: +1 X2 +1 X6 +1 X9 +1 X12 +1 X13 +1 X15 +1 X18 +1 X19 +1 X21 +1 X22 +1 X24 +1 X25 +1 X26 +1 X28 +1 X29
  +1 X30 = +1
 c4: +1 X3 +1 X7 +1 X10 +1 X12 +1 X14 +1 X16 +1 X18 +1 X20 +1 X21 +1 X23 +1 X24 +1 X25 +1 X27 +1 X28 +1 X29
  +1 X30 = +1
 c5: +1 X4 +1 X8 +1 X11 +1 X13 +1 X14 +1 X17 +1 X19 +1 X20 +1 X22 +1 X23 +1 X24 +1 X26 +1 X27 +1 X28 +1 X29
  +1 X30 = +1
Bounds
 0 <= X0 <= 1
 0 <= X1 <= 1
 0 <= X2 <= 1
 0 <= X3 <= 1
 0 <= X4 <= 1
 0 <= X5 <= 1
 0 <= X6 <= 1
 0 <= X7 <= 1
 0 <= X8 <= 1
 0 <= X9 <= 1
 0 <= X10 <= 1
 0 <= X11 <= 1
 0 <= X12 <= 1
 0 <= X13 <= 1
 0 <= X14 <= 1
 0 <= X15 <= 1
 0 <= X16 <= 1
 0 <= X17 <= 1
 0 <= X18 <= 1
 0 <= X19 <= 1
 0 <= X20 <= 1
 0 <= X21 <= 1
 0 <= X22 <= 1
 0 <= X23 <= 1
 0 <= X24 <= 1
 0 <= X25 <= 1
 0 <= X26 <= 1
 0 <= X27 <= 1
 0 <= X28 <= 1
 0 <= X29 <= 1
 0 <= X30 <= 1
 45 <= theta
Binaries
 X0 X1 X2 X3 X4 X5 X6 X7 X8 X9 X10 X11 X12 X13 X14 X15 X16 X17 X18 X19 X20 X21 X22 X23 X24 X25 X26 X27
 X28 X29 X30
End
