\* Problem: Batches_126 *\

Minimize
 c_max: + Cmax

Subject To
 traba_unic(J1): + x(L125,M1) + x(L125,M2) + x(L125,M3) + x(L125,M4)
 + x(L125,M5) + x(L125,M6) + x(L125,M7) + x(L125,M8) + x(L125,M9)
 + x(L125,M10) = 1
 traba_unic(J2): + x(L124,M1) + x(L124,M2) + x(L124,M3) + x(L124,M4)
 + x(L124,M5) + x(L124,M6) + x(L124,M7) + x(L124,M8) + x(L124,M9)
 + x(L124,M10) = 1
 traba_unic(J3): + x(L91,M1) + x(L91,M2) + x(L91,M3) + x(L91,M4)
 + x(L91,M5) + x(L91,M6) + x(L91,M7) + x(L91,M8) + x(L91,M9)
 + x(L91,M10) + x(L92,M1) + x(L92,M2) + x(L92,M3) + x(L92,M4)
 + x(L92,M5) + x(L92,M6) + x(L92,M7) + x(L92,M8) + x(L92,M9)
 + x(L92,M10) + x(L93,M1) + x(L93,M2) + x(L93,M3) + x(L93,M4)
 + x(L93,M5) + x(L93,M6) + x(L93,M7) + x(L93,M8) + x(L93,M9)
 + x(L93,M10) + x(L94,M1) + x(L94,M2) + x(L94,M3) + x(L94,M4)
 + x(L94,M5) + x(L94,M6) + x(L94,M7) + x(L94,M8) + x(L94,M9)
 + x(L94,M10) + x(L95,M1) + x(L95,M2) + x(L95,M3) + x(L95,M4)
 + x(L95,M5) + x(L95,M6) + x(L95,M7) + x(L95,M8) + x(L95,M9)
 + x(L95,M10) + x(L96,M1) + x(L96,M2) + x(L96,M3) + x(L96,M4)
 + x(L96,M5) + x(L96,M6) + x(L96,M7) + x(L96,M8) + x(L96,M9)
 + x(L96,M10) + x(L97,M1) + x(L97,M2) + x(L97,M3) + x(L97,M4)
 + x(L97,M5) + x(L97,M6) + x(L97,M7) + x(L97,M8) + x(L97,M9)
 + x(L97,M10) + x(L98,M1) + x(L98,M2) + x(L98,M3) + x(L98,M4)
 + x(L98,M5) + x(L98,M6) + x(L98,M7) + x(L98,M8) + x(L98,M9)
 + x(L98,M10) + x(L99,M1) + x(L99,M2) + x(L99,M3) + x(L99,M4)
 + x(L99,M5) + x(L99,M6) + x(L99,M7) + x(L99,M8) + x(L99,M9)
 + x(L99,M10) + x(L100,M1) + x(L100,M2) + x(L100,M3) + x(L100,M4)
 + x(L100,M5) + x(L100,M6) + x(L100,M7) + x(L100,M8) + x(L100,M9)
 + x(L100,M10) + x(L101,M1) + x(L101,M2) + x(L101,M3) + x(L101,M4)
 + x(L101,M5) + x(L101,M6) + x(L101,M7) + x(L101,M8) + x(L101,M9)
 + x(L101,M10) + x(L102,M1) + x(L102,M2) + x(L102,M3) + x(L102,M4)
 + x(L102,M5) + x(L102,M6) + x(L102,M7) + x(L102,M8) + x(L102,M9)
 + x(L102,M10) + x(L103,M1) + x(L103,M2) + x(L103,M3) + x(L103,M4)
 + x(L103,M5) + x(L103,M6) + x(L103,M7) + x(L103,M8) + x(L103,M9)
 + x(L103,M10) + x(L104,M1) + x(L104,M2) + x(L104,M3) + x(L104,M4)
 + x(L104,M5) + x(L104,M6) + x(L104,M7) + x(L104,M8) + x(L104,M9)
 + x(L104,M10) + x(L105,M1) + x(L105,M2) + x(L105,M3) + x(L105,M4)
 + x(L105,M5) + x(L105,M6) + x(L105,M7) + x(L105,M8) + x(L105,M9)
 + x(L105,M10) + x(L106,M1) + x(L106,M2) + x(L106,M3) + x(L106,M4)
 + x(L106,M5) + x(L106,M6) + x(L106,M7) + x(L106,M8) + x(L106,M9)
 + x(L106,M10) + x(L107,M1) + x(L107,M2) + x(L107,M3) + x(L107,M4)
 + x(L107,M5) + x(L107,M6) + x(L107,M7) + x(L107,M8) + x(L107,M9)
 + x(L107,M10) + x(L108,M1) + x(L108,M2) + x(L108,M3) + x(L108,M4)
 + x(L108,M5) + x(L108,M6) + x(L108,M7) + x(L108,M8) + x(L108,M9)
 + x(L108,M10) + x(L109,M1) + x(L109,M2) + x(L109,M3) + x(L109,M4)
 + x(L109,M5) + x(L109,M6) + x(L109,M7) + x(L109,M8) + x(L109,M9)
 + x(L109,M10) + x(L110,M1) + x(L110,M2) + x(L110,M3) + x(L110,M4)
 + x(L110,M5) + x(L110,M6) + x(L110,M7) + x(L110,M8) + x(L110,M9)
 + x(L110,M10) + x(L111,M1) + x(L111,M2) + x(L111,M3) + x(L111,M4)
 + x(L111,M5) + x(L111,M6) + x(L111,M7) + x(L111,M8) + x(L111,M9)
 + x(L111,M10) + x(L112,M1) + x(L112,M2) + x(L112,M3) + x(L112,M4)
 + x(L112,M5) + x(L112,M6) + x(L112,M7) + x(L112,M8) + x(L112,M9)
 + x(L112,M10) + x(L113,M1) + x(L113,M2) + x(L113,M3) + x(L113,M4)
 + x(L113,M5) + x(L113,M6) + x(L113,M7) + x(L113,M8) + x(L113,M9)
 + x(L113,M10) + x(L114,M1) + x(L114,M2) + x(L114,M3) + x(L114,M4)
 + x(L114,M5) + x(L114,M6) + x(L114,M7) + x(L114,M8) + x(L114,M9)
 + x(L114,M10) + x(L115,M1) + x(L115,M2) + x(L115,M3) + x(L115,M4)
 + x(L115,M5) + x(L115,M6) + x(L115,M7) + x(L115,M8) + x(L115,M9)
 + x(L115,M10) + x(L116,M1) + x(L116,M2) + x(L116,M3) + x(L116,M4)
 + x(L116,M5) + x(L116,M6) + x(L116,M7) + x(L116,M8) + x(L116,M9)
 + x(L116,M10) + x(L117,M1) + x(L117,M2) + x(L117,M3) + x(L117,M4)
 + x(L117,M5) + x(L117,M6) + x(L117,M7) + x(L117,M8) + x(L117,M9)
 + x(L117,M10) + x(L118,M1) + x(L118,M2) + x(L118,M3) + x(L118,M4)
 + x(L118,M5) + x(L118,M6) + x(L118,M7) + x(L118,M8) + x(L118,M9)
 + x(L118,M10) + x(L119,M1) + x(L119,M2) + x(L119,M3) + x(L119,M4)
 + x(L119,M5) + x(L119,M6) + x(L119,M7) + x(L119,M8) + x(L119,M9)
 + x(L119,M10) + x(L120,M1) + x(L120,M2) + x(L120,M3) + x(L120,M4)
 + x(L120,M5) + x(L120,M6) + x(L120,M7) + x(L120,M8) + x(L120,M9)
 + x(L120,M10) + x(L121,M1) + x(L121,M2) + x(L121,M3) + x(L121,M4)
 + x(L121,M5) + x(L121,M6) + x(L121,M7) + x(L121,M8) + x(L121,M9)
 + x(L121,M10) + x(L122,M1) + x(L122,M2) + x(L122,M3) + x(L122,M4)
 + x(L122,M5) + x(L122,M6) + x(L122,M7) + x(L122,M8) + x(L122,M9)
 + x(L122,M10) + x(L123,M1) + x(L123,M2) + x(L123,M3) + x(L123,M4)
 + x(L123,M5) + x(L123,M6) + x(L123,M7) + x(L123,M8) + x(L123,M9)
 + x(L123,M10) = 1
 traba_unic(J4): + x(L69,M1) + x(L69,M2) + x(L69,M3) + x(L69,M4)
 + x(L69,M5) + x(L69,M6) + x(L69,M7) + x(L69,M8) + x(L69,M9)
 + x(L69,M10) + x(L70,M1) + x(L70,M2) + x(L70,M3) + x(L70,M4)
 + x(L70,M5) + x(L70,M6) + x(L70,M7) + x(L70,M8) + x(L70,M9)
 + x(L70,M10) + x(L71,M1) + x(L71,M2) + x(L71,M3) + x(L71,M4)
 + x(L71,M5) + x(L71,M6) + x(L71,M7) + x(L71,M8) + x(L71,M9)
 + x(L71,M10) + x(L72,M1) + x(L72,M2) + x(L72,M3) + x(L72,M4)
 + x(L72,M5) + x(L72,M6) + x(L72,M7) + x(L72,M8) + x(L72,M9)
 + x(L72,M10) + x(L73,M1) + x(L73,M2) + x(L73,M3) + x(L73,M4)
 + x(L73,M5) + x(L73,M6) + x(L73,M7) + x(L73,M8) + x(L73,M9)
 + x(L73,M10) + x(L74,M1) + x(L74,M2) + x(L74,M3) + x(L74,M4)
 + x(L74,M5) + x(L74,M6) + x(L74,M7) + x(L74,M8) + x(L74,M9)
 + x(L74,M10) + x(L75,M1) + x(L75,M2) + x(L75,M3) + x(L75,M4)
 + x(L75,M5) + x(L75,M6) + x(L75,M7) + x(L75,M8) + x(L75,M9)
 + x(L75,M10) + x(L76,M1) + x(L76,M2) + x(L76,M3) + x(L76,M4)
 + x(L76,M5) + x(L76,M6) + x(L76,M7) + x(L76,M8) + x(L76,M9)
 + x(L76,M10) + x(L77,M1) + x(L77,M2) + x(L77,M3) + x(L77,M4)
 + x(L77,M5) + x(L77,M6) + x(L77,M7) + x(L77,M8) + x(L77,M9)
 + x(L77,M10) + x(L78,M1) + x(L78,M2) + x(L78,M3) + x(L78,M4)
 + x(L78,M5) + x(L78,M6) + x(L78,M7) + x(L78,M8) + x(L78,M9)
 + x(L78,M10) + x(L79,M1) + x(L79,M2) + x(L79,M3) + x(L79,M4)
 + x(L79,M5) + x(L79,M6) + x(L79,M7) + x(L79,M8) + x(L79,M9)
 + x(L79,M10) + x(L80,M1) + x(L80,M2) + x(L80,M3) + x(L80,M4)
 + x(L80,M5) + x(L80,M6) + x(L80,M7) + x(L80,M8) + x(L80,M9)
 + x(L80,M10) + x(L81,M1) + x(L81,M2) + x(L81,M3) + x(L81,M4)
 + x(L81,M5) + x(L81,M6) + x(L81,M7) + x(L81,M8) + x(L81,M9)
 + x(L81,M10) + x(L82,M1) + x(L82,M2) + x(L82,M3) + x(L82,M4)
 + x(L82,M5) + x(L82,M6) + x(L82,M7) + x(L82,M8) + x(L82,M9)
 + x(L82,M10) + x(L83,M1) + x(L83,M2) + x(L83,M3) + x(L83,M4)
 + x(L83,M5) + x(L83,M6) + x(L83,M7) + x(L83,M8) + x(L83,M9)
 + x(L83,M10) + x(L84,M1) + x(L84,M2) + x(L84,M3) + x(L84,M4)
 + x(L84,M5) + x(L84,M6) + x(L84,M7) + x(L84,M8) + x(L84,M9)
 + x(L84,M10) + x(L85,M1) + x(L85,M2) + x(L85,M3) + x(L85,M4)
 + x(L85,M5) + x(L85,M6) + x(L85,M7) + x(L85,M8) + x(L85,M9)
 + x(L85,M10) + x(L86,M1) + x(L86,M2) + x(L86,M3) + x(L86,M4)
 + x(L86,M5) + x(L86,M6) + x(L86,M7) + x(L86,M8) + x(L86,M9)
 + x(L86,M10) + x(L87,M1) + x(L87,M2) + x(L87,M3) + x(L87,M4)
 + x(L87,M5) + x(L87,M6) + x(L87,M7) + x(L87,M8) + x(L87,M9)
 + x(L87,M10) + x(L88,M1) + x(L88,M2) + x(L88,M3) + x(L88,M4)
 + x(L88,M5) + x(L88,M6) + x(L88,M7) + x(L88,M8) + x(L88,M9)
 + x(L88,M10) + x(L89,M1) + x(L89,M2) + x(L89,M3) + x(L89,M4)
 + x(L89,M5) + x(L89,M6) + x(L89,M7) + x(L89,M8) + x(L89,M9)
 + x(L89,M10) + x(L90,M1) + x(L90,M2) + x(L90,M3) + x(L90,M4)
 + x(L90,M5) + x(L90,M6) + x(L90,M7) + x(L90,M8) + x(L90,M9)
 + x(L90,M10) + x(L117,M1) + x(L117,M2) + x(L117,M3) + x(L117,M4)
 + x(L117,M5) + x(L117,M6) + x(L117,M7) + x(L117,M8) + x(L117,M9)
 + x(L117,M10) + x(L118,M1) + x(L118,M2) + x(L118,M3) + x(L118,M4)
 + x(L118,M5) + x(L118,M6) + x(L118,M7) + x(L118,M8) + x(L118,M9)
 + x(L118,M10) + x(L119,M1) + x(L119,M2) + x(L119,M3) + x(L119,M4)
 + x(L119,M5) + x(L119,M6) + x(L119,M7) + x(L119,M8) + x(L119,M9)
 + x(L119,M10) + x(L120,M1) + x(L120,M2) + x(L120,M3) + x(L120,M4)
 + x(L120,M5) + x(L120,M6) + x(L120,M7) + x(L120,M8) + x(L120,M9)
 + x(L120,M10) + x(L121,M1) + x(L121,M2) + x(L121,M3) + x(L121,M4)
 + x(L121,M5) + x(L121,M6) + x(L121,M7) + x(L121,M8) + x(L121,M9)
 + x(L121,M10) + x(L122,M1) + x(L122,M2) + x(L122,M3) + x(L122,M4)
 + x(L122,M5) + x(L122,M6) + x(L122,M7) + x(L122,M8) + x(L122,M9)
 + x(L122,M10) + x(L123,M1) + x(L123,M2) + x(L123,M3) + x(L123,M4)
 + x(L123,M5) + x(L123,M6) + x(L123,M7) + x(L123,M8) + x(L123,M9)
 + x(L123,M10) = 1
 traba_unic(J5): + x(L61,M1) + x(L61,M2) + x(L61,M3) + x(L61,M4)
 + x(L61,M5) + x(L61,M6) + x(L61,M7) + x(L61,M8) + x(L61,M9)
 + x(L61,M10) + x(L62,M1) + x(L62,M2) + x(L62,M3) + x(L62,M4)
 + x(L62,M5) + x(L62,M6) + x(L62,M7) + x(L62,M8) + x(L62,M9)
 + x(L62,M10) + x(L63,M1) + x(L63,M2) + x(L63,M3) + x(L63,M4)
 + x(L63,M5) + x(L63,M6) + x(L63,M7) + x(L63,M8) + x(L63,M9)
 + x(L63,M10) + x(L64,M1) + x(L64,M2) + x(L64,M3) + x(L64,M4)
 + x(L64,M5) + x(L64,M6) + x(L64,M7) + x(L64,M8) + x(L64,M9)
 + x(L64,M10) + x(L65,M1) + x(L65,M2) + x(L65,M3) + x(L65,M4)
 + x(L65,M5) + x(L65,M6) + x(L65,M7) + x(L65,M8) + x(L65,M9)
 + x(L65,M10) + x(L66,M1) + x(L66,M2) + x(L66,M3) + x(L66,M4)
 + x(L66,M5) + x(L66,M6) + x(L66,M7) + x(L66,M8) + x(L66,M9)
 + x(L66,M10) + x(L67,M1) + x(L67,M2) + x(L67,M3) + x(L67,M4)
 + x(L67,M5) + x(L67,M6) + x(L67,M7) + x(L67,M8) + x(L67,M9)
 + x(L67,M10) + x(L68,M1) + x(L68,M2) + x(L68,M3) + x(L68,M4)
 + x(L68,M5) + x(L68,M6) + x(L68,M7) + x(L68,M8) + x(L68,M9)
 + x(L68,M10) + x(L90,M1) + x(L90,M2) + x(L90,M3) + x(L90,M4)
 + x(L90,M5) + x(L90,M6) + x(L90,M7) + x(L90,M8) + x(L90,M9)
 + x(L90,M10) + x(L114,M1) + x(L114,M2) + x(L114,M3) + x(L114,M4)
 + x(L114,M5) + x(L114,M6) + x(L114,M7) + x(L114,M8) + x(L114,M9)
 + x(L114,M10) + x(L115,M1) + x(L115,M2) + x(L115,M3) + x(L115,M4)
 + x(L115,M5) + x(L115,M6) + x(L115,M7) + x(L115,M8) + x(L115,M9)
 + x(L115,M10) + x(L116,M1) + x(L116,M2) + x(L116,M3) + x(L116,M4)
 + x(L116,M5) + x(L116,M6) + x(L116,M7) + x(L116,M8) + x(L116,M9)
 + x(L116,M10) + x(L123,M1) + x(L123,M2) + x(L123,M3) + x(L123,M4)
 + x(L123,M5) + x(L123,M6) + x(L123,M7) + x(L123,M8) + x(L123,M9)
 + x(L123,M10) = 1
 traba_unic(J6): + x(L60,M1) + x(L60,M2) + x(L60,M3) + x(L60,M4)
 + x(L60,M5) + x(L60,M6) + x(L60,M7) + x(L60,M8) + x(L60,M9)
 + x(L60,M10) = 1
 traba_unic(J7): + x(L45,M1) + x(L45,M2) + x(L45,M3) + x(L45,M4)
 + x(L45,M5) + x(L45,M6) + x(L45,M7) + x(L45,M8) + x(L45,M9)
 + x(L45,M10) + x(L46,M1) + x(L46,M2) + x(L46,M3) + x(L46,M4)
 + x(L46,M5) + x(L46,M6) + x(L46,M7) + x(L46,M8) + x(L46,M9)
 + x(L46,M10) + x(L47,M1) + x(L47,M2) + x(L47,M3) + x(L47,M4)
 + x(L47,M5) + x(L47,M6) + x(L47,M7) + x(L47,M8) + x(L47,M9)
 + x(L47,M10) + x(L48,M1) + x(L48,M2) + x(L48,M3) + x(L48,M4)
 + x(L48,M5) + x(L48,M6) + x(L48,M7) + x(L48,M8) + x(L48,M9)
 + x(L48,M10) + x(L49,M1) + x(L49,M2) + x(L49,M3) + x(L49,M4)
 + x(L49,M5) + x(L49,M6) + x(L49,M7) + x(L49,M8) + x(L49,M9)
 + x(L49,M10) + x(L50,M1) + x(L50,M2) + x(L50,M3) + x(L50,M4)
 + x(L50,M5) + x(L50,M6) + x(L50,M7) + x(L50,M8) + x(L50,M9)
 + x(L50,M10) + x(L51,M1) + x(L51,M2) + x(L51,M3) + x(L51,M4)
 + x(L51,M5) + x(L51,M6) + x(L51,M7) + x(L51,M8) + x(L51,M9)
 + x(L51,M10) + x(L52,M1) + x(L52,M2) + x(L52,M3) + x(L52,M4)
 + x(L52,M5) + x(L52,M6) + x(L52,M7) + x(L52,M8) + x(L52,M9)
 + x(L52,M10) + x(L53,M1) + x(L53,M2) + x(L53,M3) + x(L53,M4)
 + x(L53,M5) + x(L53,M6) + x(L53,M7) + x(L53,M8) + x(L53,M9)
 + x(L53,M10) + x(L54,M1) + x(L54,M2) + x(L54,M3) + x(L54,M4)
 + x(L54,M5) + x(L54,M6) + x(L54,M7) + x(L54,M8) + x(L54,M9)
 + x(L54,M10) + x(L55,M1) + x(L55,M2) + x(L55,M3) + x(L55,M4)
 + x(L55,M5) + x(L55,M6) + x(L55,M7) + x(L55,M8) + x(L55,M9)
 + x(L55,M10) + x(L56,M1) + x(L56,M2) + x(L56,M3) + x(L56,M4)
 + x(L56,M5) + x(L56,M6) + x(L56,M7) + x(L56,M8) + x(L56,M9)
 + x(L56,M10) + x(L57,M1) + x(L57,M2) + x(L57,M3) + x(L57,M4)
 + x(L57,M5) + x(L57,M6) + x(L57,M7) + x(L57,M8) + x(L57,M9)
 + x(L57,M10) + x(L58,M1) + x(L58,M2) + x(L58,M3) + x(L58,M4)
 + x(L58,M5) + x(L58,M6) + x(L58,M7) + x(L58,M8) + x(L58,M9)
 + x(L58,M10) + x(L59,M1) + x(L59,M2) + x(L59,M3) + x(L59,M4)
 + x(L59,M5) + x(L59,M6) + x(L59,M7) + x(L59,M8) + x(L59,M9)
 + x(L59,M10) + x(L68,M1) + x(L68,M2) + x(L68,M3) + x(L68,M4)
 + x(L68,M5) + x(L68,M6) + x(L68,M7) + x(L68,M8) + x(L68,M9)
 + x(L68,M10) + x(L85,M1) + x(L85,M2) + x(L85,M3) + x(L85,M4)
 + x(L85,M5) + x(L85,M6) + x(L85,M7) + x(L85,M8) + x(L85,M9)
 + x(L85,M10) + x(L86,M1) + x(L86,M2) + x(L86,M3) + x(L86,M4)
 + x(L86,M5) + x(L86,M6) + x(L86,M7) + x(L86,M8) + x(L86,M9)
 + x(L86,M10) + x(L87,M1) + x(L87,M2) + x(L87,M3) + x(L87,M4)
 + x(L87,M5) + x(L87,M6) + x(L87,M7) + x(L87,M8) + x(L87,M9)
 + x(L87,M10) + x(L88,M1) + x(L88,M2) + x(L88,M3) + x(L88,M4)
 + x(L88,M5) + x(L88,M6) + x(L88,M7) + x(L88,M8) + x(L88,M9)
 + x(L88,M10) + x(L89,M1) + x(L89,M2) + x(L89,M3) + x(L89,M4)
 + x(L89,M5) + x(L89,M6) + x(L89,M7) + x(L89,M8) + x(L89,M9)
 + x(L89,M10) + x(L109,M1) + x(L109,M2) + x(L109,M3) + x(L109,M4)
 + x(L109,M5) + x(L109,M6) + x(L109,M7) + x(L109,M8) + x(L109,M9)
 + x(L109,M10) + x(L110,M1) + x(L110,M2) + x(L110,M3) + x(L110,M4)
 + x(L110,M5) + x(L110,M6) + x(L110,M7) + x(L110,M8) + x(L110,M9)
 + x(L110,M10) + x(L111,M1) + x(L111,M2) + x(L111,M3) + x(L111,M4)
 + x(L111,M5) + x(L111,M6) + x(L111,M7) + x(L111,M8) + x(L111,M9)
 + x(L111,M10) + x(L112,M1) + x(L112,M2) + x(L112,M3) + x(L112,M4)
 + x(L112,M5) + x(L112,M6) + x(L112,M7) + x(L112,M8) + x(L112,M9)
 + x(L112,M10) + x(L113,M1) + x(L113,M2) + x(L113,M3) + x(L113,M4)
 + x(L113,M5) + x(L113,M6) + x(L113,M7) + x(L113,M8) + x(L113,M9)
 + x(L113,M10) + x(L122,M1) + x(L122,M2) + x(L122,M3) + x(L122,M4)
 + x(L122,M5) + x(L122,M6) + x(L122,M7) + x(L122,M8) + x(L122,M9)
 + x(L122,M10) = 1
 traba_unic(J8): + x(L33,M1) + x(L33,M2) + x(L33,M3) + x(L33,M4)
 + x(L33,M5) + x(L33,M6) + x(L33,M7) + x(L33,M8) + x(L33,M9)
 + x(L33,M10) + x(L34,M1) + x(L34,M2) + x(L34,M3) + x(L34,M4)
 + x(L34,M5) + x(L34,M6) + x(L34,M7) + x(L34,M8) + x(L34,M9)
 + x(L34,M10) + x(L35,M1) + x(L35,M2) + x(L35,M3) + x(L35,M4)
 + x(L35,M5) + x(L35,M6) + x(L35,M7) + x(L35,M8) + x(L35,M9)
 + x(L35,M10) + x(L36,M1) + x(L36,M2) + x(L36,M3) + x(L36,M4)
 + x(L36,M5) + x(L36,M6) + x(L36,M7) + x(L36,M8) + x(L36,M9)
 + x(L36,M10) + x(L37,M1) + x(L37,M2) + x(L37,M3) + x(L37,M4)
 + x(L37,M5) + x(L37,M6) + x(L37,M7) + x(L37,M8) + x(L37,M9)
 + x(L37,M10) + x(L38,M1) + x(L38,M2) + x(L38,M3) + x(L38,M4)
 + x(L38,M5) + x(L38,M6) + x(L38,M7) + x(L38,M8) + x(L38,M9)
 + x(L38,M10) + x(L39,M1) + x(L39,M2) + x(L39,M3) + x(L39,M4)
 + x(L39,M5) + x(L39,M6) + x(L39,M7) + x(L39,M8) + x(L39,M9)
 + x(L39,M10) + x(L40,M1) + x(L40,M2) + x(L40,M3) + x(L40,M4)
 + x(L40,M5) + x(L40,M6) + x(L40,M7) + x(L40,M8) + x(L40,M9)
 + x(L40,M10) + x(L41,M1) + x(L41,M2) + x(L41,M3) + x(L41,M4)
 + x(L41,M5) + x(L41,M6) + x(L41,M7) + x(L41,M8) + x(L41,M9)
 + x(L41,M10) + x(L42,M1) + x(L42,M2) + x(L42,M3) + x(L42,M4)
 + x(L42,M5) + x(L42,M6) + x(L42,M7) + x(L42,M8) + x(L42,M9)
 + x(L42,M10) + x(L43,M1) + x(L43,M2) + x(L43,M3) + x(L43,M4)
 + x(L43,M5) + x(L43,M6) + x(L43,M7) + x(L43,M8) + x(L43,M9)
 + x(L43,M10) + x(L44,M1) + x(L44,M2) + x(L44,M3) + x(L44,M4)
 + x(L44,M5) + x(L44,M6) + x(L44,M7) + x(L44,M8) + x(L44,M9)
 + x(L44,M10) + x(L56,M1) + x(L56,M2) + x(L56,M3) + x(L56,M4)
 + x(L56,M5) + x(L56,M6) + x(L56,M7) + x(L56,M8) + x(L56,M9)
 + x(L56,M10) + x(L57,M1) + x(L57,M2) + x(L57,M3) + x(L57,M4)
 + x(L57,M5) + x(L57,M6) + x(L57,M7) + x(L57,M8) + x(L57,M9)
 + x(L57,M10) + x(L58,M1) + x(L58,M2) + x(L58,M3) + x(L58,M4)
 + x(L58,M5) + x(L58,M6) + x(L58,M7) + x(L58,M8) + x(L58,M9)
 + x(L58,M10) + x(L59,M1) + x(L59,M2) + x(L59,M3) + x(L59,M4)
 + x(L59,M5) + x(L59,M6) + x(L59,M7) + x(L59,M8) + x(L59,M9)
 + x(L59,M10) + x(L67,M1) + x(L67,M2) + x(L67,M3) + x(L67,M4)
 + x(L67,M5) + x(L67,M6) + x(L67,M7) + x(L67,M8) + x(L67,M9)
 + x(L67,M10) + x(L81,M1) + x(L81,M2) + x(L81,M3) + x(L81,M4)
 + x(L81,M5) + x(L81,M6) + x(L81,M7) + x(L81,M8) + x(L81,M9)
 + x(L81,M10) + x(L82,M1) + x(L82,M2) + x(L82,M3) + x(L82,M4)
 + x(L82,M5) + x(L82,M6) + x(L82,M7) + x(L82,M8) + x(L82,M9)
 + x(L82,M10) + x(L83,M1) + x(L83,M2) + x(L83,M3) + x(L83,M4)
 + x(L83,M5) + x(L83,M6) + x(L83,M7) + x(L83,M8) + x(L83,M9)
 + x(L83,M10) + x(L84,M1) + x(L84,M2) + x(L84,M3) + x(L84,M4)
 + x(L84,M5) + x(L84,M6) + x(L84,M7) + x(L84,M8) + x(L84,M9)
 + x(L84,M10) + x(L89,M1) + x(L89,M2) + x(L89,M3) + x(L89,M4)
 + x(L89,M5) + x(L89,M6) + x(L89,M7) + x(L89,M8) + x(L89,M9)
 + x(L89,M10) + x(L105,M1) + x(L105,M2) + x(L105,M3) + x(L105,M4)
 + x(L105,M5) + x(L105,M6) + x(L105,M7) + x(L105,M8) + x(L105,M9)
 + x(L105,M10) + x(L106,M1) + x(L106,M2) + x(L106,M3) + x(L106,M4)
 + x(L106,M5) + x(L106,M6) + x(L106,M7) + x(L106,M8) + x(L106,M9)
 + x(L106,M10) + x(L107,M1) + x(L107,M2) + x(L107,M3) + x(L107,M4)
 + x(L107,M5) + x(L107,M6) + x(L107,M7) + x(L107,M8) + x(L107,M9)
 + x(L107,M10) + x(L108,M1) + x(L108,M2) + x(L108,M3) + x(L108,M4)
 + x(L108,M5) + x(L108,M6) + x(L108,M7) + x(L108,M8) + x(L108,M9)
 + x(L108,M10) + x(L113,M1) + x(L113,M2) + x(L113,M3) + x(L113,M4)
 + x(L113,M5) + x(L113,M6) + x(L113,M7) + x(L113,M8) + x(L113,M9)
 + x(L113,M10) + x(L116,M1) + x(L116,M2) + x(L116,M3) + x(L116,M4)
 + x(L116,M5) + x(L116,M6) + x(L116,M7) + x(L116,M8) + x(L116,M9)
 + x(L116,M10) + x(L121,M1) + x(L121,M2) + x(L121,M3) + x(L121,M4)
 + x(L121,M5) + x(L121,M6) + x(L121,M7) + x(L121,M8) + x(L121,M9)
 + x(L121,M10) = 1
 traba_unic(J9): + x(L28,M1) + x(L28,M2) + x(L28,M3) + x(L28,M4)
 + x(L28,M5) + x(L28,M6) + x(L28,M7) + x(L28,M8) + x(L28,M9)
 + x(L28,M10) + x(L29,M1) + x(L29,M2) + x(L29,M3) + x(L29,M4)
 + x(L29,M5) + x(L29,M6) + x(L29,M7) + x(L29,M8) + x(L29,M9)
 + x(L29,M10) + x(L30,M1) + x(L30,M2) + x(L30,M3) + x(L30,M4)
 + x(L30,M5) + x(L30,M6) + x(L30,M7) + x(L30,M8) + x(L30,M9)
 + x(L30,M10) + x(L31,M1) + x(L31,M2) + x(L31,M3) + x(L31,M4)
 + x(L31,M5) + x(L31,M6) + x(L31,M7) + x(L31,M8) + x(L31,M9)
 + x(L31,M10) + x(L32,M1) + x(L32,M2) + x(L32,M3) + x(L32,M4)
 + x(L32,M5) + x(L32,M6) + x(L32,M7) + x(L32,M8) + x(L32,M9)
 + x(L32,M10) + x(L44,M1) + x(L44,M2) + x(L44,M3) + x(L44,M4)
 + x(L44,M5) + x(L44,M6) + x(L44,M7) + x(L44,M8) + x(L44,M9)
 + x(L44,M10) + x(L55,M1) + x(L55,M2) + x(L55,M3) + x(L55,M4)
 + x(L55,M5) + x(L55,M6) + x(L55,M7) + x(L55,M8) + x(L55,M9)
 + x(L55,M10) + x(L66,M1) + x(L66,M2) + x(L66,M3) + x(L66,M4)
 + x(L66,M5) + x(L66,M6) + x(L66,M7) + x(L66,M8) + x(L66,M9)
 + x(L66,M10) + x(L80,M1) + x(L80,M2) + x(L80,M3) + x(L80,M4)
 + x(L80,M5) + x(L80,M6) + x(L80,M7) + x(L80,M8) + x(L80,M9)
 + x(L80,M10) + x(L104,M1) + x(L104,M2) + x(L104,M3) + x(L104,M4)
 + x(L104,M5) + x(L104,M6) + x(L104,M7) + x(L104,M8) + x(L104,M9)
 + x(L104,M10) = 1
 traba_unic(J10): + x(L20,M1) + x(L20,M2) + x(L20,M3) + x(L20,M4)
 + x(L20,M5) + x(L20,M6) + x(L20,M7) + x(L20,M8) + x(L20,M9)
 + x(L20,M10) + x(L21,M1) + x(L21,M2) + x(L21,M3) + x(L21,M4)
 + x(L21,M5) + x(L21,M6) + x(L21,M7) + x(L21,M8) + x(L21,M9)
 + x(L21,M10) + x(L22,M1) + x(L22,M2) + x(L22,M3) + x(L22,M4)
 + x(L22,M5) + x(L22,M6) + x(L22,M7) + x(L22,M8) + x(L22,M9)
 + x(L22,M10) + x(L23,M1) + x(L23,M2) + x(L23,M3) + x(L23,M4)
 + x(L23,M5) + x(L23,M6) + x(L23,M7) + x(L23,M8) + x(L23,M9)
 + x(L23,M10) + x(L24,M1) + x(L24,M2) + x(L24,M3) + x(L24,M4)
 + x(L24,M5) + x(L24,M6) + x(L24,M7) + x(L24,M8) + x(L24,M9)
 + x(L24,M10) + x(L25,M1) + x(L25,M2) + x(L25,M3) + x(L25,M4)
 + x(L25,M5) + x(L25,M6) + x(L25,M7) + x(L25,M8) + x(L25,M9)
 + x(L25,M10) + x(L26,M1) + x(L26,M2) + x(L26,M3) + x(L26,M4)
 + x(L26,M5) + x(L26,M6) + x(L26,M7) + x(L26,M8) + x(L26,M9)
 + x(L26,M10) + x(L27,M1) + x(L27,M2) + x(L27,M3) + x(L27,M4)
 + x(L27,M5) + x(L27,M6) + x(L27,M7) + x(L27,M8) + x(L27,M9)
 + x(L27,M10) + x(L32,M1) + x(L32,M2) + x(L32,M3) + x(L32,M4)
 + x(L32,M5) + x(L32,M6) + x(L32,M7) + x(L32,M8) + x(L32,M9)
 + x(L32,M10) + x(L42,M1) + x(L42,M2) + x(L42,M3) + x(L42,M4)
 + x(L42,M5) + x(L42,M6) + x(L42,M7) + x(L42,M8) + x(L42,M9)
 + x(L42,M10) + x(L43,M1) + x(L43,M2) + x(L43,M3) + x(L43,M4)
 + x(L43,M5) + x(L43,M6) + x(L43,M7) + x(L43,M8) + x(L43,M9)
 + x(L43,M10) + x(L53,M1) + x(L53,M2) + x(L53,M3) + x(L53,M4)
 + x(L53,M5) + x(L53,M6) + x(L53,M7) + x(L53,M8) + x(L53,M9)
 + x(L53,M10) + x(L54,M1) + x(L54,M2) + x(L54,M3) + x(L54,M4)
 + x(L54,M5) + x(L54,M6) + x(L54,M7) + x(L54,M8) + x(L54,M9)
 + x(L54,M10) + x(L59,M1) + x(L59,M2) + x(L59,M3) + x(L59,M4)
 + x(L59,M5) + x(L59,M6) + x(L59,M7) + x(L59,M8) + x(L59,M9)
 + x(L59,M10) + x(L65,M1) + x(L65,M2) + x(L65,M3) + x(L65,M4)
 + x(L65,M5) + x(L65,M6) + x(L65,M7) + x(L65,M8) + x(L65,M9)
 + x(L65,M10) + x(L78,M1) + x(L78,M2) + x(L78,M3) + x(L78,M4)
 + x(L78,M5) + x(L78,M6) + x(L78,M7) + x(L78,M8) + x(L78,M9)
 + x(L78,M10) + x(L79,M1) + x(L79,M2) + x(L79,M3) + x(L79,M4)
 + x(L79,M5) + x(L79,M6) + x(L79,M7) + x(L79,M8) + x(L79,M9)
 + x(L79,M10) + x(L84,M1) + x(L84,M2) + x(L84,M3) + x(L84,M4)
 + x(L84,M5) + x(L84,M6) + x(L84,M7) + x(L84,M8) + x(L84,M9)
 + x(L84,M10) + x(L88,M1) + x(L88,M2) + x(L88,M3) + x(L88,M4)
 + x(L88,M5) + x(L88,M6) + x(L88,M7) + x(L88,M8) + x(L88,M9)
 + x(L88,M10) + x(L101,M1) + x(L101,M2) + x(L101,M3) + x(L101,M4)
 + x(L101,M5) + x(L101,M6) + x(L101,M7) + x(L101,M8) + x(L101,M9)
 + x(L101,M10) + x(L102,M1) + x(L102,M2) + x(L102,M3) + x(L102,M4)
 + x(L102,M5) + x(L102,M6) + x(L102,M7) + x(L102,M8) + x(L102,M9)
 + x(L102,M10) + x(L103,M1) + x(L103,M2) + x(L103,M3) + x(L103,M4)
 + x(L103,M5) + x(L103,M6) + x(L103,M7) + x(L103,M8) + x(L103,M9)
 + x(L103,M10) + x(L108,M1) + x(L108,M2) + x(L108,M3) + x(L108,M4)
 + x(L108,M5) + x(L108,M6) + x(L108,M7) + x(L108,M8) + x(L108,M9)
 + x(L108,M10) + x(L112,M1) + x(L112,M2) + x(L112,M3) + x(L112,M4)
 + x(L112,M5) + x(L112,M6) + x(L112,M7) + x(L112,M8) + x(L112,M9)
 + x(L112,M10) + x(L120,M1) + x(L120,M2) + x(L120,M3) + x(L120,M4)
 + x(L120,M5) + x(L120,M6) + x(L120,M7) + x(L120,M8) + x(L120,M9)
 + x(L120,M10) = 1
 traba_unic(J11): + x(L15,M1) + x(L15,M2) + x(L15,M3) + x(L15,M4)
 + x(L15,M5) + x(L15,M6) + x(L15,M7) + x(L15,M8) + x(L15,M9)
 + x(L15,M10) + x(L16,M1) + x(L16,M2) + x(L16,M3) + x(L16,M4)
 + x(L16,M5) + x(L16,M6) + x(L16,M7) + x(L16,M8) + x(L16,M9)
 + x(L16,M10) + x(L17,M1) + x(L17,M2) + x(L17,M3) + x(L17,M4)
 + x(L17,M5) + x(L17,M6) + x(L17,M7) + x(L17,M8) + x(L17,M9)
 + x(L17,M10) + x(L18,M1) + x(L18,M2) + x(L18,M3) + x(L18,M4)
 + x(L18,M5) + x(L18,M6) + x(L18,M7) + x(L18,M8) + x(L18,M9)
 + x(L18,M10) + x(L19,M1) + x(L19,M2) + x(L19,M3) + x(L19,M4)
 + x(L19,M5) + x(L19,M6) + x(L19,M7) + x(L19,M8) + x(L19,M9)
 + x(L19,M10) + x(L26,M1) + x(L26,M2) + x(L26,M3) + x(L26,M4)
 + x(L26,M5) + x(L26,M6) + x(L26,M7) + x(L26,M8) + x(L26,M9)
 + x(L26,M10) + x(L27,M1) + x(L27,M2) + x(L27,M3) + x(L27,M4)
 + x(L27,M5) + x(L27,M6) + x(L27,M7) + x(L27,M8) + x(L27,M9)
 + x(L27,M10) + x(L31,M1) + x(L31,M2) + x(L31,M3) + x(L31,M4)
 + x(L31,M5) + x(L31,M6) + x(L31,M7) + x(L31,M8) + x(L31,M9)
 + x(L31,M10) + x(L40,M1) + x(L40,M2) + x(L40,M3) + x(L40,M4)
 + x(L40,M5) + x(L40,M6) + x(L40,M7) + x(L40,M8) + x(L40,M9)
 + x(L40,M10) + x(L41,M1) + x(L41,M2) + x(L41,M3) + x(L41,M4)
 + x(L41,M5) + x(L41,M6) + x(L41,M7) + x(L41,M8) + x(L41,M9)
 + x(L41,M10) + x(L51,M1) + x(L51,M2) + x(L51,M3) + x(L51,M4)
 + x(L51,M5) + x(L51,M6) + x(L51,M7) + x(L51,M8) + x(L51,M9)
 + x(L51,M10) + x(L52,M1) + x(L52,M2) + x(L52,M3) + x(L52,M4)
 + x(L52,M5) + x(L52,M6) + x(L52,M7) + x(L52,M8) + x(L52,M9)
 + x(L52,M10) + x(L58,M1) + x(L58,M2) + x(L58,M3) + x(L58,M4)
 + x(L58,M5) + x(L58,M6) + x(L58,M7) + x(L58,M8) + x(L58,M9)
 + x(L58,M10) + x(L64,M1) + x(L64,M2) + x(L64,M3) + x(L64,M4)
 + x(L64,M5) + x(L64,M6) + x(L64,M7) + x(L64,M8) + x(L64,M9)
 + x(L64,M10) + x(L76,M1) + x(L76,M2) + x(L76,M3) + x(L76,M4)
 + x(L76,M5) + x(L76,M6) + x(L76,M7) + x(L76,M8) + x(L76,M9)
 + x(L76,M10) + x(L77,M1) + x(L77,M2) + x(L77,M3) + x(L77,M4)
 + x(L77,M5) + x(L77,M6) + x(L77,M7) + x(L77,M8) + x(L77,M9)
 + x(L77,M10) + x(L83,M1) + x(L83,M2) + x(L83,M3) + x(L83,M4)
 + x(L83,M5) + x(L83,M6) + x(L83,M7) + x(L83,M8) + x(L83,M9)
 + x(L83,M10) + x(L87,M1) + x(L87,M2) + x(L87,M3) + x(L87,M4)
 + x(L87,M5) + x(L87,M6) + x(L87,M7) + x(L87,M8) + x(L87,M9)
 + x(L87,M10) + x(L99,M1) + x(L99,M2) + x(L99,M3) + x(L99,M4)
 + x(L99,M5) + x(L99,M6) + x(L99,M7) + x(L99,M8) + x(L99,M9)
 + x(L99,M10) + x(L100,M1) + x(L100,M2) + x(L100,M3) + x(L100,M4)
 + x(L100,M5) + x(L100,M6) + x(L100,M7) + x(L100,M8) + x(L100,M9)
 + x(L100,M10) + x(L103,M1) + x(L103,M2) + x(L103,M3) + x(L103,M4)
 + x(L103,M5) + x(L103,M6) + x(L103,M7) + x(L103,M8) + x(L103,M9)
 + x(L103,M10) + x(L107,M1) + x(L107,M2) + x(L107,M3) + x(L107,M4)
 + x(L107,M5) + x(L107,M6) + x(L107,M7) + x(L107,M8) + x(L107,M9)
 + x(L107,M10) + x(L111,M1) + x(L111,M2) + x(L111,M3) + x(L111,M4)
 + x(L111,M5) + x(L111,M6) + x(L111,M7) + x(L111,M8) + x(L111,M9)
 + x(L111,M10) + x(L119,M1) + x(L119,M2) + x(L119,M3) + x(L119,M4)
 + x(L119,M5) + x(L119,M6) + x(L119,M7) + x(L119,M8) + x(L119,M9)
 + x(L119,M10) = 1
 traba_unic(J12): + x(L13,M1) + x(L13,M2) + x(L13,M3) + x(L13,M4)
 + x(L13,M5) + x(L13,M6) + x(L13,M7) + x(L13,M8) + x(L13,M9)
 + x(L13,M10) + x(L14,M1) + x(L14,M2) + x(L14,M3) + x(L14,M4)
 + x(L14,M5) + x(L14,M6) + x(L14,M7) + x(L14,M8) + x(L14,M9)
 + x(L14,M10) + x(L19,M1) + x(L19,M2) + x(L19,M3) + x(L19,M4)
 + x(L19,M5) + x(L19,M6) + x(L19,M7) + x(L19,M8) + x(L19,M9)
 + x(L19,M10) + x(L25,M1) + x(L25,M2) + x(L25,M3) + x(L25,M4)
 + x(L25,M5) + x(L25,M6) + x(L25,M7) + x(L25,M8) + x(L25,M9)
 + x(L25,M10) + x(L30,M1) + x(L30,M2) + x(L30,M3) + x(L30,M4)
 + x(L30,M5) + x(L30,M6) + x(L30,M7) + x(L30,M8) + x(L30,M9)
 + x(L30,M10) + x(L39,M1) + x(L39,M2) + x(L39,M3) + x(L39,M4)
 + x(L39,M5) + x(L39,M6) + x(L39,M7) + x(L39,M8) + x(L39,M9)
 + x(L39,M10) + x(L50,M1) + x(L50,M2) + x(L50,M3) + x(L50,M4)
 + x(L50,M5) + x(L50,M6) + x(L50,M7) + x(L50,M8) + x(L50,M9)
 + x(L50,M10) + x(L63,M1) + x(L63,M2) + x(L63,M3) + x(L63,M4)
 + x(L63,M5) + x(L63,M6) + x(L63,M7) + x(L63,M8) + x(L63,M9)
 + x(L63,M10) + x(L75,M1) + x(L75,M2) + x(L75,M3) + x(L75,M4)
 + x(L75,M5) + x(L75,M6) + x(L75,M7) + x(L75,M8) + x(L75,M9)
 + x(L75,M10) + x(L98,M1) + x(L98,M2) + x(L98,M3) + x(L98,M4)
 + x(L98,M5) + x(L98,M6) + x(L98,M7) + x(L98,M8) + x(L98,M9)
 + x(L98,M10) = 1
 traba_unic(J13): + x(L11,M1) + x(L11,M2) + x(L11,M3) + x(L11,M4)
 + x(L11,M5) + x(L11,M6) + x(L11,M7) + x(L11,M8) + x(L11,M9)
 + x(L11,M10) + x(L12,M1) + x(L12,M2) + x(L12,M3) + x(L12,M4)
 + x(L12,M5) + x(L12,M6) + x(L12,M7) + x(L12,M8) + x(L12,M9)
 + x(L12,M10) + x(L18,M1) + x(L18,M2) + x(L18,M3) + x(L18,M4)
 + x(L18,M5) + x(L18,M6) + x(L18,M7) + x(L18,M8) + x(L18,M9)
 + x(L18,M10) + x(L24,M1) + x(L24,M2) + x(L24,M3) + x(L24,M4)
 + x(L24,M5) + x(L24,M6) + x(L24,M7) + x(L24,M8) + x(L24,M9)
 + x(L24,M10) + x(L38,M1) + x(L38,M2) + x(L38,M3) + x(L38,M4)
 + x(L38,M5) + x(L38,M6) + x(L38,M7) + x(L38,M8) + x(L38,M9)
 + x(L38,M10) + x(L49,M1) + x(L49,M2) + x(L49,M3) + x(L49,M4)
 + x(L49,M5) + x(L49,M6) + x(L49,M7) + x(L49,M8) + x(L49,M9)
 + x(L49,M10) + x(L74,M1) + x(L74,M2) + x(L74,M3) + x(L74,M4)
 + x(L74,M5) + x(L74,M6) + x(L74,M7) + x(L74,M8) + x(L74,M9)
 + x(L74,M10) + x(L97,M1) + x(L97,M2) + x(L97,M3) + x(L97,M4)
 + x(L97,M5) + x(L97,M6) + x(L97,M7) + x(L97,M8) + x(L97,M9)
 + x(L97,M10) = 1
 traba_unic(J14): + x(L9,M1) + x(L9,M2) + x(L9,M3) + x(L9,M4) + x(L9,M5)
 + x(L9,M6) + x(L9,M7) + x(L9,M8) + x(L9,M9) + x(L9,M10) + x(L10,M1)
 + x(L10,M2) + x(L10,M3) + x(L10,M4) + x(L10,M5) + x(L10,M6) + x(L10,M7)
 + x(L10,M8) + x(L10,M9) + x(L10,M10) + x(L37,M1) + x(L37,M2)
 + x(L37,M3) + x(L37,M4) + x(L37,M5) + x(L37,M6) + x(L37,M7) + x(L37,M8)
 + x(L37,M9) + x(L37,M10) + x(L73,M1) + x(L73,M2) + x(L73,M3)
 + x(L73,M4) + x(L73,M5) + x(L73,M6) + x(L73,M7) + x(L73,M8) + x(L73,M9)
 + x(L73,M10) + x(L96,M1) + x(L96,M2) + x(L96,M3) + x(L96,M4)
 + x(L96,M5) + x(L96,M6) + x(L96,M7) + x(L96,M8) + x(L96,M9)
 + x(L96,M10) = 1
 traba_unic(J15): + x(L8,M1) + x(L8,M2) + x(L8,M3) + x(L8,M4) + x(L8,M5)
 + x(L8,M6) + x(L8,M7) + x(L8,M8) + x(L8,M9) + x(L8,M10) = 1
 traba_unic(J16): + x(L7,M1) + x(L7,M2) + x(L7,M3) + x(L7,M4) + x(L7,M5)
 + x(L7,M6) + x(L7,M7) + x(L7,M8) + x(L7,M9) + x(L7,M10) = 1
 traba_unic(J17): + x(L6,M1) + x(L6,M2) + x(L6,M3) + x(L6,M4) + x(L6,M5)
 + x(L6,M6) + x(L6,M7) + x(L6,M8) + x(L6,M9) + x(L6,M10) + x(L95,M1)
 + x(L95,M2) + x(L95,M3) + x(L95,M4) + x(L95,M5) + x(L95,M6) + x(L95,M7)
 + x(L95,M8) + x(L95,M9) + x(L95,M10) = 1
 traba_unic(J18): + x(L4,M1) + x(L4,M2) + x(L4,M3) + x(L4,M4) + x(L4,M5)
 + x(L4,M6) + x(L4,M7) + x(L4,M8) + x(L4,M9) + x(L4,M10) + x(L5,M1)
 + x(L5,M2) + x(L5,M3) + x(L5,M4) + x(L5,M5) + x(L5,M6) + x(L5,M7)
 + x(L5,M8) + x(L5,M9) + x(L5,M10) + x(L17,M1) + x(L17,M2) + x(L17,M3)
 + x(L17,M4) + x(L17,M5) + x(L17,M6) + x(L17,M7) + x(L17,M8) + x(L17,M9)
 + x(L17,M10) + x(L23,M1) + x(L23,M2) + x(L23,M3) + x(L23,M4)
 + x(L23,M5) + x(L23,M6) + x(L23,M7) + x(L23,M8) + x(L23,M9)
 + x(L23,M10) + x(L36,M1) + x(L36,M2) + x(L36,M3) + x(L36,M4)
 + x(L36,M5) + x(L36,M6) + x(L36,M7) + x(L36,M8) + x(L36,M9)
 + x(L36,M10) + x(L48,M1) + x(L48,M2) + x(L48,M3) + x(L48,M4)
 + x(L48,M5) + x(L48,M6) + x(L48,M7) + x(L48,M8) + x(L48,M9)
 + x(L48,M10) + x(L72,M1) + x(L72,M2) + x(L72,M3) + x(L72,M4)
 + x(L72,M5) + x(L72,M6) + x(L72,M7) + x(L72,M8) + x(L72,M9)
 + x(L72,M10) + x(L94,M1) + x(L94,M2) + x(L94,M3) + x(L94,M4)
 + x(L94,M5) + x(L94,M6) + x(L94,M7) + x(L94,M8) + x(L94,M9)
 + x(L94,M10) = 1
 traba_unic(J19): + x(L2,M1) + x(L2,M2) + x(L2,M3) + x(L2,M4) + x(L2,M5)
 + x(L2,M6) + x(L2,M7) + x(L2,M8) + x(L2,M9) + x(L2,M10) + x(L3,M1)
 + x(L3,M2) + x(L3,M3) + x(L3,M4) + x(L3,M5) + x(L3,M6) + x(L3,M7)
 + x(L3,M8) + x(L3,M9) + x(L3,M10) + x(L22,M1) + x(L22,M2) + x(L22,M3)
 + x(L22,M4) + x(L22,M5) + x(L22,M6) + x(L22,M7) + x(L22,M8) + x(L22,M9)
 + x(L22,M10) + x(L35,M1) + x(L35,M2) + x(L35,M3) + x(L35,M4)
 + x(L35,M5) + x(L35,M6) + x(L35,M7) + x(L35,M8) + x(L35,M9)
 + x(L35,M10) + x(L47,M1) + x(L47,M2) + x(L47,M3) + x(L47,M4)
 + x(L47,M5) + x(L47,M6) + x(L47,M7) + x(L47,M8) + x(L47,M9)
 + x(L47,M10) + x(L71,M1) + x(L71,M2) + x(L71,M3) + x(L71,M4)
 + x(L71,M5) + x(L71,M6) + x(L71,M7) + x(L71,M8) + x(L71,M9)
 + x(L71,M10) + x(L93,M1) + x(L93,M2) + x(L93,M3) + x(L93,M4)
 + x(L93,M5) + x(L93,M6) + x(L93,M7) + x(L93,M8) + x(L93,M9)
 + x(L93,M10) = 1
 traba_unic(J20): + x(L1,M1) + x(L1,M2) + x(L1,M3) + x(L1,M4) + x(L1,M5)
 + x(L1,M6) + x(L1,M7) + x(L1,M8) + x(L1,M9) + x(L1,M10) + x(L3,M1)
 + x(L3,M2) + x(L3,M3) + x(L3,M4) + x(L3,M5) + x(L3,M6) + x(L3,M7)
 + x(L3,M8) + x(L3,M9) + x(L3,M10) + x(L5,M1) + x(L5,M2) + x(L5,M3)
 + x(L5,M4) + x(L5,M5) + x(L5,M6) + x(L5,M7) + x(L5,M8) + x(L5,M9)
 + x(L5,M10) + x(L10,M1) + x(L10,M2) + x(L10,M3) + x(L10,M4) + x(L10,M5)
 + x(L10,M6) + x(L10,M7) + x(L10,M8) + x(L10,M9) + x(L10,M10)
 + x(L12,M1) + x(L12,M2) + x(L12,M3) + x(L12,M4) + x(L12,M5) + x(L12,M6)
 + x(L12,M7) + x(L12,M8) + x(L12,M9) + x(L12,M10) + x(L14,M1)
 + x(L14,M2) + x(L14,M3) + x(L14,M4) + x(L14,M5) + x(L14,M6) + x(L14,M7)
 + x(L14,M8) + x(L14,M9) + x(L14,M10) + x(L16,M1) + x(L16,M2)
 + x(L16,M3) + x(L16,M4) + x(L16,M5) + x(L16,M6) + x(L16,M7) + x(L16,M8)
 + x(L16,M9) + x(L16,M10) + x(L21,M1) + x(L21,M2) + x(L21,M3)
 + x(L21,M4) + x(L21,M5) + x(L21,M6) + x(L21,M7) + x(L21,M8) + x(L21,M9)
 + x(L21,M10) + x(L27,M1) + x(L27,M2) + x(L27,M3) + x(L27,M4)
 + x(L27,M5) + x(L27,M6) + x(L27,M7) + x(L27,M8) + x(L27,M9)
 + x(L27,M10) + x(L29,M1) + x(L29,M2) + x(L29,M3) + x(L29,M4)
 + x(L29,M5) + x(L29,M6) + x(L29,M7) + x(L29,M8) + x(L29,M9)
 + x(L29,M10) + x(L34,M1) + x(L34,M2) + x(L34,M3) + x(L34,M4)
 + x(L34,M5) + x(L34,M6) + x(L34,M7) + x(L34,M8) + x(L34,M9)
 + x(L34,M10) + x(L41,M1) + x(L41,M2) + x(L41,M3) + x(L41,M4)
 + x(L41,M5) + x(L41,M6) + x(L41,M7) + x(L41,M8) + x(L41,M9)
 + x(L41,M10) + x(L43,M1) + x(L43,M2) + x(L43,M3) + x(L43,M4)
 + x(L43,M5) + x(L43,M6) + x(L43,M7) + x(L43,M8) + x(L43,M9)
 + x(L43,M10) + x(L46,M1) + x(L46,M2) + x(L46,M3) + x(L46,M4)
 + x(L46,M5) + x(L46,M6) + x(L46,M7) + x(L46,M8) + x(L46,M9)
 + x(L46,M10) + x(L52,M1) + x(L52,M2) + x(L52,M3) + x(L52,M4)
 + x(L52,M5) + x(L52,M6) + x(L52,M7) + x(L52,M8) + x(L52,M9)
 + x(L52,M10) + x(L54,M1) + x(L54,M2) + x(L54,M3) + x(L54,M4)
 + x(L54,M5) + x(L54,M6) + x(L54,M7) + x(L54,M8) + x(L54,M9)
 + x(L54,M10) + x(L57,M1) + x(L57,M2) + x(L57,M3) + x(L57,M4)
 + x(L57,M5) + x(L57,M6) + x(L57,M7) + x(L57,M8) + x(L57,M9)
 + x(L57,M10) + x(L62,M1) + x(L62,M2) + x(L62,M3) + x(L62,M4)
 + x(L62,M5) + x(L62,M6) + x(L62,M7) + x(L62,M8) + x(L62,M9)
 + x(L62,M10) + x(L70,M1) + x(L70,M2) + x(L70,M3) + x(L70,M4)
 + x(L70,M5) + x(L70,M6) + x(L70,M7) + x(L70,M8) + x(L70,M9)
 + x(L70,M10) + x(L77,M1) + x(L77,M2) + x(L77,M3) + x(L77,M4)
 + x(L77,M5) + x(L77,M6) + x(L77,M7) + x(L77,M8) + x(L77,M9)
 + x(L77,M10) + x(L79,M1) + x(L79,M2) + x(L79,M3) + x(L79,M4)
 + x(L79,M5) + x(L79,M6) + x(L79,M7) + x(L79,M8) + x(L79,M9)
 + x(L79,M10) + x(L82,M1) + x(L82,M2) + x(L82,M3) + x(L82,M4)
 + x(L82,M5) + x(L82,M6) + x(L82,M7) + x(L82,M8) + x(L82,M9)
 + x(L82,M10) + x(L86,M1) + x(L86,M2) + x(L86,M3) + x(L86,M4)
 + x(L86,M5) + x(L86,M6) + x(L86,M7) + x(L86,M8) + x(L86,M9)
 + x(L86,M10) + x(L92,M1) + x(L92,M2) + x(L92,M3) + x(L92,M4)
 + x(L92,M5) + x(L92,M6) + x(L92,M7) + x(L92,M8) + x(L92,M9)
 + x(L92,M10) + x(L100,M1) + x(L100,M2) + x(L100,M3) + x(L100,M4)
 + x(L100,M5) + x(L100,M6) + x(L100,M7) + x(L100,M8) + x(L100,M9)
 + x(L100,M10) + x(L102,M1) + x(L102,M2) + x(L102,M3) + x(L102,M4)
 + x(L102,M5) + x(L102,M6) + x(L102,M7) + x(L102,M8) + x(L102,M9)
 + x(L102,M10) + x(L106,M1) + x(L106,M2) + x(L106,M3) + x(L106,M4)
 + x(L106,M5) + x(L106,M6) + x(L106,M7) + x(L106,M8) + x(L106,M9)
 + x(L106,M10) + x(L110,M1) + x(L110,M2) + x(L110,M3) + x(L110,M4)
 + x(L110,M5) + x(L110,M6) + x(L110,M7) + x(L110,M8) + x(L110,M9)
 + x(L110,M10) + x(L115,M1) + x(L115,M2) + x(L115,M3) + x(L115,M4)
 + x(L115,M5) + x(L115,M6) + x(L115,M7) + x(L115,M8) + x(L115,M9)
 + x(L115,M10) + x(L118,M1) + x(L118,M2) + x(L118,M3) + x(L118,M4)
 + x(L118,M5) + x(L118,M6) + x(L118,M7) + x(L118,M8) + x(L118,M9)
 + x(L118,M10) = 1
 limit_peso(L1,M1): + 11 x(L1,M1) <= 60
 limit_peso(L1,M2): + 11 x(L1,M2) <= 60
 limit_peso(L1,M3): + 11 x(L1,M3) <= 45
 limit_peso(L1,M4): + 11 x(L1,M4) <= 45
 limit_peso(L1,M5): + 11 x(L1,M5) <= 35
 limit_peso(L1,M6): + 11 x(L1,M6) <= 35
 limit_peso(L1,M7): + 11 x(L1,M7) <= 30
 limit_peso(L1,M8): + 11 x(L1,M8) <= 25
 limit_peso(L1,M9): + 11 x(L1,M9) <= 25
 limit_peso(L1,M10): + 11 x(L1,M10) <= 25
 limit_peso(L2,M1): + 26 x(L2,M1) <= 60
 limit_peso(L2,M2): + 26 x(L2,M2) <= 60
 limit_peso(L2,M3): + 26 x(L2,M3) <= 45
 limit_peso(L2,M4): + 26 x(L2,M4) <= 45
 limit_peso(L2,M5): + 26 x(L2,M5) <= 35
 limit_peso(L2,M6): + 26 x(L2,M6) <= 35
 limit_peso(L2,M7): + 26 x(L2,M7) <= 30
 limit_peso(L2,M8): + 26 x(L2,M8) <= 25
 limit_peso(L2,M9): + 26 x(L2,M9) <= 25
 limit_peso(L2,M10): + 26 x(L2,M10) <= 25
 limit_peso(L3,M1): + 37 x(L3,M1) <= 60
 limit_peso(L3,M2): + 37 x(L3,M2) <= 60
 limit_peso(L3,M3): + 37 x(L3,M3) <= 45
 limit_peso(L3,M4): + 37 x(L3,M4) <= 45
 limit_peso(L3,M5): + 37 x(L3,M5) <= 35
 limit_peso(L3,M6): + 37 x(L3,M6) <= 35
 limit_peso(L3,M7): + 37 x(L3,M7) <= 30
 limit_peso(L3,M8): + 37 x(L3,M8) <= 25
 limit_peso(L3,M9): + 37 x(L3,M9) <= 25
 limit_peso(L3,M10): + 37 x(L3,M10) <= 25
 limit_peso(L4,M1): + 24 x(L4,M1) <= 60
 limit_peso(L4,M2): + 24 x(L4,M2) <= 60
 limit_peso(L4,M3): + 24 x(L4,M3) <= 45
 limit_peso(L4,M4): + 24 x(L4,M4) <= 45
 limit_peso(L4,M5): + 24 x(L4,M5) <= 35
 limit_peso(L4,M6): + 24 x(L4,M6) <= 35
 limit_peso(L4,M7): + 24 x(L4,M7) <= 30
 limit_peso(L4,M8): + 24 x(L4,M8) <= 25
 limit_peso(L4,M9): + 24 x(L4,M9) <= 25
 limit_peso(L4,M10): + 24 x(L4,M10) <= 25
 limit_peso(L5,M1): + 35 x(L5,M1) <= 60
 limit_peso(L5,M2): + 35 x(L5,M2) <= 60
 limit_peso(L5,M3): + 35 x(L5,M3) <= 45
 limit_peso(L5,M4): + 35 x(L5,M4) <= 45
 limit_peso(L5,M5): + 35 x(L5,M5) <= 35
 limit_peso(L5,M6): + 35 x(L5,M6) <= 35
 limit_peso(L5,M7): + 35 x(L5,M7) <= 30
 limit_peso(L5,M8): + 35 x(L5,M8) <= 25
 limit_peso(L5,M9): + 35 x(L5,M9) <= 25
 limit_peso(L5,M10): + 35 x(L5,M10) <= 25
 limit_peso(L6,M1): + 30 x(L6,M1) <= 60
 limit_peso(L6,M2): + 30 x(L6,M2) <= 60
 limit_peso(L6,M3): + 30 x(L6,M3) <= 45
 limit_peso(L6,M4): + 30 x(L6,M4) <= 45
 limit_peso(L6,M5): + 30 x(L6,M5) <= 35
 limit_peso(L6,M6): + 30 x(L6,M6) <= 35
 limit_peso(L6,M7): + 30 x(L6,M7) <= 30
 limit_peso(L6,M8): + 30 x(L6,M8) <= 25
 limit_peso(L6,M9): + 30 x(L6,M9) <= 25
 limit_peso(L6,M10): + 30 x(L6,M10) <= 25
 limit_peso(L7,M1): + 38 x(L7,M1) <= 60
 limit_peso(L7,M2): + 38 x(L7,M2) <= 60
 limit_peso(L7,M3): + 38 x(L7,M3) <= 45
 limit_peso(L7,M4): + 38 x(L7,M4) <= 45
 limit_peso(L7,M5): + 38 x(L7,M5) <= 35
 limit_peso(L7,M6): + 38 x(L7,M6) <= 35
 limit_peso(L7,M7): + 38 x(L7,M7) <= 30
 limit_peso(L7,M8): + 38 x(L7,M8) <= 25
 limit_peso(L7,M9): + 38 x(L7,M9) <= 25
 limit_peso(L7,M10): + 38 x(L7,M10) <= 25
 limit_peso(L8,M1): + 39 x(L8,M1) <= 60
 limit_peso(L8,M2): + 39 x(L8,M2) <= 60
 limit_peso(L8,M3): + 39 x(L8,M3) <= 45
 limit_peso(L8,M4): + 39 x(L8,M4) <= 45
 limit_peso(L8,M5): + 39 x(L8,M5) <= 35
 limit_peso(L8,M6): + 39 x(L8,M6) <= 35
 limit_peso(L8,M7): + 39 x(L8,M7) <= 30
 limit_peso(L8,M8): + 39 x(L8,M8) <= 25
 limit_peso(L8,M9): + 39 x(L8,M9) <= 25
 limit_peso(L8,M10): + 39 x(L8,M10) <= 25
 limit_peso(L9,M1): + 28 x(L9,M1) <= 60
 limit_peso(L9,M2): + 28 x(L9,M2) <= 60
 limit_peso(L9,M3): + 28 x(L9,M3) <= 45
 limit_peso(L9,M4): + 28 x(L9,M4) <= 45
 limit_peso(L9,M5): + 28 x(L9,M5) <= 35
 limit_peso(L9,M6): + 28 x(L9,M6) <= 35
 limit_peso(L9,M7): + 28 x(L9,M7) <= 30
 limit_peso(L9,M8): + 28 x(L9,M8) <= 25
 limit_peso(L9,M9): + 28 x(L9,M9) <= 25
 limit_peso(L9,M10): + 28 x(L9,M10) <= 25
 limit_peso(L10,M1): + 39 x(L10,M1) <= 60
 limit_peso(L10,M2): + 39 x(L10,M2) <= 60
 limit_peso(L10,M3): + 39 x(L10,M3) <= 45
 limit_peso(L10,M4): + 39 x(L10,M4) <= 45
 limit_peso(L10,M5): + 39 x(L10,M5) <= 35
 limit_peso(L10,M6): + 39 x(L10,M6) <= 35
 limit_peso(L10,M7): + 39 x(L10,M7) <= 30
 limit_peso(L10,M8): + 39 x(L10,M8) <= 25
 limit_peso(L10,M9): + 39 x(L10,M9) <= 25
 limit_peso(L10,M10): + 39 x(L10,M10) <= 25
 limit_peso(L11,M1): + 23 x(L11,M1) <= 60
 limit_peso(L11,M2): + 23 x(L11,M2) <= 60
 limit_peso(L11,M3): + 23 x(L11,M3) <= 45
 limit_peso(L11,M4): + 23 x(L11,M4) <= 45
 limit_peso(L11,M5): + 23 x(L11,M5) <= 35
 limit_peso(L11,M6): + 23 x(L11,M6) <= 35
 limit_peso(L11,M7): + 23 x(L11,M7) <= 30
 limit_peso(L11,M8): + 23 x(L11,M8) <= 25
 limit_peso(L11,M9): + 23 x(L11,M9) <= 25
 limit_peso(L11,M10): + 23 x(L11,M10) <= 25
 limit_peso(L12,M1): + 34 x(L12,M1) <= 60
 limit_peso(L12,M2): + 34 x(L12,M2) <= 60
 limit_peso(L12,M3): + 34 x(L12,M3) <= 45
 limit_peso(L12,M4): + 34 x(L12,M4) <= 45
 limit_peso(L12,M5): + 34 x(L12,M5) <= 35
 limit_peso(L12,M6): + 34 x(L12,M6) <= 35
 limit_peso(L12,M7): + 34 x(L12,M7) <= 30
 limit_peso(L12,M8): + 34 x(L12,M8) <= 25
 limit_peso(L12,M9): + 34 x(L12,M9) <= 25
 limit_peso(L12,M10): + 34 x(L12,M10) <= 25
 limit_peso(L13,M1): + 20 x(L13,M1) <= 60
 limit_peso(L13,M2): + 20 x(L13,M2) <= 60
 limit_peso(L13,M3): + 20 x(L13,M3) <= 45
 limit_peso(L13,M4): + 20 x(L13,M4) <= 45
 limit_peso(L13,M5): + 20 x(L13,M5) <= 35
 limit_peso(L13,M6): + 20 x(L13,M6) <= 35
 limit_peso(L13,M7): + 20 x(L13,M7) <= 30
 limit_peso(L13,M8): + 20 x(L13,M8) <= 25
 limit_peso(L13,M9): + 20 x(L13,M9) <= 25
 limit_peso(L13,M10): + 20 x(L13,M10) <= 25
 limit_peso(L14,M1): + 31 x(L14,M1) <= 60
 limit_peso(L14,M2): + 31 x(L14,M2) <= 60
 limit_peso(L14,M3): + 31 x(L14,M3) <= 45
 limit_peso(L14,M4): + 31 x(L14,M4) <= 45
 limit_peso(L14,M5): + 31 x(L14,M5) <= 35
 limit_peso(L14,M6): + 31 x(L14,M6) <= 35
 limit_peso(L14,M7): + 31 x(L14,M7) <= 30
 limit_peso(L14,M8): + 31 x(L14,M8) <= 25
 limit_peso(L14,M9): + 31 x(L14,M9) <= 25
 limit_peso(L14,M10): + 31 x(L14,M10) <= 25
 limit_peso(L15,M1): + 15 x(L15,M1) <= 60
 limit_peso(L15,M2): + 15 x(L15,M2) <= 60
 limit_peso(L15,M3): + 15 x(L15,M3) <= 45
 limit_peso(L15,M4): + 15 x(L15,M4) <= 45
 limit_peso(L15,M5): + 15 x(L15,M5) <= 35
 limit_peso(L15,M6): + 15 x(L15,M6) <= 35
 limit_peso(L15,M7): + 15 x(L15,M7) <= 30
 limit_peso(L15,M8): + 15 x(L15,M8) <= 25
 limit_peso(L15,M9): + 15 x(L15,M9) <= 25
 limit_peso(L15,M10): + 15 x(L15,M10) <= 25
 limit_peso(L16,M1): + 26 x(L16,M1) <= 60
 limit_peso(L16,M2): + 26 x(L16,M2) <= 60
 limit_peso(L16,M3): + 26 x(L16,M3) <= 45
 limit_peso(L16,M4): + 26 x(L16,M4) <= 45
 limit_peso(L16,M5): + 26 x(L16,M5) <= 35
 limit_peso(L16,M6): + 26 x(L16,M6) <= 35
 limit_peso(L16,M7): + 26 x(L16,M7) <= 30
 limit_peso(L16,M8): + 26 x(L16,M8) <= 25
 limit_peso(L16,M9): + 26 x(L16,M9) <= 25
 limit_peso(L16,M10): + 26 x(L16,M10) <= 25
 limit_peso(L17,M1): + 39 x(L17,M1) <= 60
 limit_peso(L17,M2): + 39 x(L17,M2) <= 60
 limit_peso(L17,M3): + 39 x(L17,M3) <= 45
 limit_peso(L17,M4): + 39 x(L17,M4) <= 45
 limit_peso(L17,M5): + 39 x(L17,M5) <= 35
 limit_peso(L17,M6): + 39 x(L17,M6) <= 35
 limit_peso(L17,M7): + 39 x(L17,M7) <= 30
 limit_peso(L17,M8): + 39 x(L17,M8) <= 25
 limit_peso(L17,M9): + 39 x(L17,M9) <= 25
 limit_peso(L17,M10): + 39 x(L17,M10) <= 25
 limit_peso(L18,M1): + 38 x(L18,M1) <= 60
 limit_peso(L18,M2): + 38 x(L18,M2) <= 60
 limit_peso(L18,M3): + 38 x(L18,M3) <= 45
 limit_peso(L18,M4): + 38 x(L18,M4) <= 45
 limit_peso(L18,M5): + 38 x(L18,M5) <= 35
 limit_peso(L18,M6): + 38 x(L18,M6) <= 35
 limit_peso(L18,M7): + 38 x(L18,M7) <= 30
 limit_peso(L18,M8): + 38 x(L18,M8) <= 25
 limit_peso(L18,M9): + 38 x(L18,M9) <= 25
 limit_peso(L18,M10): + 38 x(L18,M10) <= 25
 limit_peso(L19,M1): + 35 x(L19,M1) <= 60
 limit_peso(L19,M2): + 35 x(L19,M2) <= 60
 limit_peso(L19,M3): + 35 x(L19,M3) <= 45
 limit_peso(L19,M4): + 35 x(L19,M4) <= 45
 limit_peso(L19,M5): + 35 x(L19,M5) <= 35
 limit_peso(L19,M6): + 35 x(L19,M6) <= 35
 limit_peso(L19,M7): + 35 x(L19,M7) <= 30
 limit_peso(L19,M8): + 35 x(L19,M8) <= 25
 limit_peso(L19,M9): + 35 x(L19,M9) <= 25
 limit_peso(L19,M10): + 35 x(L19,M10) <= 25
 limit_peso(L20,M1): + 14 x(L20,M1) <= 60
 limit_peso(L20,M2): + 14 x(L20,M2) <= 60
 limit_peso(L20,M3): + 14 x(L20,M3) <= 45
 limit_peso(L20,M4): + 14 x(L20,M4) <= 45
 limit_peso(L20,M5): + 14 x(L20,M5) <= 35
 limit_peso(L20,M6): + 14 x(L20,M6) <= 35
 limit_peso(L20,M7): + 14 x(L20,M7) <= 30
 limit_peso(L20,M8): + 14 x(L20,M8) <= 25
 limit_peso(L20,M9): + 14 x(L20,M9) <= 25
 limit_peso(L20,M10): + 14 x(L20,M10) <= 25
 limit_peso(L21,M1): + 25 x(L21,M1) <= 60
 limit_peso(L21,M2): + 25 x(L21,M2) <= 60
 limit_peso(L21,M3): + 25 x(L21,M3) <= 45
 limit_peso(L21,M4): + 25 x(L21,M4) <= 45
 limit_peso(L21,M5): + 25 x(L21,M5) <= 35
 limit_peso(L21,M6): + 25 x(L21,M6) <= 35
 limit_peso(L21,M7): + 25 x(L21,M7) <= 30
 limit_peso(L21,M8): + 25 x(L21,M8) <= 25
 limit_peso(L21,M9): + 25 x(L21,M9) <= 25
 limit_peso(L21,M10): + 25 x(L21,M10) <= 25
 limit_peso(L22,M1): + 40 x(L22,M1) <= 60
 limit_peso(L22,M2): + 40 x(L22,M2) <= 60
 limit_peso(L22,M3): + 40 x(L22,M3) <= 45
 limit_peso(L22,M4): + 40 x(L22,M4) <= 45
 limit_peso(L22,M5): + 40 x(L22,M5) <= 35
 limit_peso(L22,M6): + 40 x(L22,M6) <= 35
 limit_peso(L22,M7): + 40 x(L22,M7) <= 30
 limit_peso(L22,M8): + 40 x(L22,M8) <= 25
 limit_peso(L22,M9): + 40 x(L22,M9) <= 25
 limit_peso(L22,M10): + 40 x(L22,M10) <= 25
 limit_peso(L23,M1): + 38 x(L23,M1) <= 60
 limit_peso(L23,M2): + 38 x(L23,M2) <= 60
 limit_peso(L23,M3): + 38 x(L23,M3) <= 45
 limit_peso(L23,M4): + 38 x(L23,M4) <= 45
 limit_peso(L23,M5): + 38 x(L23,M5) <= 35
 limit_peso(L23,M6): + 38 x(L23,M6) <= 35
 limit_peso(L23,M7): + 38 x(L23,M7) <= 30
 limit_peso(L23,M8): + 38 x(L23,M8) <= 25
 limit_peso(L23,M9): + 38 x(L23,M9) <= 25
 limit_peso(L23,M10): + 38 x(L23,M10) <= 25
 limit_peso(L24,M1): + 37 x(L24,M1) <= 60
 limit_peso(L24,M2): + 37 x(L24,M2) <= 60
 limit_peso(L24,M3): + 37 x(L24,M3) <= 45
 limit_peso(L24,M4): + 37 x(L24,M4) <= 45
 limit_peso(L24,M5): + 37 x(L24,M5) <= 35
 limit_peso(L24,M6): + 37 x(L24,M6) <= 35
 limit_peso(L24,M7): + 37 x(L24,M7) <= 30
 limit_peso(L24,M8): + 37 x(L24,M8) <= 25
 limit_peso(L24,M9): + 37 x(L24,M9) <= 25
 limit_peso(L24,M10): + 37 x(L24,M10) <= 25
 limit_peso(L25,M1): + 34 x(L25,M1) <= 60
 limit_peso(L25,M2): + 34 x(L25,M2) <= 60
 limit_peso(L25,M3): + 34 x(L25,M3) <= 45
 limit_peso(L25,M4): + 34 x(L25,M4) <= 45
 limit_peso(L25,M5): + 34 x(L25,M5) <= 35
 limit_peso(L25,M6): + 34 x(L25,M6) <= 35
 limit_peso(L25,M7): + 34 x(L25,M7) <= 30
 limit_peso(L25,M8): + 34 x(L25,M8) <= 25
 limit_peso(L25,M9): + 34 x(L25,M9) <= 25
 limit_peso(L25,M10): + 34 x(L25,M10) <= 25
 limit_peso(L26,M1): + 29 x(L26,M1) <= 60
 limit_peso(L26,M2): + 29 x(L26,M2) <= 60
 limit_peso(L26,M3): + 29 x(L26,M3) <= 45
 limit_peso(L26,M4): + 29 x(L26,M4) <= 45
 limit_peso(L26,M5): + 29 x(L26,M5) <= 35
 limit_peso(L26,M6): + 29 x(L26,M6) <= 35
 limit_peso(L26,M7): + 29 x(L26,M7) <= 30
 limit_peso(L26,M8): + 29 x(L26,M8) <= 25
 limit_peso(L26,M9): + 29 x(L26,M9) <= 25
 limit_peso(L26,M10): + 29 x(L26,M10) <= 25
 limit_peso(L27,M1): + 40 x(L27,M1) <= 60
 limit_peso(L27,M2): + 40 x(L27,M2) <= 60
 limit_peso(L27,M3): + 40 x(L27,M3) <= 45
 limit_peso(L27,M4): + 40 x(L27,M4) <= 45
 limit_peso(L27,M5): + 40 x(L27,M5) <= 35
 limit_peso(L27,M6): + 40 x(L27,M6) <= 35
 limit_peso(L27,M7): + 40 x(L27,M7) <= 30
 limit_peso(L27,M8): + 40 x(L27,M8) <= 25
 limit_peso(L27,M9): + 40 x(L27,M9) <= 25
 limit_peso(L27,M10): + 40 x(L27,M10) <= 25
 limit_peso(L28,M1): + 20 x(L28,M1) <= 60
 limit_peso(L28,M2): + 20 x(L28,M2) <= 60
 limit_peso(L28,M3): + 20 x(L28,M3) <= 45
 limit_peso(L28,M4): + 20 x(L28,M4) <= 45
 limit_peso(L28,M5): + 20 x(L28,M5) <= 35
 limit_peso(L28,M6): + 20 x(L28,M6) <= 35
 limit_peso(L28,M7): + 20 x(L28,M7) <= 30
 limit_peso(L28,M8): + 20 x(L28,M8) <= 25
 limit_peso(L28,M9): + 20 x(L28,M9) <= 25
 limit_peso(L28,M10): + 20 x(L28,M10) <= 25
 limit_peso(L29,M1): + 31 x(L29,M1) <= 60
 limit_peso(L29,M2): + 31 x(L29,M2) <= 60
 limit_peso(L29,M3): + 31 x(L29,M3) <= 45
 limit_peso(L29,M4): + 31 x(L29,M4) <= 45
 limit_peso(L29,M5): + 31 x(L29,M5) <= 35
 limit_peso(L29,M6): + 31 x(L29,M6) <= 35
 limit_peso(L29,M7): + 31 x(L29,M7) <= 30
 limit_peso(L29,M8): + 31 x(L29,M8) <= 25
 limit_peso(L29,M9): + 31 x(L29,M9) <= 25
 limit_peso(L29,M10): + 31 x(L29,M10) <= 25
 limit_peso(L30,M1): + 40 x(L30,M1) <= 60
 limit_peso(L30,M2): + 40 x(L30,M2) <= 60
 limit_peso(L30,M3): + 40 x(L30,M3) <= 45
 limit_peso(L30,M4): + 40 x(L30,M4) <= 45
 limit_peso(L30,M5): + 40 x(L30,M5) <= 35
 limit_peso(L30,M6): + 40 x(L30,M6) <= 35
 limit_peso(L30,M7): + 40 x(L30,M7) <= 30
 limit_peso(L30,M8): + 40 x(L30,M8) <= 25
 limit_peso(L30,M9): + 40 x(L30,M9) <= 25
 limit_peso(L30,M10): + 40 x(L30,M10) <= 25
 limit_peso(L31,M1): + 35 x(L31,M1) <= 60
 limit_peso(L31,M2): + 35 x(L31,M2) <= 60
 limit_peso(L31,M3): + 35 x(L31,M3) <= 45
 limit_peso(L31,M4): + 35 x(L31,M4) <= 45
 limit_peso(L31,M5): + 35 x(L31,M5) <= 35
 limit_peso(L31,M6): + 35 x(L31,M6) <= 35
 limit_peso(L31,M7): + 35 x(L31,M7) <= 30
 limit_peso(L31,M8): + 35 x(L31,M8) <= 25
 limit_peso(L31,M9): + 35 x(L31,M9) <= 25
 limit_peso(L31,M10): + 35 x(L31,M10) <= 25
 limit_peso(L32,M1): + 34 x(L32,M1) <= 60
 limit_peso(L32,M2): + 34 x(L32,M2) <= 60
 limit_peso(L32,M3): + 34 x(L32,M3) <= 45
 limit_peso(L32,M4): + 34 x(L32,M4) <= 45
 limit_peso(L32,M5): + 34 x(L32,M5) <= 35
 limit_peso(L32,M6): + 34 x(L32,M6) <= 35
 limit_peso(L32,M7): + 34 x(L32,M7) <= 30
 limit_peso(L32,M8): + 34 x(L32,M8) <= 25
 limit_peso(L32,M9): + 34 x(L32,M9) <= 25
 limit_peso(L32,M10): + 34 x(L32,M10) <= 25
 limit_peso(L33,M1): + 12 x(L33,M1) <= 60
 limit_peso(L33,M2): + 12 x(L33,M2) <= 60
 limit_peso(L33,M3): + 12 x(L33,M3) <= 45
 limit_peso(L33,M4): + 12 x(L33,M4) <= 45
 limit_peso(L33,M5): + 12 x(L33,M5) <= 35
 limit_peso(L33,M6): + 12 x(L33,M6) <= 35
 limit_peso(L33,M7): + 12 x(L33,M7) <= 30
 limit_peso(L33,M8): + 12 x(L33,M8) <= 25
 limit_peso(L33,M9): + 12 x(L33,M9) <= 25
 limit_peso(L33,M10): + 12 x(L33,M10) <= 25
 limit_peso(L34,M1): + 23 x(L34,M1) <= 60
 limit_peso(L34,M2): + 23 x(L34,M2) <= 60
 limit_peso(L34,M3): + 23 x(L34,M3) <= 45
 limit_peso(L34,M4): + 23 x(L34,M4) <= 45
 limit_peso(L34,M5): + 23 x(L34,M5) <= 35
 limit_peso(L34,M6): + 23 x(L34,M6) <= 35
 limit_peso(L34,M7): + 23 x(L34,M7) <= 30
 limit_peso(L34,M8): + 23 x(L34,M8) <= 25
 limit_peso(L34,M9): + 23 x(L34,M9) <= 25
 limit_peso(L34,M10): + 23 x(L34,M10) <= 25
 limit_peso(L35,M1): + 38 x(L35,M1) <= 60
 limit_peso(L35,M2): + 38 x(L35,M2) <= 60
 limit_peso(L35,M3): + 38 x(L35,M3) <= 45
 limit_peso(L35,M4): + 38 x(L35,M4) <= 45
 limit_peso(L35,M5): + 38 x(L35,M5) <= 35
 limit_peso(L35,M6): + 38 x(L35,M6) <= 35
 limit_peso(L35,M7): + 38 x(L35,M7) <= 30
 limit_peso(L35,M8): + 38 x(L35,M8) <= 25
 limit_peso(L35,M9): + 38 x(L35,M9) <= 25
 limit_peso(L35,M10): + 38 x(L35,M10) <= 25
 limit_peso(L36,M1): + 36 x(L36,M1) <= 60
 limit_peso(L36,M2): + 36 x(L36,M2) <= 60
 limit_peso(L36,M3): + 36 x(L36,M3) <= 45
 limit_peso(L36,M4): + 36 x(L36,M4) <= 45
 limit_peso(L36,M5): + 36 x(L36,M5) <= 35
 limit_peso(L36,M6): + 36 x(L36,M6) <= 35
 limit_peso(L36,M7): + 36 x(L36,M7) <= 30
 limit_peso(L36,M8): + 36 x(L36,M8) <= 25
 limit_peso(L36,M9): + 36 x(L36,M9) <= 25
 limit_peso(L36,M10): + 36 x(L36,M10) <= 25
 limit_peso(L37,M1): + 40 x(L37,M1) <= 60
 limit_peso(L37,M2): + 40 x(L37,M2) <= 60
 limit_peso(L37,M3): + 40 x(L37,M3) <= 45
 limit_peso(L37,M4): + 40 x(L37,M4) <= 45
 limit_peso(L37,M5): + 40 x(L37,M5) <= 35
 limit_peso(L37,M6): + 40 x(L37,M6) <= 35
 limit_peso(L37,M7): + 40 x(L37,M7) <= 30
 limit_peso(L37,M8): + 40 x(L37,M8) <= 25
 limit_peso(L37,M9): + 40 x(L37,M9) <= 25
 limit_peso(L37,M10): + 40 x(L37,M10) <= 25
 limit_peso(L38,M1): + 35 x(L38,M1) <= 60
 limit_peso(L38,M2): + 35 x(L38,M2) <= 60
 limit_peso(L38,M3): + 35 x(L38,M3) <= 45
 limit_peso(L38,M4): + 35 x(L38,M4) <= 45
 limit_peso(L38,M5): + 35 x(L38,M5) <= 35
 limit_peso(L38,M6): + 35 x(L38,M6) <= 35
 limit_peso(L38,M7): + 35 x(L38,M7) <= 30
 limit_peso(L38,M8): + 35 x(L38,M8) <= 25
 limit_peso(L38,M9): + 35 x(L38,M9) <= 25
 limit_peso(L38,M10): + 35 x(L38,M10) <= 25
 limit_peso(L39,M1): + 32 x(L39,M1) <= 60
 limit_peso(L39,M2): + 32 x(L39,M2) <= 60
 limit_peso(L39,M3): + 32 x(L39,M3) <= 45
 limit_peso(L39,M4): + 32 x(L39,M4) <= 45
 limit_peso(L39,M5): + 32 x(L39,M5) <= 35
 limit_peso(L39,M6): + 32 x(L39,M6) <= 35
 limit_peso(L39,M7): + 32 x(L39,M7) <= 30
 limit_peso(L39,M8): + 32 x(L39,M8) <= 25
 limit_peso(L39,M9): + 32 x(L39,M9) <= 25
 limit_peso(L39,M10): + 32 x(L39,M10) <= 25
 limit_peso(L40,M1): + 27 x(L40,M1) <= 60
 limit_peso(L40,M2): + 27 x(L40,M2) <= 60
 limit_peso(L40,M3): + 27 x(L40,M3) <= 45
 limit_peso(L40,M4): + 27 x(L40,M4) <= 45
 limit_peso(L40,M5): + 27 x(L40,M5) <= 35
 limit_peso(L40,M6): + 27 x(L40,M6) <= 35
 limit_peso(L40,M7): + 27 x(L40,M7) <= 30
 limit_peso(L40,M8): + 27 x(L40,M8) <= 25
 limit_peso(L40,M9): + 27 x(L40,M9) <= 25
 limit_peso(L40,M10): + 27 x(L40,M10) <= 25
 limit_peso(L41,M1): + 38 x(L41,M1) <= 60
 limit_peso(L41,M2): + 38 x(L41,M2) <= 60
 limit_peso(L41,M3): + 38 x(L41,M3) <= 45
 limit_peso(L41,M4): + 38 x(L41,M4) <= 45
 limit_peso(L41,M5): + 38 x(L41,M5) <= 35
 limit_peso(L41,M6): + 38 x(L41,M6) <= 35
 limit_peso(L41,M7): + 38 x(L41,M7) <= 30
 limit_peso(L41,M8): + 38 x(L41,M8) <= 25
 limit_peso(L41,M9): + 38 x(L41,M9) <= 25
 limit_peso(L41,M10): + 38 x(L41,M10) <= 25
 limit_peso(L42,M1): + 26 x(L42,M1) <= 60
 limit_peso(L42,M2): + 26 x(L42,M2) <= 60
 limit_peso(L42,M3): + 26 x(L42,M3) <= 45
 limit_peso(L42,M4): + 26 x(L42,M4) <= 45
 limit_peso(L42,M5): + 26 x(L42,M5) <= 35
 limit_peso(L42,M6): + 26 x(L42,M6) <= 35
 limit_peso(L42,M7): + 26 x(L42,M7) <= 30
 limit_peso(L42,M8): + 26 x(L42,M8) <= 25
 limit_peso(L42,M9): + 26 x(L42,M9) <= 25
 limit_peso(L42,M10): + 26 x(L42,M10) <= 25
 limit_peso(L43,M1): + 37 x(L43,M1) <= 60
 limit_peso(L43,M2): + 37 x(L43,M2) <= 60
 limit_peso(L43,M3): + 37 x(L43,M3) <= 45
 limit_peso(L43,M4): + 37 x(L43,M4) <= 45
 limit_peso(L43,M5): + 37 x(L43,M5) <= 35
 limit_peso(L43,M6): + 37 x(L43,M6) <= 35
 limit_peso(L43,M7): + 37 x(L43,M7) <= 30
 limit_peso(L43,M8): + 37 x(L43,M8) <= 25
 limit_peso(L43,M9): + 37 x(L43,M9) <= 25
 limit_peso(L43,M10): + 37 x(L43,M10) <= 25
 limit_peso(L44,M1): + 32 x(L44,M1) <= 60
 limit_peso(L44,M2): + 32 x(L44,M2) <= 60
 limit_peso(L44,M3): + 32 x(L44,M3) <= 45
 limit_peso(L44,M4): + 32 x(L44,M4) <= 45
 limit_peso(L44,M5): + 32 x(L44,M5) <= 35
 limit_peso(L44,M6): + 32 x(L44,M6) <= 35
 limit_peso(L44,M7): + 32 x(L44,M7) <= 30
 limit_peso(L44,M8): + 32 x(L44,M8) <= 25
 limit_peso(L44,M9): + 32 x(L44,M9) <= 25
 limit_peso(L44,M10): + 32 x(L44,M10) <= 25
 limit_peso(L45,M1): + 13 x(L45,M1) <= 60
 limit_peso(L45,M2): + 13 x(L45,M2) <= 60
 limit_peso(L45,M3): + 13 x(L45,M3) <= 45
 limit_peso(L45,M4): + 13 x(L45,M4) <= 45
 limit_peso(L45,M5): + 13 x(L45,M5) <= 35
 limit_peso(L45,M6): + 13 x(L45,M6) <= 35
 limit_peso(L45,M7): + 13 x(L45,M7) <= 30
 limit_peso(L45,M8): + 13 x(L45,M8) <= 25
 limit_peso(L45,M9): + 13 x(L45,M9) <= 25
 limit_peso(L45,M10): + 13 x(L45,M10) <= 25
 limit_peso(L46,M1): + 24 x(L46,M1) <= 60
 limit_peso(L46,M2): + 24 x(L46,M2) <= 60
 limit_peso(L46,M3): + 24 x(L46,M3) <= 45
 limit_peso(L46,M4): + 24 x(L46,M4) <= 45
 limit_peso(L46,M5): + 24 x(L46,M5) <= 35
 limit_peso(L46,M6): + 24 x(L46,M6) <= 35
 limit_peso(L46,M7): + 24 x(L46,M7) <= 30
 limit_peso(L46,M8): + 24 x(L46,M8) <= 25
 limit_peso(L46,M9): + 24 x(L46,M9) <= 25
 limit_peso(L46,M10): + 24 x(L46,M10) <= 25
 limit_peso(L47,M1): + 39 x(L47,M1) <= 60
 limit_peso(L47,M2): + 39 x(L47,M2) <= 60
 limit_peso(L47,M3): + 39 x(L47,M3) <= 45
 limit_peso(L47,M4): + 39 x(L47,M4) <= 45
 limit_peso(L47,M5): + 39 x(L47,M5) <= 35
 limit_peso(L47,M6): + 39 x(L47,M6) <= 35
 limit_peso(L47,M7): + 39 x(L47,M7) <= 30
 limit_peso(L47,M8): + 39 x(L47,M8) <= 25
 limit_peso(L47,M9): + 39 x(L47,M9) <= 25
 limit_peso(L47,M10): + 39 x(L47,M10) <= 25
 limit_peso(L48,M1): + 37 x(L48,M1) <= 60
 limit_peso(L48,M2): + 37 x(L48,M2) <= 60
 limit_peso(L48,M3): + 37 x(L48,M3) <= 45
 limit_peso(L48,M4): + 37 x(L48,M4) <= 45
 limit_peso(L48,M5): + 37 x(L48,M5) <= 35
 limit_peso(L48,M6): + 37 x(L48,M6) <= 35
 limit_peso(L48,M7): + 37 x(L48,M7) <= 30
 limit_peso(L48,M8): + 37 x(L48,M8) <= 25
 limit_peso(L48,M9): + 37 x(L48,M9) <= 25
 limit_peso(L48,M10): + 37 x(L48,M10) <= 25
 limit_peso(L49,M1): + 36 x(L49,M1) <= 60
 limit_peso(L49,M2): + 36 x(L49,M2) <= 60
 limit_peso(L49,M3): + 36 x(L49,M3) <= 45
 limit_peso(L49,M4): + 36 x(L49,M4) <= 45
 limit_peso(L49,M5): + 36 x(L49,M5) <= 35
 limit_peso(L49,M6): + 36 x(L49,M6) <= 35
 limit_peso(L49,M7): + 36 x(L49,M7) <= 30
 limit_peso(L49,M8): + 36 x(L49,M8) <= 25
 limit_peso(L49,M9): + 36 x(L49,M9) <= 25
 limit_peso(L49,M10): + 36 x(L49,M10) <= 25
 limit_peso(L50,M1): + 33 x(L50,M1) <= 60
 limit_peso(L50,M2): + 33 x(L50,M2) <= 60
 limit_peso(L50,M3): + 33 x(L50,M3) <= 45
 limit_peso(L50,M4): + 33 x(L50,M4) <= 45
 limit_peso(L50,M5): + 33 x(L50,M5) <= 35
 limit_peso(L50,M6): + 33 x(L50,M6) <= 35
 limit_peso(L50,M7): + 33 x(L50,M7) <= 30
 limit_peso(L50,M8): + 33 x(L50,M8) <= 25
 limit_peso(L50,M9): + 33 x(L50,M9) <= 25
 limit_peso(L50,M10): + 33 x(L50,M10) <= 25
 limit_peso(L51,M1): + 28 x(L51,M1) <= 60
 limit_peso(L51,M2): + 28 x(L51,M2) <= 60
 limit_peso(L51,M3): + 28 x(L51,M3) <= 45
 limit_peso(L51,M4): + 28 x(L51,M4) <= 45
 limit_peso(L51,M5): + 28 x(L51,M5) <= 35
 limit_peso(L51,M6): + 28 x(L51,M6) <= 35
 limit_peso(L51,M7): + 28 x(L51,M7) <= 30
 limit_peso(L51,M8): + 28 x(L51,M8) <= 25
 limit_peso(L51,M9): + 28 x(L51,M9) <= 25
 limit_peso(L51,M10): + 28 x(L51,M10) <= 25
 limit_peso(L52,M1): + 39 x(L52,M1) <= 60
 limit_peso(L52,M2): + 39 x(L52,M2) <= 60
 limit_peso(L52,M3): + 39 x(L52,M3) <= 45
 limit_peso(L52,M4): + 39 x(L52,M4) <= 45
 limit_peso(L52,M5): + 39 x(L52,M5) <= 35
 limit_peso(L52,M6): + 39 x(L52,M6) <= 35
 limit_peso(L52,M7): + 39 x(L52,M7) <= 30
 limit_peso(L52,M8): + 39 x(L52,M8) <= 25
 limit_peso(L52,M9): + 39 x(L52,M9) <= 25
 limit_peso(L52,M10): + 39 x(L52,M10) <= 25
 limit_peso(L53,M1): + 27 x(L53,M1) <= 60
 limit_peso(L53,M2): + 27 x(L53,M2) <= 60
 limit_peso(L53,M3): + 27 x(L53,M3) <= 45
 limit_peso(L53,M4): + 27 x(L53,M4) <= 45
 limit_peso(L53,M5): + 27 x(L53,M5) <= 35
 limit_peso(L53,M6): + 27 x(L53,M6) <= 35
 limit_peso(L53,M7): + 27 x(L53,M7) <= 30
 limit_peso(L53,M8): + 27 x(L53,M8) <= 25
 limit_peso(L53,M9): + 27 x(L53,M9) <= 25
 limit_peso(L53,M10): + 27 x(L53,M10) <= 25
 limit_peso(L54,M1): + 38 x(L54,M1) <= 60
 limit_peso(L54,M2): + 38 x(L54,M2) <= 60
 limit_peso(L54,M3): + 38 x(L54,M3) <= 45
 limit_peso(L54,M4): + 38 x(L54,M4) <= 45
 limit_peso(L54,M5): + 38 x(L54,M5) <= 35
 limit_peso(L54,M6): + 38 x(L54,M6) <= 35
 limit_peso(L54,M7): + 38 x(L54,M7) <= 30
 limit_peso(L54,M8): + 38 x(L54,M8) <= 25
 limit_peso(L54,M9): + 38 x(L54,M9) <= 25
 limit_peso(L54,M10): + 38 x(L54,M10) <= 25
 limit_peso(L55,M1): + 33 x(L55,M1) <= 60
 limit_peso(L55,M2): + 33 x(L55,M2) <= 60
 limit_peso(L55,M3): + 33 x(L55,M3) <= 45
 limit_peso(L55,M4): + 33 x(L55,M4) <= 45
 limit_peso(L55,M5): + 33 x(L55,M5) <= 35
 limit_peso(L55,M6): + 33 x(L55,M6) <= 35
 limit_peso(L55,M7): + 33 x(L55,M7) <= 30
 limit_peso(L55,M8): + 33 x(L55,M8) <= 25
 limit_peso(L55,M9): + 33 x(L55,M9) <= 25
 limit_peso(L55,M10): + 33 x(L55,M10) <= 25
 limit_peso(L56,M1): + 25 x(L56,M1) <= 60
 limit_peso(L56,M2): + 25 x(L56,M2) <= 60
 limit_peso(L56,M3): + 25 x(L56,M3) <= 45
 limit_peso(L56,M4): + 25 x(L56,M4) <= 45
 limit_peso(L56,M5): + 25 x(L56,M5) <= 35
 limit_peso(L56,M6): + 25 x(L56,M6) <= 35
 limit_peso(L56,M7): + 25 x(L56,M7) <= 30
 limit_peso(L56,M8): + 25 x(L56,M8) <= 25
 limit_peso(L56,M9): + 25 x(L56,M9) <= 25
 limit_peso(L56,M10): + 25 x(L56,M10) <= 25
 limit_peso(L57,M1): + 36 x(L57,M1) <= 60
 limit_peso(L57,M2): + 36 x(L57,M2) <= 60
 limit_peso(L57,M3): + 36 x(L57,M3) <= 45
 limit_peso(L57,M4): + 36 x(L57,M4) <= 45
 limit_peso(L57,M5): + 36 x(L57,M5) <= 35
 limit_peso(L57,M6): + 36 x(L57,M6) <= 35
 limit_peso(L57,M7): + 36 x(L57,M7) <= 30
 limit_peso(L57,M8): + 36 x(L57,M8) <= 25
 limit_peso(L57,M9): + 36 x(L57,M9) <= 25
 limit_peso(L57,M10): + 36 x(L57,M10) <= 25
 limit_peso(L58,M1): + 40 x(L58,M1) <= 60
 limit_peso(L58,M2): + 40 x(L58,M2) <= 60
 limit_peso(L58,M3): + 40 x(L58,M3) <= 45
 limit_peso(L58,M4): + 40 x(L58,M4) <= 45
 limit_peso(L58,M5): + 40 x(L58,M5) <= 35
 limit_peso(L58,M6): + 40 x(L58,M6) <= 35
 limit_peso(L58,M7): + 40 x(L58,M7) <= 30
 limit_peso(L58,M8): + 40 x(L58,M8) <= 25
 limit_peso(L58,M9): + 40 x(L58,M9) <= 25
 limit_peso(L58,M10): + 40 x(L58,M10) <= 25
 limit_peso(L59,M1): + 39 x(L59,M1) <= 60
 limit_peso(L59,M2): + 39 x(L59,M2) <= 60
 limit_peso(L59,M3): + 39 x(L59,M3) <= 45
 limit_peso(L59,M4): + 39 x(L59,M4) <= 45
 limit_peso(L59,M5): + 39 x(L59,M5) <= 35
 limit_peso(L59,M6): + 39 x(L59,M6) <= 35
 limit_peso(L59,M7): + 39 x(L59,M7) <= 30
 limit_peso(L59,M8): + 39 x(L59,M8) <= 25
 limit_peso(L59,M9): + 39 x(L59,M9) <= 25
 limit_peso(L59,M10): + 39 x(L59,M10) <= 25
 limit_peso(L60,M1): + 38 x(L60,M1) <= 60
 limit_peso(L60,M2): + 38 x(L60,M2) <= 60
 limit_peso(L60,M3): + 38 x(L60,M3) <= 45
 limit_peso(L60,M4): + 38 x(L60,M4) <= 45
 limit_peso(L60,M5): + 38 x(L60,M5) <= 35
 limit_peso(L60,M6): + 38 x(L60,M6) <= 35
 limit_peso(L60,M7): + 38 x(L60,M7) <= 30
 limit_peso(L60,M8): + 38 x(L60,M8) <= 25
 limit_peso(L60,M9): + 38 x(L60,M9) <= 25
 limit_peso(L60,M10): + 38 x(L60,M10) <= 25
 limit_peso(L61,M1): + 18 x(L61,M1) <= 60
 limit_peso(L61,M2): + 18 x(L61,M2) <= 60
 limit_peso(L61,M3): + 18 x(L61,M3) <= 45
 limit_peso(L61,M4): + 18 x(L61,M4) <= 45
 limit_peso(L61,M5): + 18 x(L61,M5) <= 35
 limit_peso(L61,M6): + 18 x(L61,M6) <= 35
 limit_peso(L61,M7): + 18 x(L61,M7) <= 30
 limit_peso(L61,M8): + 18 x(L61,M8) <= 25
 limit_peso(L61,M9): + 18 x(L61,M9) <= 25
 limit_peso(L61,M10): + 18 x(L61,M10) <= 25
 limit_peso(L62,M1): + 29 x(L62,M1) <= 60
 limit_peso(L62,M2): + 29 x(L62,M2) <= 60
 limit_peso(L62,M3): + 29 x(L62,M3) <= 45
 limit_peso(L62,M4): + 29 x(L62,M4) <= 45
 limit_peso(L62,M5): + 29 x(L62,M5) <= 35
 limit_peso(L62,M6): + 29 x(L62,M6) <= 35
 limit_peso(L62,M7): + 29 x(L62,M7) <= 30
 limit_peso(L62,M8): + 29 x(L62,M8) <= 25
 limit_peso(L62,M9): + 29 x(L62,M9) <= 25
 limit_peso(L62,M10): + 29 x(L62,M10) <= 25
 limit_peso(L63,M1): + 38 x(L63,M1) <= 60
 limit_peso(L63,M2): + 38 x(L63,M2) <= 60
 limit_peso(L63,M3): + 38 x(L63,M3) <= 45
 limit_peso(L63,M4): + 38 x(L63,M4) <= 45
 limit_peso(L63,M5): + 38 x(L63,M5) <= 35
 limit_peso(L63,M6): + 38 x(L63,M6) <= 35
 limit_peso(L63,M7): + 38 x(L63,M7) <= 30
 limit_peso(L63,M8): + 38 x(L63,M8) <= 25
 limit_peso(L63,M9): + 38 x(L63,M9) <= 25
 limit_peso(L63,M10): + 38 x(L63,M10) <= 25
 limit_peso(L64,M1): + 33 x(L64,M1) <= 60
 limit_peso(L64,M2): + 33 x(L64,M2) <= 60
 limit_peso(L64,M3): + 33 x(L64,M3) <= 45
 limit_peso(L64,M4): + 33 x(L64,M4) <= 45
 limit_peso(L64,M5): + 33 x(L64,M5) <= 35
 limit_peso(L64,M6): + 33 x(L64,M6) <= 35
 limit_peso(L64,M7): + 33 x(L64,M7) <= 30
 limit_peso(L64,M8): + 33 x(L64,M8) <= 25
 limit_peso(L64,M9): + 33 x(L64,M9) <= 25
 limit_peso(L64,M10): + 33 x(L64,M10) <= 25
 limit_peso(L65,M1): + 32 x(L65,M1) <= 60
 limit_peso(L65,M2): + 32 x(L65,M2) <= 60
 limit_peso(L65,M3): + 32 x(L65,M3) <= 45
 limit_peso(L65,M4): + 32 x(L65,M4) <= 45
 limit_peso(L65,M5): + 32 x(L65,M5) <= 35
 limit_peso(L65,M6): + 32 x(L65,M6) <= 35
 limit_peso(L65,M7): + 32 x(L65,M7) <= 30
 limit_peso(L65,M8): + 32 x(L65,M8) <= 25
 limit_peso(L65,M9): + 32 x(L65,M9) <= 25
 limit_peso(L65,M10): + 32 x(L65,M10) <= 25
 limit_peso(L66,M1): + 38 x(L66,M1) <= 60
 limit_peso(L66,M2): + 38 x(L66,M2) <= 60
 limit_peso(L66,M3): + 38 x(L66,M3) <= 45
 limit_peso(L66,M4): + 38 x(L66,M4) <= 45
 limit_peso(L66,M5): + 38 x(L66,M5) <= 35
 limit_peso(L66,M6): + 38 x(L66,M6) <= 35
 limit_peso(L66,M7): + 38 x(L66,M7) <= 30
 limit_peso(L66,M8): + 38 x(L66,M8) <= 25
 limit_peso(L66,M9): + 38 x(L66,M9) <= 25
 limit_peso(L66,M10): + 38 x(L66,M10) <= 25
 limit_peso(L67,M1): + 30 x(L67,M1) <= 60
 limit_peso(L67,M2): + 30 x(L67,M2) <= 60
 limit_peso(L67,M3): + 30 x(L67,M3) <= 45
 limit_peso(L67,M4): + 30 x(L67,M4) <= 45
 limit_peso(L67,M5): + 30 x(L67,M5) <= 35
 limit_peso(L67,M6): + 30 x(L67,M6) <= 35
 limit_peso(L67,M7): + 30 x(L67,M7) <= 30
 limit_peso(L67,M8): + 30 x(L67,M8) <= 25
 limit_peso(L67,M9): + 30 x(L67,M9) <= 25
 limit_peso(L67,M10): + 30 x(L67,M10) <= 25
 limit_peso(L68,M1): + 31 x(L68,M1) <= 60
 limit_peso(L68,M2): + 31 x(L68,M2) <= 60
 limit_peso(L68,M3): + 31 x(L68,M3) <= 45
 limit_peso(L68,M4): + 31 x(L68,M4) <= 45
 limit_peso(L68,M5): + 31 x(L68,M5) <= 35
 limit_peso(L68,M6): + 31 x(L68,M6) <= 35
 limit_peso(L68,M7): + 31 x(L68,M7) <= 30
 limit_peso(L68,M8): + 31 x(L68,M8) <= 25
 limit_peso(L68,M9): + 31 x(L68,M9) <= 25
 limit_peso(L68,M10): + 31 x(L68,M10) <= 25
 limit_peso(L69,M1): + 12 x(L69,M1) <= 60
 limit_peso(L69,M2): + 12 x(L69,M2) <= 60
 limit_peso(L69,M3): + 12 x(L69,M3) <= 45
 limit_peso(L69,M4): + 12 x(L69,M4) <= 45
 limit_peso(L69,M5): + 12 x(L69,M5) <= 35
 limit_peso(L69,M6): + 12 x(L69,M6) <= 35
 limit_peso(L69,M7): + 12 x(L69,M7) <= 30
 limit_peso(L69,M8): + 12 x(L69,M8) <= 25
 limit_peso(L69,M9): + 12 x(L69,M9) <= 25
 limit_peso(L69,M10): + 12 x(L69,M10) <= 25
 limit_peso(L70,M1): + 23 x(L70,M1) <= 60
 limit_peso(L70,M2): + 23 x(L70,M2) <= 60
 limit_peso(L70,M3): + 23 x(L70,M3) <= 45
 limit_peso(L70,M4): + 23 x(L70,M4) <= 45
 limit_peso(L70,M5): + 23 x(L70,M5) <= 35
 limit_peso(L70,M6): + 23 x(L70,M6) <= 35
 limit_peso(L70,M7): + 23 x(L70,M7) <= 30
 limit_peso(L70,M8): + 23 x(L70,M8) <= 25
 limit_peso(L70,M9): + 23 x(L70,M9) <= 25
 limit_peso(L70,M10): + 23 x(L70,M10) <= 25
 limit_peso(L71,M1): + 38 x(L71,M1) <= 60
 limit_peso(L71,M2): + 38 x(L71,M2) <= 60
 limit_peso(L71,M3): + 38 x(L71,M3) <= 45
 limit_peso(L71,M4): + 38 x(L71,M4) <= 45
 limit_peso(L71,M5): + 38 x(L71,M5) <= 35
 limit_peso(L71,M6): + 38 x(L71,M6) <= 35
 limit_peso(L71,M7): + 38 x(L71,M7) <= 30
 limit_peso(L71,M8): + 38 x(L71,M8) <= 25
 limit_peso(L71,M9): + 38 x(L71,M9) <= 25
 limit_peso(L71,M10): + 38 x(L71,M10) <= 25
 limit_peso(L72,M1): + 36 x(L72,M1) <= 60
 limit_peso(L72,M2): + 36 x(L72,M2) <= 60
 limit_peso(L72,M3): + 36 x(L72,M3) <= 45
 limit_peso(L72,M4): + 36 x(L72,M4) <= 45
 limit_peso(L72,M5): + 36 x(L72,M5) <= 35
 limit_peso(L72,M6): + 36 x(L72,M6) <= 35
 limit_peso(L72,M7): + 36 x(L72,M7) <= 30
 limit_peso(L72,M8): + 36 x(L72,M8) <= 25
 limit_peso(L72,M9): + 36 x(L72,M9) <= 25
 limit_peso(L72,M10): + 36 x(L72,M10) <= 25
 limit_peso(L73,M1): + 40 x(L73,M1) <= 60
 limit_peso(L73,M2): + 40 x(L73,M2) <= 60
 limit_peso(L73,M3): + 40 x(L73,M3) <= 45
 limit_peso(L73,M4): + 40 x(L73,M4) <= 45
 limit_peso(L73,M5): + 40 x(L73,M5) <= 35
 limit_peso(L73,M6): + 40 x(L73,M6) <= 35
 limit_peso(L73,M7): + 40 x(L73,M7) <= 30
 limit_peso(L73,M8): + 40 x(L73,M8) <= 25
 limit_peso(L73,M9): + 40 x(L73,M9) <= 25
 limit_peso(L73,M10): + 40 x(L73,M10) <= 25
 limit_peso(L74,M1): + 35 x(L74,M1) <= 60
 limit_peso(L74,M2): + 35 x(L74,M2) <= 60
 limit_peso(L74,M3): + 35 x(L74,M3) <= 45
 limit_peso(L74,M4): + 35 x(L74,M4) <= 45
 limit_peso(L74,M5): + 35 x(L74,M5) <= 35
 limit_peso(L74,M6): + 35 x(L74,M6) <= 35
 limit_peso(L74,M7): + 35 x(L74,M7) <= 30
 limit_peso(L74,M8): + 35 x(L74,M8) <= 25
 limit_peso(L74,M9): + 35 x(L74,M9) <= 25
 limit_peso(L74,M10): + 35 x(L74,M10) <= 25
 limit_peso(L75,M1): + 32 x(L75,M1) <= 60
 limit_peso(L75,M2): + 32 x(L75,M2) <= 60
 limit_peso(L75,M3): + 32 x(L75,M3) <= 45
 limit_peso(L75,M4): + 32 x(L75,M4) <= 45
 limit_peso(L75,M5): + 32 x(L75,M5) <= 35
 limit_peso(L75,M6): + 32 x(L75,M6) <= 35
 limit_peso(L75,M7): + 32 x(L75,M7) <= 30
 limit_peso(L75,M8): + 32 x(L75,M8) <= 25
 limit_peso(L75,M9): + 32 x(L75,M9) <= 25
 limit_peso(L75,M10): + 32 x(L75,M10) <= 25
 limit_peso(L76,M1): + 27 x(L76,M1) <= 60
 limit_peso(L76,M2): + 27 x(L76,M2) <= 60
 limit_peso(L76,M3): + 27 x(L76,M3) <= 45
 limit_peso(L76,M4): + 27 x(L76,M4) <= 45
 limit_peso(L76,M5): + 27 x(L76,M5) <= 35
 limit_peso(L76,M6): + 27 x(L76,M6) <= 35
 limit_peso(L76,M7): + 27 x(L76,M7) <= 30
 limit_peso(L76,M8): + 27 x(L76,M8) <= 25
 limit_peso(L76,M9): + 27 x(L76,M9) <= 25
 limit_peso(L76,M10): + 27 x(L76,M10) <= 25
 limit_peso(L77,M1): + 38 x(L77,M1) <= 60
 limit_peso(L77,M2): + 38 x(L77,M2) <= 60
 limit_peso(L77,M3): + 38 x(L77,M3) <= 45
 limit_peso(L77,M4): + 38 x(L77,M4) <= 45
 limit_peso(L77,M5): + 38 x(L77,M5) <= 35
 limit_peso(L77,M6): + 38 x(L77,M6) <= 35
 limit_peso(L77,M7): + 38 x(L77,M7) <= 30
 limit_peso(L77,M8): + 38 x(L77,M8) <= 25
 limit_peso(L77,M9): + 38 x(L77,M9) <= 25
 limit_peso(L77,M10): + 38 x(L77,M10) <= 25
 limit_peso(L78,M1): + 26 x(L78,M1) <= 60
 limit_peso(L78,M2): + 26 x(L78,M2) <= 60
 limit_peso(L78,M3): + 26 x(L78,M3) <= 45
 limit_peso(L78,M4): + 26 x(L78,M4) <= 45
 limit_peso(L78,M5): + 26 x(L78,M5) <= 35
 limit_peso(L78,M6): + 26 x(L78,M6) <= 35
 limit_peso(L78,M7): + 26 x(L78,M7) <= 30
 limit_peso(L78,M8): + 26 x(L78,M8) <= 25
 limit_peso(L78,M9): + 26 x(L78,M9) <= 25
 limit_peso(L78,M10): + 26 x(L78,M10) <= 25
 limit_peso(L79,M1): + 37 x(L79,M1) <= 60
 limit_peso(L79,M2): + 37 x(L79,M2) <= 60
 limit_peso(L79,M3): + 37 x(L79,M3) <= 45
 limit_peso(L79,M4): + 37 x(L79,M4) <= 45
 limit_peso(L79,M5): + 37 x(L79,M5) <= 35
 limit_peso(L79,M6): + 37 x(L79,M6) <= 35
 limit_peso(L79,M7): + 37 x(L79,M7) <= 30
 limit_peso(L79,M8): + 37 x(L79,M8) <= 25
 limit_peso(L79,M9): + 37 x(L79,M9) <= 25
 limit_peso(L79,M10): + 37 x(L79,M10) <= 25
 limit_peso(L80,M1): + 32 x(L80,M1) <= 60
 limit_peso(L80,M2): + 32 x(L80,M2) <= 60
 limit_peso(L80,M3): + 32 x(L80,M3) <= 45
 limit_peso(L80,M4): + 32 x(L80,M4) <= 45
 limit_peso(L80,M5): + 32 x(L80,M5) <= 35
 limit_peso(L80,M6): + 32 x(L80,M6) <= 35
 limit_peso(L80,M7): + 32 x(L80,M7) <= 30
 limit_peso(L80,M8): + 32 x(L80,M8) <= 25
 limit_peso(L80,M9): + 32 x(L80,M9) <= 25
 limit_peso(L80,M10): + 32 x(L80,M10) <= 25
 limit_peso(L81,M1): + 24 x(L81,M1) <= 60
 limit_peso(L81,M2): + 24 x(L81,M2) <= 60
 limit_peso(L81,M3): + 24 x(L81,M3) <= 45
 limit_peso(L81,M4): + 24 x(L81,M4) <= 45
 limit_peso(L81,M5): + 24 x(L81,M5) <= 35
 limit_peso(L81,M6): + 24 x(L81,M6) <= 35
 limit_peso(L81,M7): + 24 x(L81,M7) <= 30
 limit_peso(L81,M8): + 24 x(L81,M8) <= 25
 limit_peso(L81,M9): + 24 x(L81,M9) <= 25
 limit_peso(L81,M10): + 24 x(L81,M10) <= 25
 limit_peso(L82,M1): + 35 x(L82,M1) <= 60
 limit_peso(L82,M2): + 35 x(L82,M2) <= 60
 limit_peso(L82,M3): + 35 x(L82,M3) <= 45
 limit_peso(L82,M4): + 35 x(L82,M4) <= 45
 limit_peso(L82,M5): + 35 x(L82,M5) <= 35
 limit_peso(L82,M6): + 35 x(L82,M6) <= 35
 limit_peso(L82,M7): + 35 x(L82,M7) <= 30
 limit_peso(L82,M8): + 35 x(L82,M8) <= 25
 limit_peso(L82,M9): + 35 x(L82,M9) <= 25
 limit_peso(L82,M10): + 35 x(L82,M10) <= 25
 limit_peso(L83,M1): + 39 x(L83,M1) <= 60
 limit_peso(L83,M2): + 39 x(L83,M2) <= 60
 limit_peso(L83,M3): + 39 x(L83,M3) <= 45
 limit_peso(L83,M4): + 39 x(L83,M4) <= 45
 limit_peso(L83,M5): + 39 x(L83,M5) <= 35
 limit_peso(L83,M6): + 39 x(L83,M6) <= 35
 limit_peso(L83,M7): + 39 x(L83,M7) <= 30
 limit_peso(L83,M8): + 39 x(L83,M8) <= 25
 limit_peso(L83,M9): + 39 x(L83,M9) <= 25
 limit_peso(L83,M10): + 39 x(L83,M10) <= 25
 limit_peso(L84,M1): + 38 x(L84,M1) <= 60
 limit_peso(L84,M2): + 38 x(L84,M2) <= 60
 limit_peso(L84,M3): + 38 x(L84,M3) <= 45
 limit_peso(L84,M4): + 38 x(L84,M4) <= 45
 limit_peso(L84,M5): + 38 x(L84,M5) <= 35
 limit_peso(L84,M6): + 38 x(L84,M6) <= 35
 limit_peso(L84,M7): + 38 x(L84,M7) <= 30
 limit_peso(L84,M8): + 38 x(L84,M8) <= 25
 limit_peso(L84,M9): + 38 x(L84,M9) <= 25
 limit_peso(L84,M10): + 38 x(L84,M10) <= 25
 limit_peso(L85,M1): + 25 x(L85,M1) <= 60
 limit_peso(L85,M2): + 25 x(L85,M2) <= 60
 limit_peso(L85,M3): + 25 x(L85,M3) <= 45
 limit_peso(L85,M4): + 25 x(L85,M4) <= 45
 limit_peso(L85,M5): + 25 x(L85,M5) <= 35
 limit_peso(L85,M6): + 25 x(L85,M6) <= 35
 limit_peso(L85,M7): + 25 x(L85,M7) <= 30
 limit_peso(L85,M8): + 25 x(L85,M8) <= 25
 limit_peso(L85,M9): + 25 x(L85,M9) <= 25
 limit_peso(L85,M10): + 25 x(L85,M10) <= 25
 limit_peso(L86,M1): + 36 x(L86,M1) <= 60
 limit_peso(L86,M2): + 36 x(L86,M2) <= 60
 limit_peso(L86,M3): + 36 x(L86,M3) <= 45
 limit_peso(L86,M4): + 36 x(L86,M4) <= 45
 limit_peso(L86,M5): + 36 x(L86,M5) <= 35
 limit_peso(L86,M6): + 36 x(L86,M6) <= 35
 limit_peso(L86,M7): + 36 x(L86,M7) <= 30
 limit_peso(L86,M8): + 36 x(L86,M8) <= 25
 limit_peso(L86,M9): + 36 x(L86,M9) <= 25
 limit_peso(L86,M10): + 36 x(L86,M10) <= 25
 limit_peso(L87,M1): + 40 x(L87,M1) <= 60
 limit_peso(L87,M2): + 40 x(L87,M2) <= 60
 limit_peso(L87,M3): + 40 x(L87,M3) <= 45
 limit_peso(L87,M4): + 40 x(L87,M4) <= 45
 limit_peso(L87,M5): + 40 x(L87,M5) <= 35
 limit_peso(L87,M6): + 40 x(L87,M6) <= 35
 limit_peso(L87,M7): + 40 x(L87,M7) <= 30
 limit_peso(L87,M8): + 40 x(L87,M8) <= 25
 limit_peso(L87,M9): + 40 x(L87,M9) <= 25
 limit_peso(L87,M10): + 40 x(L87,M10) <= 25
 limit_peso(L88,M1): + 39 x(L88,M1) <= 60
 limit_peso(L88,M2): + 39 x(L88,M2) <= 60
 limit_peso(L88,M3): + 39 x(L88,M3) <= 45
 limit_peso(L88,M4): + 39 x(L88,M4) <= 45
 limit_peso(L88,M5): + 39 x(L88,M5) <= 35
 limit_peso(L88,M6): + 39 x(L88,M6) <= 35
 limit_peso(L88,M7): + 39 x(L88,M7) <= 30
 limit_peso(L88,M8): + 39 x(L88,M8) <= 25
 limit_peso(L88,M9): + 39 x(L88,M9) <= 25
 limit_peso(L88,M10): + 39 x(L88,M10) <= 25
 limit_peso(L89,M1): + 37 x(L89,M1) <= 60
 limit_peso(L89,M2): + 37 x(L89,M2) <= 60
 limit_peso(L89,M3): + 37 x(L89,M3) <= 45
 limit_peso(L89,M4): + 37 x(L89,M4) <= 45
 limit_peso(L89,M5): + 37 x(L89,M5) <= 35
 limit_peso(L89,M6): + 37 x(L89,M6) <= 35
 limit_peso(L89,M7): + 37 x(L89,M7) <= 30
 limit_peso(L89,M8): + 37 x(L89,M8) <= 25
 limit_peso(L89,M9): + 37 x(L89,M9) <= 25
 limit_peso(L89,M10): + 37 x(L89,M10) <= 25
 limit_peso(L90,M1): + 30 x(L90,M1) <= 60
 limit_peso(L90,M2): + 30 x(L90,M2) <= 60
 limit_peso(L90,M3): + 30 x(L90,M3) <= 45
 limit_peso(L90,M4): + 30 x(L90,M4) <= 45
 limit_peso(L90,M5): + 30 x(L90,M5) <= 35
 limit_peso(L90,M6): + 30 x(L90,M6) <= 35
 limit_peso(L90,M7): + 30 x(L90,M7) <= 30
 limit_peso(L90,M8): + 30 x(L90,M8) <= 25
 limit_peso(L90,M9): + 30 x(L90,M9) <= 25
 limit_peso(L90,M10): + 30 x(L90,M10) <= 25
 limit_peso(L91,M1): + 10 x(L91,M1) <= 60
 limit_peso(L91,M2): + 10 x(L91,M2) <= 60
 limit_peso(L91,M3): + 10 x(L91,M3) <= 45
 limit_peso(L91,M4): + 10 x(L91,M4) <= 45
 limit_peso(L91,M5): + 10 x(L91,M5) <= 35
 limit_peso(L91,M6): + 10 x(L91,M6) <= 35
 limit_peso(L91,M7): + 10 x(L91,M7) <= 30
 limit_peso(L91,M8): + 10 x(L91,M8) <= 25
 limit_peso(L91,M9): + 10 x(L91,M9) <= 25
 limit_peso(L91,M10): + 10 x(L91,M10) <= 25
 limit_peso(L92,M1): + 21 x(L92,M1) <= 60
 limit_peso(L92,M2): + 21 x(L92,M2) <= 60
 limit_peso(L92,M3): + 21 x(L92,M3) <= 45
 limit_peso(L92,M4): + 21 x(L92,M4) <= 45
 limit_peso(L92,M5): + 21 x(L92,M5) <= 35
 limit_peso(L92,M6): + 21 x(L92,M6) <= 35
 limit_peso(L92,M7): + 21 x(L92,M7) <= 30
 limit_peso(L92,M8): + 21 x(L92,M8) <= 25
 limit_peso(L92,M9): + 21 x(L92,M9) <= 25
 limit_peso(L92,M10): + 21 x(L92,M10) <= 25
 limit_peso(L93,M1): + 36 x(L93,M1) <= 60
 limit_peso(L93,M2): + 36 x(L93,M2) <= 60
 limit_peso(L93,M3): + 36 x(L93,M3) <= 45
 limit_peso(L93,M4): + 36 x(L93,M4) <= 45
 limit_peso(L93,M5): + 36 x(L93,M5) <= 35
 limit_peso(L93,M6): + 36 x(L93,M6) <= 35
 limit_peso(L93,M7): + 36 x(L93,M7) <= 30
 limit_peso(L93,M8): + 36 x(L93,M8) <= 25
 limit_peso(L93,M9): + 36 x(L93,M9) <= 25
 limit_peso(L93,M10): + 36 x(L93,M10) <= 25
 limit_peso(L94,M1): + 34 x(L94,M1) <= 60
 limit_peso(L94,M2): + 34 x(L94,M2) <= 60
 limit_peso(L94,M3): + 34 x(L94,M3) <= 45
 limit_peso(L94,M4): + 34 x(L94,M4) <= 45
 limit_peso(L94,M5): + 34 x(L94,M5) <= 35
 limit_peso(L94,M6): + 34 x(L94,M6) <= 35
 limit_peso(L94,M7): + 34 x(L94,M7) <= 30
 limit_peso(L94,M8): + 34 x(L94,M8) <= 25
 limit_peso(L94,M9): + 34 x(L94,M9) <= 25
 limit_peso(L94,M10): + 34 x(L94,M10) <= 25
 limit_peso(L95,M1): + 40 x(L95,M1) <= 60
 limit_peso(L95,M2): + 40 x(L95,M2) <= 60
 limit_peso(L95,M3): + 40 x(L95,M3) <= 45
 limit_peso(L95,M4): + 40 x(L95,M4) <= 45
 limit_peso(L95,M5): + 40 x(L95,M5) <= 35
 limit_peso(L95,M6): + 40 x(L95,M6) <= 35
 limit_peso(L95,M7): + 40 x(L95,M7) <= 30
 limit_peso(L95,M8): + 40 x(L95,M8) <= 25
 limit_peso(L95,M9): + 40 x(L95,M9) <= 25
 limit_peso(L95,M10): + 40 x(L95,M10) <= 25
 limit_peso(L96,M1): + 38 x(L96,M1) <= 60
 limit_peso(L96,M2): + 38 x(L96,M2) <= 60
 limit_peso(L96,M3): + 38 x(L96,M3) <= 45
 limit_peso(L96,M4): + 38 x(L96,M4) <= 45
 limit_peso(L96,M5): + 38 x(L96,M5) <= 35
 limit_peso(L96,M6): + 38 x(L96,M6) <= 35
 limit_peso(L96,M7): + 38 x(L96,M7) <= 30
 limit_peso(L96,M8): + 38 x(L96,M8) <= 25
 limit_peso(L96,M9): + 38 x(L96,M9) <= 25
 limit_peso(L96,M10): + 38 x(L96,M10) <= 25
 limit_peso(L97,M1): + 33 x(L97,M1) <= 60
 limit_peso(L97,M2): + 33 x(L97,M2) <= 60
 limit_peso(L97,M3): + 33 x(L97,M3) <= 45
 limit_peso(L97,M4): + 33 x(L97,M4) <= 45
 limit_peso(L97,M5): + 33 x(L97,M5) <= 35
 limit_peso(L97,M6): + 33 x(L97,M6) <= 35
 limit_peso(L97,M7): + 33 x(L97,M7) <= 30
 limit_peso(L97,M8): + 33 x(L97,M8) <= 25
 limit_peso(L97,M9): + 33 x(L97,M9) <= 25
 limit_peso(L97,M10): + 33 x(L97,M10) <= 25
 limit_peso(L98,M1): + 30 x(L98,M1) <= 60
 limit_peso(L98,M2): + 30 x(L98,M2) <= 60
 limit_peso(L98,M3): + 30 x(L98,M3) <= 45
 limit_peso(L98,M4): + 30 x(L98,M4) <= 45
 limit_peso(L98,M5): + 30 x(L98,M5) <= 35
 limit_peso(L98,M6): + 30 x(L98,M6) <= 35
 limit_peso(L98,M7): + 30 x(L98,M7) <= 30
 limit_peso(L98,M8): + 30 x(L98,M8) <= 25
 limit_peso(L98,M9): + 30 x(L98,M9) <= 25
 limit_peso(L98,M10): + 30 x(L98,M10) <= 25
 limit_peso(L99,M1): + 25 x(L99,M1) <= 60
 limit_peso(L99,M2): + 25 x(L99,M2) <= 60
 limit_peso(L99,M3): + 25 x(L99,M3) <= 45
 limit_peso(L99,M4): + 25 x(L99,M4) <= 45
 limit_peso(L99,M5): + 25 x(L99,M5) <= 35
 limit_peso(L99,M6): + 25 x(L99,M6) <= 35
 limit_peso(L99,M7): + 25 x(L99,M7) <= 30
 limit_peso(L99,M8): + 25 x(L99,M8) <= 25
 limit_peso(L99,M9): + 25 x(L99,M9) <= 25
 limit_peso(L99,M10): + 25 x(L99,M10) <= 25
 limit_peso(L100,M1): + 36 x(L100,M1) <= 60
 limit_peso(L100,M2): + 36 x(L100,M2) <= 60
 limit_peso(L100,M3): + 36 x(L100,M3) <= 45
 limit_peso(L100,M4): + 36 x(L100,M4) <= 45
 limit_peso(L100,M5): + 36 x(L100,M5) <= 35
 limit_peso(L100,M6): + 36 x(L100,M6) <= 35
 limit_peso(L100,M7): + 36 x(L100,M7) <= 30
 limit_peso(L100,M8): + 36 x(L100,M8) <= 25
 limit_peso(L100,M9): + 36 x(L100,M9) <= 25
 limit_peso(L100,M10): + 36 x(L100,M10) <= 25
 limit_peso(L101,M1): + 24 x(L101,M1) <= 60
 limit_peso(L101,M2): + 24 x(L101,M2) <= 60
 limit_peso(L101,M3): + 24 x(L101,M3) <= 45
 limit_peso(L101,M4): + 24 x(L101,M4) <= 45
 limit_peso(L101,M5): + 24 x(L101,M5) <= 35
 limit_peso(L101,M6): + 24 x(L101,M6) <= 35
 limit_peso(L101,M7): + 24 x(L101,M7) <= 30
 limit_peso(L101,M8): + 24 x(L101,M8) <= 25
 limit_peso(L101,M9): + 24 x(L101,M9) <= 25
 limit_peso(L101,M10): + 24 x(L101,M10) <= 25
 limit_peso(L102,M1): + 35 x(L102,M1) <= 60
 limit_peso(L102,M2): + 35 x(L102,M2) <= 60
 limit_peso(L102,M3): + 35 x(L102,M3) <= 45
 limit_peso(L102,M4): + 35 x(L102,M4) <= 45
 limit_peso(L102,M5): + 35 x(L102,M5) <= 35
 limit_peso(L102,M6): + 35 x(L102,M6) <= 35
 limit_peso(L102,M7): + 35 x(L102,M7) <= 30
 limit_peso(L102,M8): + 35 x(L102,M8) <= 25
 limit_peso(L102,M9): + 35 x(L102,M9) <= 25
 limit_peso(L102,M10): + 35 x(L102,M10) <= 25
 limit_peso(L103,M1): + 39 x(L103,M1) <= 60
 limit_peso(L103,M2): + 39 x(L103,M2) <= 60
 limit_peso(L103,M3): + 39 x(L103,M3) <= 45
 limit_peso(L103,M4): + 39 x(L103,M4) <= 45
 limit_peso(L103,M5): + 39 x(L103,M5) <= 35
 limit_peso(L103,M6): + 39 x(L103,M6) <= 35
 limit_peso(L103,M7): + 39 x(L103,M7) <= 30
 limit_peso(L103,M8): + 39 x(L103,M8) <= 25
 limit_peso(L103,M9): + 39 x(L103,M9) <= 25
 limit_peso(L103,M10): + 39 x(L103,M10) <= 25
 limit_peso(L104,M1): + 30 x(L104,M1) <= 60
 limit_peso(L104,M2): + 30 x(L104,M2) <= 60
 limit_peso(L104,M3): + 30 x(L104,M3) <= 45
 limit_peso(L104,M4): + 30 x(L104,M4) <= 45
 limit_peso(L104,M5): + 30 x(L104,M5) <= 35
 limit_peso(L104,M6): + 30 x(L104,M6) <= 35
 limit_peso(L104,M7): + 30 x(L104,M7) <= 30
 limit_peso(L104,M8): + 30 x(L104,M8) <= 25
 limit_peso(L104,M9): + 30 x(L104,M9) <= 25
 limit_peso(L104,M10): + 30 x(L104,M10) <= 25
 limit_peso(L105,M1): + 22 x(L105,M1) <= 60
 limit_peso(L105,M2): + 22 x(L105,M2) <= 60
 limit_peso(L105,M3): + 22 x(L105,M3) <= 45
 limit_peso(L105,M4): + 22 x(L105,M4) <= 45
 limit_peso(L105,M5): + 22 x(L105,M5) <= 35
 limit_peso(L105,M6): + 22 x(L105,M6) <= 35
 limit_peso(L105,M7): + 22 x(L105,M7) <= 30
 limit_peso(L105,M8): + 22 x(L105,M8) <= 25
 limit_peso(L105,M9): + 22 x(L105,M9) <= 25
 limit_peso(L105,M10): + 22 x(L105,M10) <= 25
 limit_peso(L106,M1): + 33 x(L106,M1) <= 60
 limit_peso(L106,M2): + 33 x(L106,M2) <= 60
 limit_peso(L106,M3): + 33 x(L106,M3) <= 45
 limit_peso(L106,M4): + 33 x(L106,M4) <= 45
 limit_peso(L106,M5): + 33 x(L106,M5) <= 35
 limit_peso(L106,M6): + 33 x(L106,M6) <= 35
 limit_peso(L106,M7): + 33 x(L106,M7) <= 30
 limit_peso(L106,M8): + 33 x(L106,M8) <= 25
 limit_peso(L106,M9): + 33 x(L106,M9) <= 25
 limit_peso(L106,M10): + 33 x(L106,M10) <= 25
 limit_peso(L107,M1): + 37 x(L107,M1) <= 60
 limit_peso(L107,M2): + 37 x(L107,M2) <= 60
 limit_peso(L107,M3): + 37 x(L107,M3) <= 45
 limit_peso(L107,M4): + 37 x(L107,M4) <= 45
 limit_peso(L107,M5): + 37 x(L107,M5) <= 35
 limit_peso(L107,M6): + 37 x(L107,M6) <= 35
 limit_peso(L107,M7): + 37 x(L107,M7) <= 30
 limit_peso(L107,M8): + 37 x(L107,M8) <= 25
 limit_peso(L107,M9): + 37 x(L107,M9) <= 25
 limit_peso(L107,M10): + 37 x(L107,M10) <= 25
 limit_peso(L108,M1): + 36 x(L108,M1) <= 60
 limit_peso(L108,M2): + 36 x(L108,M2) <= 60
 limit_peso(L108,M3): + 36 x(L108,M3) <= 45
 limit_peso(L108,M4): + 36 x(L108,M4) <= 45
 limit_peso(L108,M5): + 36 x(L108,M5) <= 35
 limit_peso(L108,M6): + 36 x(L108,M6) <= 35
 limit_peso(L108,M7): + 36 x(L108,M7) <= 30
 limit_peso(L108,M8): + 36 x(L108,M8) <= 25
 limit_peso(L108,M9): + 36 x(L108,M9) <= 25
 limit_peso(L108,M10): + 36 x(L108,M10) <= 25
 limit_peso(L109,M1): + 23 x(L109,M1) <= 60
 limit_peso(L109,M2): + 23 x(L109,M2) <= 60
 limit_peso(L109,M3): + 23 x(L109,M3) <= 45
 limit_peso(L109,M4): + 23 x(L109,M4) <= 45
 limit_peso(L109,M5): + 23 x(L109,M5) <= 35
 limit_peso(L109,M6): + 23 x(L109,M6) <= 35
 limit_peso(L109,M7): + 23 x(L109,M7) <= 30
 limit_peso(L109,M8): + 23 x(L109,M8) <= 25
 limit_peso(L109,M9): + 23 x(L109,M9) <= 25
 limit_peso(L109,M10): + 23 x(L109,M10) <= 25
 limit_peso(L110,M1): + 34 x(L110,M1) <= 60
 limit_peso(L110,M2): + 34 x(L110,M2) <= 60
 limit_peso(L110,M3): + 34 x(L110,M3) <= 45
 limit_peso(L110,M4): + 34 x(L110,M4) <= 45
 limit_peso(L110,M5): + 34 x(L110,M5) <= 35
 limit_peso(L110,M6): + 34 x(L110,M6) <= 35
 limit_peso(L110,M7): + 34 x(L110,M7) <= 30
 limit_peso(L110,M8): + 34 x(L110,M8) <= 25
 limit_peso(L110,M9): + 34 x(L110,M9) <= 25
 limit_peso(L110,M10): + 34 x(L110,M10) <= 25
 limit_peso(L111,M1): + 38 x(L111,M1) <= 60
 limit_peso(L111,M2): + 38 x(L111,M2) <= 60
 limit_peso(L111,M3): + 38 x(L111,M3) <= 45
 limit_peso(L111,M4): + 38 x(L111,M4) <= 45
 limit_peso(L111,M5): + 38 x(L111,M5) <= 35
 limit_peso(L111,M6): + 38 x(L111,M6) <= 35
 limit_peso(L111,M7): + 38 x(L111,M7) <= 30
 limit_peso(L111,M8): + 38 x(L111,M8) <= 25
 limit_peso(L111,M9): + 38 x(L111,M9) <= 25
 limit_peso(L111,M10): + 38 x(L111,M10) <= 25
 limit_peso(L112,M1): + 37 x(L112,M1) <= 60
 limit_peso(L112,M2): + 37 x(L112,M2) <= 60
 limit_peso(L112,M3): + 37 x(L112,M3) <= 45
 limit_peso(L112,M4): + 37 x(L112,M4) <= 45
 limit_peso(L112,M5): + 37 x(L112,M5) <= 35
 limit_peso(L112,M6): + 37 x(L112,M6) <= 35
 limit_peso(L112,M7): + 37 x(L112,M7) <= 30
 limit_peso(L112,M8): + 37 x(L112,M8) <= 25
 limit_peso(L112,M9): + 37 x(L112,M9) <= 25
 limit_peso(L112,M10): + 37 x(L112,M10) <= 25
 limit_peso(L113,M1): + 35 x(L113,M1) <= 60
 limit_peso(L113,M2): + 35 x(L113,M2) <= 60
 limit_peso(L113,M3): + 35 x(L113,M3) <= 45
 limit_peso(L113,M4): + 35 x(L113,M4) <= 45
 limit_peso(L113,M5): + 35 x(L113,M5) <= 35
 limit_peso(L113,M6): + 35 x(L113,M6) <= 35
 limit_peso(L113,M7): + 35 x(L113,M7) <= 30
 limit_peso(L113,M8): + 35 x(L113,M8) <= 25
 limit_peso(L113,M9): + 35 x(L113,M9) <= 25
 limit_peso(L113,M10): + 35 x(L113,M10) <= 25
 limit_peso(L114,M1): + 28 x(L114,M1) <= 60
 limit_peso(L114,M2): + 28 x(L114,M2) <= 60
 limit_peso(L114,M3): + 28 x(L114,M3) <= 45
 limit_peso(L114,M4): + 28 x(L114,M4) <= 45
 limit_peso(L114,M5): + 28 x(L114,M5) <= 35
 limit_peso(L114,M6): + 28 x(L114,M6) <= 35
 limit_peso(L114,M7): + 28 x(L114,M7) <= 30
 limit_peso(L114,M8): + 28 x(L114,M8) <= 25
 limit_peso(L114,M9): + 28 x(L114,M9) <= 25
 limit_peso(L114,M10): + 28 x(L114,M10) <= 25
 limit_peso(L115,M1): + 39 x(L115,M1) <= 60
 limit_peso(L115,M2): + 39 x(L115,M2) <= 60
 limit_peso(L115,M3): + 39 x(L115,M3) <= 45
 limit_peso(L115,M4): + 39 x(L115,M4) <= 45
 limit_peso(L115,M5): + 39 x(L115,M5) <= 35
 limit_peso(L115,M6): + 39 x(L115,M6) <= 35
 limit_peso(L115,M7): + 39 x(L115,M7) <= 30
 limit_peso(L115,M8): + 39 x(L115,M8) <= 25
 limit_peso(L115,M9): + 39 x(L115,M9) <= 25
 limit_peso(L115,M10): + 39 x(L115,M10) <= 25
 limit_peso(L116,M1): + 40 x(L116,M1) <= 60
 limit_peso(L116,M2): + 40 x(L116,M2) <= 60
 limit_peso(L116,M3): + 40 x(L116,M3) <= 45
 limit_peso(L116,M4): + 40 x(L116,M4) <= 45
 limit_peso(L116,M5): + 40 x(L116,M5) <= 35
 limit_peso(L116,M6): + 40 x(L116,M6) <= 35
 limit_peso(L116,M7): + 40 x(L116,M7) <= 30
 limit_peso(L116,M8): + 40 x(L116,M8) <= 25
 limit_peso(L116,M9): + 40 x(L116,M9) <= 25
 limit_peso(L116,M10): + 40 x(L116,M10) <= 25
 limit_peso(L117,M1): + 22 x(L117,M1) <= 60
 limit_peso(L117,M2): + 22 x(L117,M2) <= 60
 limit_peso(L117,M3): + 22 x(L117,M3) <= 45
 limit_peso(L117,M4): + 22 x(L117,M4) <= 45
 limit_peso(L117,M5): + 22 x(L117,M5) <= 35
 limit_peso(L117,M6): + 22 x(L117,M6) <= 35
 limit_peso(L117,M7): + 22 x(L117,M7) <= 30
 limit_peso(L117,M8): + 22 x(L117,M8) <= 25
 limit_peso(L117,M9): + 22 x(L117,M9) <= 25
 limit_peso(L117,M10): + 22 x(L117,M10) <= 25
 limit_peso(L118,M1): + 33 x(L118,M1) <= 60
 limit_peso(L118,M2): + 33 x(L118,M2) <= 60
 limit_peso(L118,M3): + 33 x(L118,M3) <= 45
 limit_peso(L118,M4): + 33 x(L118,M4) <= 45
 limit_peso(L118,M5): + 33 x(L118,M5) <= 35
 limit_peso(L118,M6): + 33 x(L118,M6) <= 35
 limit_peso(L118,M7): + 33 x(L118,M7) <= 30
 limit_peso(L118,M8): + 33 x(L118,M8) <= 25
 limit_peso(L118,M9): + 33 x(L118,M9) <= 25
 limit_peso(L118,M10): + 33 x(L118,M10) <= 25
 limit_peso(L119,M1): + 37 x(L119,M1) <= 60
 limit_peso(L119,M2): + 37 x(L119,M2) <= 60
 limit_peso(L119,M3): + 37 x(L119,M3) <= 45
 limit_peso(L119,M4): + 37 x(L119,M4) <= 45
 limit_peso(L119,M5): + 37 x(L119,M5) <= 35
 limit_peso(L119,M6): + 37 x(L119,M6) <= 35
 limit_peso(L119,M7): + 37 x(L119,M7) <= 30
 limit_peso(L119,M8): + 37 x(L119,M8) <= 25
 limit_peso(L119,M9): + 37 x(L119,M9) <= 25
 limit_peso(L119,M10): + 37 x(L119,M10) <= 25
 limit_peso(L120,M1): + 36 x(L120,M1) <= 60
 limit_peso(L120,M2): + 36 x(L120,M2) <= 60
 limit_peso(L120,M3): + 36 x(L120,M3) <= 45
 limit_peso(L120,M4): + 36 x(L120,M4) <= 45
 limit_peso(L120,M5): + 36 x(L120,M5) <= 35
 limit_peso(L120,M6): + 36 x(L120,M6) <= 35
 limit_peso(L120,M7): + 36 x(L120,M7) <= 30
 limit_peso(L120,M8): + 36 x(L120,M8) <= 25
 limit_peso(L120,M9): + 36 x(L120,M9) <= 25
 limit_peso(L120,M10): + 36 x(L120,M10) <= 25
 limit_peso(L121,M1): + 34 x(L121,M1) <= 60
 limit_peso(L121,M2): + 34 x(L121,M2) <= 60
 limit_peso(L121,M3): + 34 x(L121,M3) <= 45
 limit_peso(L121,M4): + 34 x(L121,M4) <= 45
 limit_peso(L121,M5): + 34 x(L121,M5) <= 35
 limit_peso(L121,M6): + 34 x(L121,M6) <= 35
 limit_peso(L121,M7): + 34 x(L121,M7) <= 30
 limit_peso(L121,M8): + 34 x(L121,M8) <= 25
 limit_peso(L121,M9): + 34 x(L121,M9) <= 25
 limit_peso(L121,M10): + 34 x(L121,M10) <= 25
 limit_peso(L122,M1): + 35 x(L122,M1) <= 60
 limit_peso(L122,M2): + 35 x(L122,M2) <= 60
 limit_peso(L122,M3): + 35 x(L122,M3) <= 45
 limit_peso(L122,M4): + 35 x(L122,M4) <= 45
 limit_peso(L122,M5): + 35 x(L122,M5) <= 35
 limit_peso(L122,M6): + 35 x(L122,M6) <= 35
 limit_peso(L122,M7): + 35 x(L122,M7) <= 30
 limit_peso(L122,M8): + 35 x(L122,M8) <= 25
 limit_peso(L122,M9): + 35 x(L122,M9) <= 25
 limit_peso(L122,M10): + 35 x(L122,M10) <= 25
 limit_peso(L123,M1): + 40 x(L123,M1) <= 60
 limit_peso(L123,M2): + 40 x(L123,M2) <= 60
 limit_peso(L123,M3): + 40 x(L123,M3) <= 45
 limit_peso(L123,M4): + 40 x(L123,M4) <= 45
 limit_peso(L123,M5): + 40 x(L123,M5) <= 35
 limit_peso(L123,M6): + 40 x(L123,M6) <= 35
 limit_peso(L123,M7): + 40 x(L123,M7) <= 30
 limit_peso(L123,M8): + 40 x(L123,M8) <= 25
 limit_peso(L123,M9): + 40 x(L123,M9) <= 25
 limit_peso(L123,M10): + 40 x(L123,M10) <= 25
 limit_peso(L124,M1): + 35 x(L124,M1) <= 60
 limit_peso(L124,M2): + 35 x(L124,M2) <= 60
 limit_peso(L124,M3): + 35 x(L124,M3) <= 45
 limit_peso(L124,M4): + 35 x(L124,M4) <= 45
 limit_peso(L124,M5): + 35 x(L124,M5) <= 35
 limit_peso(L124,M6): + 35 x(L124,M6) <= 35
 limit_peso(L124,M7): + 35 x(L124,M7) <= 30
 limit_peso(L124,M8): + 35 x(L124,M8) <= 25
 limit_peso(L124,M9): + 35 x(L124,M9) <= 25
 limit_peso(L124,M10): + 35 x(L124,M10) <= 25
 limit_peso(L125,M1): + 31 x(L125,M1) <= 60
 limit_peso(L125,M2): + 31 x(L125,M2) <= 60
 limit_peso(L125,M3): + 31 x(L125,M3) <= 45
 limit_peso(L125,M4): + 31 x(L125,M4) <= 45
 limit_peso(L125,M5): + 31 x(L125,M5) <= 35
 limit_peso(L125,M6): + 31 x(L125,M6) <= 35
 limit_peso(L125,M7): + 31 x(L125,M7) <= 30
 limit_peso(L125,M8): + 31 x(L125,M8) <= 25
 limit_peso(L125,M9): + 31 x(L125,M9) <= 25
 limit_peso(L125,M10): + 31 x(L125,M10) <= 25
 makes_spam(M1): + 2 x(L1,M1) + 4 x(L2,M1) + 2 x(L3,M1) + 3 x(L4,M1)
 + 4 x(L5,M1) + 2 x(L6,M1) + 3 x(L7,M1) + 2 x(L8,M1) + 2 x(L9,M1)
 + 4 x(L10,M1) + 4 x(L11,M1) + 2 x(L12,M1) + 3 x(L13,M1) + 4 x(L14,M1)
 + 3 x(L15,M1) + 2 x(L16,M1) + 3 x(L17,M1) + 2 x(L18,M1) + 2 x(L19,M1)
 + 3 x(L20,M1) + 4 x(L21,M1) + 3 x(L22,M1) + 3 x(L23,M1) + 4 x(L24,M1)
 + 4 x(L25,M1) + 4 x(L26,M1) + 2 x(L27,M1) + 3 x(L28,M1) + 4 x(L29,M1)
 + 2 x(L30,M1) + 4 x(L31,M1) + 3 x(L32,M1) + 2 x(L33,M1) + 4 x(L34,M1)
 + 3 x(L35,M1) + 2 x(L36,M1) + 4 x(L37,M1) + 3 x(L38,M1) + 2 x(L39,M1)
 + 3 x(L40,M1) + 4 x(L41,M1) + 3 x(L42,M1) + 4 x(L43,M1) + 4 x(L44,M1)
 + 3 x(L45,M1) + 3 x(L46,M1) + 4 x(L47,M1) + 4 x(L48,M1) + 2 x(L49,M1)
 + 3 x(L50,M1) + 2 x(L51,M1) + 3 x(L52,M1) + 2 x(L53,M1) + 2 x(L54,M1)
 + 3 x(L55,M1) + 2 x(L56,M1) + 4 x(L57,M1) + 4 x(L58,M1) + 4 x(L59,M1)
 + 3 x(L60,M1) + 4 x(L61,M1) + 2 x(L62,M1) + 2 x(L63,M1) + 3 x(L64,M1)
 + 2 x(L65,M1) + 3 x(L66,M1) + 2 x(L67,M1) + 4 x(L68,M1) + 4 x(L69,M1)
 + 2 x(L70,M1) + 2 x(L71,M1) + 4 x(L72,M1) + 3 x(L73,M1) + 4 x(L74,M1)
 + 2 x(L75,M1) + 3 x(L76,M1) + 3 x(L77,M1) + 3 x(L78,M1) + 2 x(L79,M1)
 + 4 x(L80,M1) + 4 x(L81,M1) + 3 x(L82,M1) + 2 x(L83,M1) + 2 x(L84,M1)
 + 3 x(L85,M1) + 2 x(L86,M1) + 2 x(L87,M1) + 2 x(L88,M1) + 4 x(L89,M1)
 + 2 x(L90,M1) + 4 x(L91,M1) + 4 x(L92,M1) + 2 x(L93,M1) + 2 x(L94,M1)
 + 4 x(L95,M1) + 3 x(L96,M1) + 2 x(L97,M1) + 3 x(L98,M1) + 2 x(L99,M1)
 + 2 x(L100,M1) + 2 x(L101,M1) + 2 x(L102,M1) + 3 x(L103,M1)
 + 2 x(L104,M1) + 2 x(L105,M1) + 2 x(L106,M1) + 4 x(L107,M1)
 + 2 x(L108,M1) + 3 x(L109,M1) + 3 x(L110,M1) + 2 x(L111,M1)
 + 4 x(L112,M1) + 2 x(L113,M1) + 3 x(L114,M1) + 4 x(L115,M1)
 + 4 x(L116,M1) + 3 x(L117,M1) + 4 x(L118,M1) + 4 x(L119,M1)
 + 4 x(L120,M1) + 3 x(L121,M1) + 4 x(L122,M1) + 4 x(L123,M1)
 + 4 x(L124,M1) + 4 x(L125,M1) - Cmax <= -0
 makes_spam(M2): + 2 x(L1,M2) + 4 x(L2,M2) + 2 x(L3,M2) + 3 x(L4,M2)
 + 4 x(L5,M2) + 2 x(L6,M2) + 3 x(L7,M2) + 2 x(L8,M2) + 2 x(L9,M2)
 + 4 x(L10,M2) + 4 x(L11,M2) + 2 x(L12,M2) + 3 x(L13,M2) + 4 x(L14,M2)
 + 3 x(L15,M2) + 2 x(L16,M2) + 3 x(L17,M2) + 2 x(L18,M2) + 2 x(L19,M2)
 + 3 x(L20,M2) + 4 x(L21,M2) + 3 x(L22,M2) + 3 x(L23,M2) + 4 x(L24,M2)
 + 4 x(L25,M2) + 4 x(L26,M2) + 2 x(L27,M2) + 3 x(L28,M2) + 4 x(L29,M2)
 + 2 x(L30,M2) + 4 x(L31,M2) + 3 x(L32,M2) + 2 x(L33,M2) + 4 x(L34,M2)
 + 3 x(L35,M2) + 2 x(L36,M2) + 4 x(L37,M2) + 3 x(L38,M2) + 2 x(L39,M2)
 + 3 x(L40,M2) + 4 x(L41,M2) + 3 x(L42,M2) + 4 x(L43,M2) + 4 x(L44,M2)
 + 3 x(L45,M2) + 3 x(L46,M2) + 4 x(L47,M2) + 4 x(L48,M2) + 2 x(L49,M2)
 + 3 x(L50,M2) + 2 x(L51,M2) + 3 x(L52,M2) + 2 x(L53,M2) + 2 x(L54,M2)
 + 3 x(L55,M2) + 2 x(L56,M2) + 4 x(L57,M2) + 4 x(L58,M2) + 4 x(L59,M2)
 + 3 x(L60,M2) + 4 x(L61,M2) + 2 x(L62,M2) + 2 x(L63,M2) + 3 x(L64,M2)
 + 2 x(L65,M2) + 3 x(L66,M2) + 2 x(L67,M2) + 4 x(L68,M2) + 4 x(L69,M2)
 + 2 x(L70,M2) + 2 x(L71,M2) + 4 x(L72,M2) + 3 x(L73,M2) + 4 x(L74,M2)
 + 2 x(L75,M2) + 3 x(L76,M2) + 3 x(L77,M2) + 3 x(L78,M2) + 2 x(L79,M2)
 + 4 x(L80,M2) + 4 x(L81,M2) + 3 x(L82,M2) + 2 x(L83,M2) + 2 x(L84,M2)
 + 3 x(L85,M2) + 2 x(L86,M2) + 2 x(L87,M2) + 2 x(L88,M2) + 4 x(L89,M2)
 + 2 x(L90,M2) + 4 x(L91,M2) + 4 x(L92,M2) + 2 x(L93,M2) + 2 x(L94,M2)
 + 4 x(L95,M2) + 3 x(L96,M2) + 2 x(L97,M2) + 3 x(L98,M2) + 2 x(L99,M2)
 + 2 x(L100,M2) + 2 x(L101,M2) + 2 x(L102,M2) + 3 x(L103,M2)
 + 2 x(L104,M2) + 2 x(L105,M2) + 2 x(L106,M2) + 4 x(L107,M2)
 + 2 x(L108,M2) + 3 x(L109,M2) + 3 x(L110,M2) + 2 x(L111,M2)
 + 4 x(L112,M2) + 2 x(L113,M2) + 3 x(L114,M2) + 4 x(L115,M2)
 + 4 x(L116,M2) + 3 x(L117,M2) + 4 x(L118,M2) + 4 x(L119,M2)
 + 4 x(L120,M2) + 3 x(L121,M2) + 4 x(L122,M2) + 4 x(L123,M2)
 + 4 x(L124,M2) + 4 x(L125,M2) - Cmax <= -0
 makes_spam(M3): + 2 x(L1,M3) + 4 x(L2,M3) + 2 x(L3,M3) + 3 x(L4,M3)
 + 4 x(L5,M3) + 2 x(L6,M3) + 3 x(L7,M3) + 2 x(L8,M3) + 2 x(L9,M3)
 + 4 x(L10,M3) + 4 x(L11,M3) + 2 x(L12,M3) + 3 x(L13,M3) + 4 x(L14,M3)
 + 3 x(L15,M3) + 2 x(L16,M3) + 3 x(L17,M3) + 2 x(L18,M3) + 2 x(L19,M3)
 + 3 x(L20,M3) + 4 x(L21,M3) + 3 x(L22,M3) + 3 x(L23,M3) + 4 x(L24,M3)
 + 4 x(L25,M3) + 4 x(L26,M3) + 2 x(L27,M3) + 3 x(L28,M3) + 4 x(L29,M3)
 + 2 x(L30,M3) + 4 x(L31,M3) + 3 x(L32,M3) + 2 x(L33,M3) + 4 x(L34,M3)
 + 3 x(L35,M3) + 2 x(L36,M3) + 4 x(L37,M3) + 3 x(L38,M3) + 2 x(L39,M3)
 + 3 x(L40,M3) + 4 x(L41,M3) + 3 x(L42,M3) + 4 x(L43,M3) + 4 x(L44,M3)
 + 3 x(L45,M3) + 3 x(L46,M3) + 4 x(L47,M3) + 4 x(L48,M3) + 2 x(L49,M3)
 + 3 x(L50,M3) + 2 x(L51,M3) + 3 x(L52,M3) + 2 x(L53,M3) + 2 x(L54,M3)
 + 3 x(L55,M3) + 2 x(L56,M3) + 4 x(L57,M3) + 4 x(L58,M3) + 4 x(L59,M3)
 + 3 x(L60,M3) + 4 x(L61,M3) + 2 x(L62,M3) + 2 x(L63,M3) + 3 x(L64,M3)
 + 2 x(L65,M3) + 3 x(L66,M3) + 2 x(L67,M3) + 4 x(L68,M3) + 4 x(L69,M3)
 + 2 x(L70,M3) + 2 x(L71,M3) + 4 x(L72,M3) + 3 x(L73,M3) + 4 x(L74,M3)
 + 2 x(L75,M3) + 3 x(L76,M3) + 3 x(L77,M3) + 3 x(L78,M3) + 2 x(L79,M3)
 + 4 x(L80,M3) + 4 x(L81,M3) + 3 x(L82,M3) + 2 x(L83,M3) + 2 x(L84,M3)
 + 3 x(L85,M3) + 2 x(L86,M3) + 2 x(L87,M3) + 2 x(L88,M3) + 4 x(L89,M3)
 + 2 x(L90,M3) + 4 x(L91,M3) + 4 x(L92,M3) + 2 x(L93,M3) + 2 x(L94,M3)
 + 4 x(L95,M3) + 3 x(L96,M3) + 2 x(L97,M3) + 3 x(L98,M3) + 2 x(L99,M3)
 + 2 x(L100,M3) + 2 x(L101,M3) + 2 x(L102,M3) + 3 x(L103,M3)
 + 2 x(L104,M3) + 2 x(L105,M3) + 2 x(L106,M3) + 4 x(L107,M3)
 + 2 x(L108,M3) + 3 x(L109,M3) + 3 x(L110,M3) + 2 x(L111,M3)
 + 4 x(L112,M3) + 2 x(L113,M3) + 3 x(L114,M3) + 4 x(L115,M3)
 + 4 x(L116,M3) + 3 x(L117,M3) + 4 x(L118,M3) + 4 x(L119,M3)
 + 4 x(L120,M3) + 3 x(L121,M3) + 4 x(L122,M3) + 4 x(L123,M3)
 + 4 x(L124,M3) + 4 x(L125,M3) - Cmax <= -0
 makes_spam(M4): + 2 x(L1,M4) + 4 x(L2,M4) + 2 x(L3,M4) + 3 x(L4,M4)
 + 4 x(L5,M4) + 2 x(L6,M4) + 3 x(L7,M4) + 2 x(L8,M4) + 2 x(L9,M4)
 + 4 x(L10,M4) + 4 x(L11,M4) + 2 x(L12,M4) + 3 x(L13,M4) + 4 x(L14,M4)
 + 3 x(L15,M4) + 2 x(L16,M4) + 3 x(L17,M4) + 2 x(L18,M4) + 2 x(L19,M4)
 + 3 x(L20,M4) + 4 x(L21,M4) + 3 x(L22,M4) + 3 x(L23,M4) + 4 x(L24,M4)
 + 4 x(L25,M4) + 4 x(L26,M4) + 2 x(L27,M4) + 3 x(L28,M4) + 4 x(L29,M4)
 + 2 x(L30,M4) + 4 x(L31,M4) + 3 x(L32,M4) + 2 x(L33,M4) + 4 x(L34,M4)
 + 3 x(L35,M4) + 2 x(L36,M4) + 4 x(L37,M4) + 3 x(L38,M4) + 2 x(L39,M4)
 + 3 x(L40,M4) + 4 x(L41,M4) + 3 x(L42,M4) + 4 x(L43,M4) + 4 x(L44,M4)
 + 3 x(L45,M4) + 3 x(L46,M4) + 4 x(L47,M4) + 4 x(L48,M4) + 2 x(L49,M4)
 + 3 x(L50,M4) + 2 x(L51,M4) + 3 x(L52,M4) + 2 x(L53,M4) + 2 x(L54,M4)
 + 3 x(L55,M4) + 2 x(L56,M4) + 4 x(L57,M4) + 4 x(L58,M4) + 4 x(L59,M4)
 + 3 x(L60,M4) + 4 x(L61,M4) + 2 x(L62,M4) + 2 x(L63,M4) + 3 x(L64,M4)
 + 2 x(L65,M4) + 3 x(L66,M4) + 2 x(L67,M4) + 4 x(L68,M4) + 4 x(L69,M4)
 + 2 x(L70,M4) + 2 x(L71,M4) + 4 x(L72,M4) + 3 x(L73,M4) + 4 x(L74,M4)
 + 2 x(L75,M4) + 3 x(L76,M4) + 3 x(L77,M4) + 3 x(L78,M4) + 2 x(L79,M4)
 + 4 x(L80,M4) + 4 x(L81,M4) + 3 x(L82,M4) + 2 x(L83,M4) + 2 x(L84,M4)
 + 3 x(L85,M4) + 2 x(L86,M4) + 2 x(L87,M4) + 2 x(L88,M4) + 4 x(L89,M4)
 + 2 x(L90,M4) + 4 x(L91,M4) + 4 x(L92,M4) + 2 x(L93,M4) + 2 x(L94,M4)
 + 4 x(L95,M4) + 3 x(L96,M4) + 2 x(L97,M4) + 3 x(L98,M4) + 2 x(L99,M4)
 + 2 x(L100,M4) + 2 x(L101,M4) + 2 x(L102,M4) + 3 x(L103,M4)
 + 2 x(L104,M4) + 2 x(L105,M4) + 2 x(L106,M4) + 4 x(L107,M4)
 + 2 x(L108,M4) + 3 x(L109,M4) + 3 x(L110,M4) + 2 x(L111,M4)
 + 4 x(L112,M4) + 2 x(L113,M4) + 3 x(L114,M4) + 4 x(L115,M4)
 + 4 x(L116,M4) + 3 x(L117,M4) + 4 x(L118,M4) + 4 x(L119,M4)
 + 4 x(L120,M4) + 3 x(L121,M4) + 4 x(L122,M4) + 4 x(L123,M4)
 + 4 x(L124,M4) + 4 x(L125,M4) - Cmax <= -0
 makes_spam(M5): + 2 x(L1,M5) + 4 x(L2,M5) + 2 x(L3,M5) + 3 x(L4,M5)
 + 4 x(L5,M5) + 2 x(L6,M5) + 3 x(L7,M5) + 2 x(L8,M5) + 2 x(L9,M5)
 + 4 x(L10,M5) + 4 x(L11,M5) + 2 x(L12,M5) + 3 x(L13,M5) + 4 x(L14,M5)
 + 3 x(L15,M5) + 2 x(L16,M5) + 3 x(L17,M5) + 2 x(L18,M5) + 2 x(L19,M5)
 + 3 x(L20,M5) + 4 x(L21,M5) + 3 x(L22,M5) + 3 x(L23,M5) + 4 x(L24,M5)
 + 4 x(L25,M5) + 4 x(L26,M5) + 2 x(L27,M5) + 3 x(L28,M5) + 4 x(L29,M5)
 + 2 x(L30,M5) + 4 x(L31,M5) + 3 x(L32,M5) + 2 x(L33,M5) + 4 x(L34,M5)
 + 3 x(L35,M5) + 2 x(L36,M5) + 4 x(L37,M5) + 3 x(L38,M5) + 2 x(L39,M5)
 + 3 x(L40,M5) + 4 x(L41,M5) + 3 x(L42,M5) + 4 x(L43,M5) + 4 x(L44,M5)
 + 3 x(L45,M5) + 3 x(L46,M5) + 4 x(L47,M5) + 4 x(L48,M5) + 2 x(L49,M5)
 + 3 x(L50,M5) + 2 x(L51,M5) + 3 x(L52,M5) + 2 x(L53,M5) + 2 x(L54,M5)
 + 3 x(L55,M5) + 2 x(L56,M5) + 4 x(L57,M5) + 4 x(L58,M5) + 4 x(L59,M5)
 + 3 x(L60,M5) + 4 x(L61,M5) + 2 x(L62,M5) + 2 x(L63,M5) + 3 x(L64,M5)
 + 2 x(L65,M5) + 3 x(L66,M5) + 2 x(L67,M5) + 4 x(L68,M5) + 4 x(L69,M5)
 + 2 x(L70,M5) + 2 x(L71,M5) + 4 x(L72,M5) + 3 x(L73,M5) + 4 x(L74,M5)
 + 2 x(L75,M5) + 3 x(L76,M5) + 3 x(L77,M5) + 3 x(L78,M5) + 2 x(L79,M5)
 + 4 x(L80,M5) + 4 x(L81,M5) + 3 x(L82,M5) + 2 x(L83,M5) + 2 x(L84,M5)
 + 3 x(L85,M5) + 2 x(L86,M5) + 2 x(L87,M5) + 2 x(L88,M5) + 4 x(L89,M5)
 + 2 x(L90,M5) + 4 x(L91,M5) + 4 x(L92,M5) + 2 x(L93,M5) + 2 x(L94,M5)
 + 4 x(L95,M5) + 3 x(L96,M5) + 2 x(L97,M5) + 3 x(L98,M5) + 2 x(L99,M5)
 + 2 x(L100,M5) + 2 x(L101,M5) + 2 x(L102,M5) + 3 x(L103,M5)
 + 2 x(L104,M5) + 2 x(L105,M5) + 2 x(L106,M5) + 4 x(L107,M5)
 + 2 x(L108,M5) + 3 x(L109,M5) + 3 x(L110,M5) + 2 x(L111,M5)
 + 4 x(L112,M5) + 2 x(L113,M5) + 3 x(L114,M5) + 4 x(L115,M5)
 + 4 x(L116,M5) + 3 x(L117,M5) + 4 x(L118,M5) + 4 x(L119,M5)
 + 4 x(L120,M5) + 3 x(L121,M5) + 4 x(L122,M5) + 4 x(L123,M5)
 + 4 x(L124,M5) + 4 x(L125,M5) - Cmax <= -0
 makes_spam(M6): + 2 x(L1,M6) + 4 x(L2,M6) + 2 x(L3,M6) + 3 x(L4,M6)
 + 4 x(L5,M6) + 2 x(L6,M6) + 3 x(L7,M6) + 2 x(L8,M6) + 2 x(L9,M6)
 + 4 x(L10,M6) + 4 x(L11,M6) + 2 x(L12,M6) + 3 x(L13,M6) + 4 x(L14,M6)
 + 3 x(L15,M6) + 2 x(L16,M6) + 3 x(L17,M6) + 2 x(L18,M6) + 2 x(L19,M6)
 + 3 x(L20,M6) + 4 x(L21,M6) + 3 x(L22,M6) + 3 x(L23,M6) + 4 x(L24,M6)
 + 4 x(L25,M6) + 4 x(L26,M6) + 2 x(L27,M6) + 3 x(L28,M6) + 4 x(L29,M6)
 + 2 x(L30,M6) + 4 x(L31,M6) + 3 x(L32,M6) + 2 x(L33,M6) + 4 x(L34,M6)
 + 3 x(L35,M6) + 2 x(L36,M6) + 4 x(L37,M6) + 3 x(L38,M6) + 2 x(L39,M6)
 + 3 x(L40,M6) + 4 x(L41,M6) + 3 x(L42,M6) + 4 x(L43,M6) + 4 x(L44,M6)
 + 3 x(L45,M6) + 3 x(L46,M6) + 4 x(L47,M6) + 4 x(L48,M6) + 2 x(L49,M6)
 + 3 x(L50,M6) + 2 x(L51,M6) + 3 x(L52,M6) + 2 x(L53,M6) + 2 x(L54,M6)
 + 3 x(L55,M6) + 2 x(L56,M6) + 4 x(L57,M6) + 4 x(L58,M6) + 4 x(L59,M6)
 + 3 x(L60,M6) + 4 x(L61,M6) + 2 x(L62,M6) + 2 x(L63,M6) + 3 x(L64,M6)
 + 2 x(L65,M6) + 3 x(L66,M6) + 2 x(L67,M6) + 4 x(L68,M6) + 4 x(L69,M6)
 + 2 x(L70,M6) + 2 x(L71,M6) + 4 x(L72,M6) + 3 x(L73,M6) + 4 x(L74,M6)
 + 2 x(L75,M6) + 3 x(L76,M6) + 3 x(L77,M6) + 3 x(L78,M6) + 2 x(L79,M6)
 + 4 x(L80,M6) + 4 x(L81,M6) + 3 x(L82,M6) + 2 x(L83,M6) + 2 x(L84,M6)
 + 3 x(L85,M6) + 2 x(L86,M6) + 2 x(L87,M6) + 2 x(L88,M6) + 4 x(L89,M6)
 + 2 x(L90,M6) + 4 x(L91,M6) + 4 x(L92,M6) + 2 x(L93,M6) + 2 x(L94,M6)
 + 4 x(L95,M6) + 3 x(L96,M6) + 2 x(L97,M6) + 3 x(L98,M6) + 2 x(L99,M6)
 + 2 x(L100,M6) + 2 x(L101,M6) + 2 x(L102,M6) + 3 x(L103,M6)
 + 2 x(L104,M6) + 2 x(L105,M6) + 2 x(L106,M6) + 4 x(L107,M6)
 + 2 x(L108,M6) + 3 x(L109,M6) + 3 x(L110,M6) + 2 x(L111,M6)
 + 4 x(L112,M6) + 2 x(L113,M6) + 3 x(L114,M6) + 4 x(L115,M6)
 + 4 x(L116,M6) + 3 x(L117,M6) + 4 x(L118,M6) + 4 x(L119,M6)
 + 4 x(L120,M6) + 3 x(L121,M6) + 4 x(L122,M6) + 4 x(L123,M6)
 + 4 x(L124,M6) + 4 x(L125,M6) - Cmax <= -0
 makes_spam(M7): + 2 x(L1,M7) + 4 x(L2,M7) + 2 x(L3,M7) + 3 x(L4,M7)
 + 4 x(L5,M7) + 2 x(L6,M7) + 3 x(L7,M7) + 2 x(L8,M7) + 2 x(L9,M7)
 + 4 x(L10,M7) + 4 x(L11,M7) + 2 x(L12,M7) + 3 x(L13,M7) + 4 x(L14,M7)
 + 3 x(L15,M7) + 2 x(L16,M7) + 3 x(L17,M7) + 2 x(L18,M7) + 2 x(L19,M7)
 + 3 x(L20,M7) + 4 x(L21,M7) + 3 x(L22,M7) + 3 x(L23,M7) + 4 x(L24,M7)
 + 4 x(L25,M7) + 4 x(L26,M7) + 2 x(L27,M7) + 3 x(L28,M7) + 4 x(L29,M7)
 + 2 x(L30,M7) + 4 x(L31,M7) + 3 x(L32,M7) + 2 x(L33,M7) + 4 x(L34,M7)
 + 3 x(L35,M7) + 2 x(L36,M7) + 4 x(L37,M7) + 3 x(L38,M7) + 2 x(L39,M7)
 + 3 x(L40,M7) + 4 x(L41,M7) + 3 x(L42,M7) + 4 x(L43,M7) + 4 x(L44,M7)
 + 3 x(L45,M7) + 3 x(L46,M7) + 4 x(L47,M7) + 4 x(L48,M7) + 2 x(L49,M7)
 + 3 x(L50,M7) + 2 x(L51,M7) + 3 x(L52,M7) + 2 x(L53,M7) + 2 x(L54,M7)
 + 3 x(L55,M7) + 2 x(L56,M7) + 4 x(L57,M7) + 4 x(L58,M7) + 4 x(L59,M7)
 + 3 x(L60,M7) + 4 x(L61,M7) + 2 x(L62,M7) + 2 x(L63,M7) + 3 x(L64,M7)
 + 2 x(L65,M7) + 3 x(L66,M7) + 2 x(L67,M7) + 4 x(L68,M7) + 4 x(L69,M7)
 + 2 x(L70,M7) + 2 x(L71,M7) + 4 x(L72,M7) + 3 x(L73,M7) + 4 x(L74,M7)
 + 2 x(L75,M7) + 3 x(L76,M7) + 3 x(L77,M7) + 3 x(L78,M7) + 2 x(L79,M7)
 + 4 x(L80,M7) + 4 x(L81,M7) + 3 x(L82,M7) + 2 x(L83,M7) + 2 x(L84,M7)
 + 3 x(L85,M7) + 2 x(L86,M7) + 2 x(L87,M7) + 2 x(L88,M7) + 4 x(L89,M7)
 + 2 x(L90,M7) + 4 x(L91,M7) + 4 x(L92,M7) + 2 x(L93,M7) + 2 x(L94,M7)
 + 4 x(L95,M7) + 3 x(L96,M7) + 2 x(L97,M7) + 3 x(L98,M7) + 2 x(L99,M7)
 + 2 x(L100,M7) + 2 x(L101,M7) + 2 x(L102,M7) + 3 x(L103,M7)
 + 2 x(L104,M7) + 2 x(L105,M7) + 2 x(L106,M7) + 4 x(L107,M7)
 + 2 x(L108,M7) + 3 x(L109,M7) + 3 x(L110,M7) + 2 x(L111,M7)
 + 4 x(L112,M7) + 2 x(L113,M7) + 3 x(L114,M7) + 4 x(L115,M7)
 + 4 x(L116,M7) + 3 x(L117,M7) + 4 x(L118,M7) + 4 x(L119,M7)
 + 4 x(L120,M7) + 3 x(L121,M7) + 4 x(L122,M7) + 4 x(L123,M7)
 + 4 x(L124,M7) + 4 x(L125,M7) - Cmax <= -0
 makes_spam(M8): + 2 x(L1,M8) + 4 x(L2,M8) + 2 x(L3,M8) + 3 x(L4,M8)
 + 4 x(L5,M8) + 2 x(L6,M8) + 3 x(L7,M8) + 2 x(L8,M8) + 2 x(L9,M8)
 + 4 x(L10,M8) + 4 x(L11,M8) + 2 x(L12,M8) + 3 x(L13,M8) + 4 x(L14,M8)
 + 3 x(L15,M8) + 2 x(L16,M8) + 3 x(L17,M8) + 2 x(L18,M8) + 2 x(L19,M8)
 + 3 x(L20,M8) + 4 x(L21,M8) + 3 x(L22,M8) + 3 x(L23,M8) + 4 x(L24,M8)
 + 4 x(L25,M8) + 4 x(L26,M8) + 2 x(L27,M8) + 3 x(L28,M8) + 4 x(L29,M8)
 + 2 x(L30,M8) + 4 x(L31,M8) + 3 x(L32,M8) + 2 x(L33,M8) + 4 x(L34,M8)
 + 3 x(L35,M8) + 2 x(L36,M8) + 4 x(L37,M8) + 3 x(L38,M8) + 2 x(L39,M8)
 + 3 x(L40,M8) + 4 x(L41,M8) + 3 x(L42,M8) + 4 x(L43,M8) + 4 x(L44,M8)
 + 3 x(L45,M8) + 3 x(L46,M8) + 4 x(L47,M8) + 4 x(L48,M8) + 2 x(L49,M8)
 + 3 x(L50,M8) + 2 x(L51,M8) + 3 x(L52,M8) + 2 x(L53,M8) + 2 x(L54,M8)
 + 3 x(L55,M8) + 2 x(L56,M8) + 4 x(L57,M8) + 4 x(L58,M8) + 4 x(L59,M8)
 + 3 x(L60,M8) + 4 x(L61,M8) + 2 x(L62,M8) + 2 x(L63,M8) + 3 x(L64,M8)
 + 2 x(L65,M8) + 3 x(L66,M8) + 2 x(L67,M8) + 4 x(L68,M8) + 4 x(L69,M8)
 + 2 x(L70,M8) + 2 x(L71,M8) + 4 x(L72,M8) + 3 x(L73,M8) + 4 x(L74,M8)
 + 2 x(L75,M8) + 3 x(L76,M8) + 3 x(L77,M8) + 3 x(L78,M8) + 2 x(L79,M8)
 + 4 x(L80,M8) + 4 x(L81,M8) + 3 x(L82,M8) + 2 x(L83,M8) + 2 x(L84,M8)
 + 3 x(L85,M8) + 2 x(L86,M8) + 2 x(L87,M8) + 2 x(L88,M8) + 4 x(L89,M8)
 + 2 x(L90,M8) + 4 x(L91,M8) + 4 x(L92,M8) + 2 x(L93,M8) + 2 x(L94,M8)
 + 4 x(L95,M8) + 3 x(L96,M8) + 2 x(L97,M8) + 3 x(L98,M8) + 2 x(L99,M8)
 + 2 x(L100,M8) + 2 x(L101,M8) + 2 x(L102,M8) + 3 x(L103,M8)
 + 2 x(L104,M8) + 2 x(L105,M8) + 2 x(L106,M8) + 4 x(L107,M8)
 + 2 x(L108,M8) + 3 x(L109,M8) + 3 x(L110,M8) + 2 x(L111,M8)
 + 4 x(L112,M8) + 2 x(L113,M8) + 3 x(L114,M8) + 4 x(L115,M8)
 + 4 x(L116,M8) + 3 x(L117,M8) + 4 x(L118,M8) + 4 x(L119,M8)
 + 4 x(L120,M8) + 3 x(L121,M8) + 4 x(L122,M8) + 4 x(L123,M8)
 + 4 x(L124,M8) + 4 x(L125,M8) - Cmax <= -0
 makes_spam(M9): + 2 x(L1,M9) + 4 x(L2,M9) + 2 x(L3,M9) + 3 x(L4,M9)
 + 4 x(L5,M9) + 2 x(L6,M9) + 3 x(L7,M9) + 2 x(L8,M9) + 2 x(L9,M9)
 + 4 x(L10,M9) + 4 x(L11,M9) + 2 x(L12,M9) + 3 x(L13,M9) + 4 x(L14,M9)
 + 3 x(L15,M9) + 2 x(L16,M9) + 3 x(L17,M9) + 2 x(L18,M9) + 2 x(L19,M9)
 + 3 x(L20,M9) + 4 x(L21,M9) + 3 x(L22,M9) + 3 x(L23,M9) + 4 x(L24,M9)
 + 4 x(L25,M9) + 4 x(L26,M9) + 2 x(L27,M9) + 3 x(L28,M9) + 4 x(L29,M9)
 + 2 x(L30,M9) + 4 x(L31,M9) + 3 x(L32,M9) + 2 x(L33,M9) + 4 x(L34,M9)
 + 3 x(L35,M9) + 2 x(L36,M9) + 4 x(L37,M9) + 3 x(L38,M9) + 2 x(L39,M9)
 + 3 x(L40,M9) + 4 x(L41,M9) + 3 x(L42,M9) + 4 x(L43,M9) + 4 x(L44,M9)
 + 3 x(L45,M9) + 3 x(L46,M9) + 4 x(L47,M9) + 4 x(L48,M9) + 2 x(L49,M9)
 + 3 x(L50,M9) + 2 x(L51,M9) + 3 x(L52,M9) + 2 x(L53,M9) + 2 x(L54,M9)
 + 3 x(L55,M9) + 2 x(L56,M9) + 4 x(L57,M9) + 4 x(L58,M9) + 4 x(L59,M9)
 + 3 x(L60,M9) + 4 x(L61,M9) + 2 x(L62,M9) + 2 x(L63,M9) + 3 x(L64,M9)
 + 2 x(L65,M9) + 3 x(L66,M9) + 2 x(L67,M9) + 4 x(L68,M9) + 4 x(L69,M9)
 + 2 x(L70,M9) + 2 x(L71,M9) + 4 x(L72,M9) + 3 x(L73,M9) + 4 x(L74,M9)
 + 2 x(L75,M9) + 3 x(L76,M9) + 3 x(L77,M9) + 3 x(L78,M9) + 2 x(L79,M9)
 + 4 x(L80,M9) + 4 x(L81,M9) + 3 x(L82,M9) + 2 x(L83,M9) + 2 x(L84,M9)
 + 3 x(L85,M9) + 2 x(L86,M9) + 2 x(L87,M9) + 2 x(L88,M9) + 4 x(L89,M9)
 + 2 x(L90,M9) + 4 x(L91,M9) + 4 x(L92,M9) + 2 x(L93,M9) + 2 x(L94,M9)
 + 4 x(L95,M9) + 3 x(L96,M9) + 2 x(L97,M9) + 3 x(L98,M9) + 2 x(L99,M9)
 + 2 x(L100,M9) + 2 x(L101,M9) + 2 x(L102,M9) + 3 x(L103,M9)
 + 2 x(L104,M9) + 2 x(L105,M9) + 2 x(L106,M9) + 4 x(L107,M9)
 + 2 x(L108,M9) + 3 x(L109,M9) + 3 x(L110,M9) + 2 x(L111,M9)
 + 4 x(L112,M9) + 2 x(L113,M9) + 3 x(L114,M9) + 4 x(L115,M9)
 + 4 x(L116,M9) + 3 x(L117,M9) + 4 x(L118,M9) + 4 x(L119,M9)
 + 4 x(L120,M9) + 3 x(L121,M9) + 4 x(L122,M9) + 4 x(L123,M9)
 + 4 x(L124,M9) + 4 x(L125,M9) - Cmax <= -0
 makes_spam(M10): + 2 x(L1,M10) + 4 x(L2,M10) + 2 x(L3,M10)
 + 3 x(L4,M10) + 4 x(L5,M10) + 2 x(L6,M10) + 3 x(L7,M10) + 2 x(L8,M10)
 + 2 x(L9,M10) + 4 x(L10,M10) + 4 x(L11,M10) + 2 x(L12,M10)
 + 3 x(L13,M10) + 4 x(L14,M10) + 3 x(L15,M10) + 2 x(L16,M10)
 + 3 x(L17,M10) + 2 x(L18,M10) + 2 x(L19,M10) + 3 x(L20,M10)
 + 4 x(L21,M10) + 3 x(L22,M10) + 3 x(L23,M10) + 4 x(L24,M10)
 + 4 x(L25,M10) + 4 x(L26,M10) + 2 x(L27,M10) + 3 x(L28,M10)
 + 4 x(L29,M10) + 2 x(L30,M10) + 4 x(L31,M10) + 3 x(L32,M10)
 + 2 x(L33,M10) + 4 x(L34,M10) + 3 x(L35,M10) + 2 x(L36,M10)
 + 4 x(L37,M10) + 3 x(L38,M10) + 2 x(L39,M10) + 3 x(L40,M10)
 + 4 x(L41,M10) + 3 x(L42,M10) + 4 x(L43,M10) + 4 x(L44,M10)
 + 3 x(L45,M10) + 3 x(L46,M10) + 4 x(L47,M10) + 4 x(L48,M10)
 + 2 x(L49,M10) + 3 x(L50,M10) + 2 x(L51,M10) + 3 x(L52,M10)
 + 2 x(L53,M10) + 2 x(L54,M10) + 3 x(L55,M10) + 2 x(L56,M10)
 + 4 x(L57,M10) + 4 x(L58,M10) + 4 x(L59,M10) + 3 x(L60,M10)
 + 4 x(L61,M10) + 2 x(L62,M10) + 2 x(L63,M10) + 3 x(L64,M10)
 + 2 x(L65,M10) + 3 x(L66,M10) + 2 x(L67,M10) + 4 x(L68,M10)
 + 4 x(L69,M10) + 2 x(L70,M10) + 2 x(L71,M10) + 4 x(L72,M10)
 + 3 x(L73,M10) + 4 x(L74,M10) + 2 x(L75,M10) + 3 x(L76,M10)
 + 3 x(L77,M10) + 3 x(L78,M10) + 2 x(L79,M10) + 4 x(L80,M10)
 + 4 x(L81,M10) + 3 x(L82,M10) + 2 x(L83,M10) + 2 x(L84,M10)
 + 3 x(L85,M10) + 2 x(L86,M10) + 2 x(L87,M10) + 2 x(L88,M10)
 + 4 x(L89,M10) + 2 x(L90,M10) + 4 x(L91,M10) + 4 x(L92,M10)
 + 2 x(L93,M10) + 2 x(L94,M10) + 4 x(L95,M10) + 3 x(L96,M10)
 + 2 x(L97,M10) + 3 x(L98,M10) + 2 x(L99,M10) + 2 x(L100,M10)
 + 2 x(L101,M10) + 2 x(L102,M10) + 3 x(L103,M10) + 2 x(L104,M10)
 + 2 x(L105,M10) + 2 x(L106,M10) + 4 x(L107,M10) + 2 x(L108,M10)
 + 3 x(L109,M10) + 3 x(L110,M10) + 2 x(L111,M10) + 4 x(L112,M10)
 + 2 x(L113,M10) + 3 x(L114,M10) + 4 x(L115,M10) + 4 x(L116,M10)
 + 3 x(L117,M10) + 4 x(L118,M10) + 4 x(L119,M10) + 4 x(L120,M10)
 + 3 x(L121,M10) + 4 x(L122,M10) + 4 x(L123,M10) + 4 x(L124,M10)
 + 4 x(L125,M10) - Cmax <= -0

Bounds
 0 <= x(L1,M1) <= 1
 0 <= x(L1,M2) <= 1
 0 <= x(L1,M3) <= 1
 0 <= x(L1,M4) <= 1
 0 <= x(L1,M5) <= 1
 0 <= x(L1,M6) <= 1
 0 <= x(L1,M7) <= 1
 0 <= x(L1,M8) <= 1
 0 <= x(L1,M9) <= 1
 0 <= x(L1,M10) <= 1
 0 <= x(L2,M1) <= 1
 0 <= x(L2,M2) <= 1
 0 <= x(L2,M3) <= 1
 0 <= x(L2,M4) <= 1
 0 <= x(L2,M5) <= 1
 0 <= x(L2,M6) <= 1
 0 <= x(L2,M7) <= 1
 0 <= x(L2,M8) <= 1
 0 <= x(L2,M9) <= 1
 0 <= x(L2,M10) <= 1
 0 <= x(L3,M1) <= 1
 0 <= x(L3,M2) <= 1
 0 <= x(L3,M3) <= 1
 0 <= x(L3,M4) <= 1
 0 <= x(L3,M5) <= 1
 0 <= x(L3,M6) <= 1
 0 <= x(L3,M7) <= 1
 0 <= x(L3,M8) <= 1
 0 <= x(L3,M9) <= 1
 0 <= x(L3,M10) <= 1
 0 <= x(L4,M1) <= 1
 0 <= x(L4,M2) <= 1
 0 <= x(L4,M3) <= 1
 0 <= x(L4,M4) <= 1
 0 <= x(L4,M5) <= 1
 0 <= x(L4,M6) <= 1
 0 <= x(L4,M7) <= 1
 0 <= x(L4,M8) <= 1
 0 <= x(L4,M9) <= 1
 0 <= x(L4,M10) <= 1
 0 <= x(L5,M1) <= 1
 0 <= x(L5,M2) <= 1
 0 <= x(L5,M3) <= 1
 0 <= x(L5,M4) <= 1
 0 <= x(L5,M5) <= 1
 0 <= x(L5,M6) <= 1
 0 <= x(L5,M7) <= 1
 0 <= x(L5,M8) <= 1
 0 <= x(L5,M9) <= 1
 0 <= x(L5,M10) <= 1
 0 <= x(L6,M1) <= 1
 0 <= x(L6,M2) <= 1
 0 <= x(L6,M3) <= 1
 0 <= x(L6,M4) <= 1
 0 <= x(L6,M5) <= 1
 0 <= x(L6,M6) <= 1
 0 <= x(L6,M7) <= 1
 0 <= x(L6,M8) <= 1
 0 <= x(L6,M9) <= 1
 0 <= x(L6,M10) <= 1
 0 <= x(L7,M1) <= 1
 0 <= x(L7,M2) <= 1
 0 <= x(L7,M3) <= 1
 0 <= x(L7,M4) <= 1
 0 <= x(L7,M5) <= 1
 0 <= x(L7,M6) <= 1
 0 <= x(L7,M7) <= 1
 0 <= x(L7,M8) <= 1
 0 <= x(L7,M9) <= 1
 0 <= x(L7,M10) <= 1
 0 <= x(L8,M1) <= 1
 0 <= x(L8,M2) <= 1
 0 <= x(L8,M3) <= 1
 0 <= x(L8,M4) <= 1
 0 <= x(L8,M5) <= 1
 0 <= x(L8,M6) <= 1
 0 <= x(L8,M7) <= 1
 0 <= x(L8,M8) <= 1
 0 <= x(L8,M9) <= 1
 0 <= x(L8,M10) <= 1
 0 <= x(L9,M1) <= 1
 0 <= x(L9,M2) <= 1
 0 <= x(L9,M3) <= 1
 0 <= x(L9,M4) <= 1
 0 <= x(L9,M5) <= 1
 0 <= x(L9,M6) <= 1
 0 <= x(L9,M7) <= 1
 0 <= x(L9,M8) <= 1
 0 <= x(L9,M9) <= 1
 0 <= x(L9,M10) <= 1
 0 <= x(L10,M1) <= 1
 0 <= x(L10,M2) <= 1
 0 <= x(L10,M3) <= 1
 0 <= x(L10,M4) <= 1
 0 <= x(L10,M5) <= 1
 0 <= x(L10,M6) <= 1
 0 <= x(L10,M7) <= 1
 0 <= x(L10,M8) <= 1
 0 <= x(L10,M9) <= 1
 0 <= x(L10,M10) <= 1
 0 <= x(L11,M1) <= 1
 0 <= x(L11,M2) <= 1
 0 <= x(L11,M3) <= 1
 0 <= x(L11,M4) <= 1
 0 <= x(L11,M5) <= 1
 0 <= x(L11,M6) <= 1
 0 <= x(L11,M7) <= 1
 0 <= x(L11,M8) <= 1
 0 <= x(L11,M9) <= 1
 0 <= x(L11,M10) <= 1
 0 <= x(L12,M1) <= 1
 0 <= x(L12,M2) <= 1
 0 <= x(L12,M3) <= 1
 0 <= x(L12,M4) <= 1
 0 <= x(L12,M5) <= 1
 0 <= x(L12,M6) <= 1
 0 <= x(L12,M7) <= 1
 0 <= x(L12,M8) <= 1
 0 <= x(L12,M9) <= 1
 0 <= x(L12,M10) <= 1
 0 <= x(L13,M1) <= 1
 0 <= x(L13,M2) <= 1
 0 <= x(L13,M3) <= 1
 0 <= x(L13,M4) <= 1
 0 <= x(L13,M5) <= 1
 0 <= x(L13,M6) <= 1
 0 <= x(L13,M7) <= 1
 0 <= x(L13,M8) <= 1
 0 <= x(L13,M9) <= 1
 0 <= x(L13,M10) <= 1
 0 <= x(L14,M1) <= 1
 0 <= x(L14,M2) <= 1
 0 <= x(L14,M3) <= 1
 0 <= x(L14,M4) <= 1
 0 <= x(L14,M5) <= 1
 0 <= x(L14,M6) <= 1
 0 <= x(L14,M7) <= 1
 0 <= x(L14,M8) <= 1
 0 <= x(L14,M9) <= 1
 0 <= x(L14,M10) <= 1
 0 <= x(L15,M1) <= 1
 0 <= x(L15,M2) <= 1
 0 <= x(L15,M3) <= 1
 0 <= x(L15,M4) <= 1
 0 <= x(L15,M5) <= 1
 0 <= x(L15,M6) <= 1
 0 <= x(L15,M7) <= 1
 0 <= x(L15,M8) <= 1
 0 <= x(L15,M9) <= 1
 0 <= x(L15,M10) <= 1
 0 <= x(L16,M1) <= 1
 0 <= x(L16,M2) <= 1
 0 <= x(L16,M3) <= 1
 0 <= x(L16,M4) <= 1
 0 <= x(L16,M5) <= 1
 0 <= x(L16,M6) <= 1
 0 <= x(L16,M7) <= 1
 0 <= x(L16,M8) <= 1
 0 <= x(L16,M9) <= 1
 0 <= x(L16,M10) <= 1
 0 <= x(L17,M1) <= 1
 0 <= x(L17,M2) <= 1
 0 <= x(L17,M3) <= 1
 0 <= x(L17,M4) <= 1
 0 <= x(L17,M5) <= 1
 0 <= x(L17,M6) <= 1
 0 <= x(L17,M7) <= 1
 0 <= x(L17,M8) <= 1
 0 <= x(L17,M9) <= 1
 0 <= x(L17,M10) <= 1
 0 <= x(L18,M1) <= 1
 0 <= x(L18,M2) <= 1
 0 <= x(L18,M3) <= 1
 0 <= x(L18,M4) <= 1
 0 <= x(L18,M5) <= 1
 0 <= x(L18,M6) <= 1
 0 <= x(L18,M7) <= 1
 0 <= x(L18,M8) <= 1
 0 <= x(L18,M9) <= 1
 0 <= x(L18,M10) <= 1
 0 <= x(L19,M1) <= 1
 0 <= x(L19,M2) <= 1
 0 <= x(L19,M3) <= 1
 0 <= x(L19,M4) <= 1
 0 <= x(L19,M5) <= 1
 0 <= x(L19,M6) <= 1
 0 <= x(L19,M7) <= 1
 0 <= x(L19,M8) <= 1
 0 <= x(L19,M9) <= 1
 0 <= x(L19,M10) <= 1
 0 <= x(L20,M1) <= 1
 0 <= x(L20,M2) <= 1
 0 <= x(L20,M3) <= 1
 0 <= x(L20,M4) <= 1
 0 <= x(L20,M5) <= 1
 0 <= x(L20,M6) <= 1
 0 <= x(L20,M7) <= 1
 0 <= x(L20,M8) <= 1
 0 <= x(L20,M9) <= 1
 0 <= x(L20,M10) <= 1
 0 <= x(L21,M1) <= 1
 0 <= x(L21,M2) <= 1
 0 <= x(L21,M3) <= 1
 0 <= x(L21,M4) <= 1
 0 <= x(L21,M5) <= 1
 0 <= x(L21,M6) <= 1
 0 <= x(L21,M7) <= 1
 0 <= x(L21,M8) <= 1
 0 <= x(L21,M9) <= 1
 0 <= x(L21,M10) <= 1
 0 <= x(L22,M1) <= 1
 0 <= x(L22,M2) <= 1
 0 <= x(L22,M3) <= 1
 0 <= x(L22,M4) <= 1
 0 <= x(L22,M5) <= 1
 0 <= x(L22,M6) <= 1
 0 <= x(L22,M7) <= 1
 0 <= x(L22,M8) <= 1
 0 <= x(L22,M9) <= 1
 0 <= x(L22,M10) <= 1
 0 <= x(L23,M1) <= 1
 0 <= x(L23,M2) <= 1
 0 <= x(L23,M3) <= 1
 0 <= x(L23,M4) <= 1
 0 <= x(L23,M5) <= 1
 0 <= x(L23,M6) <= 1
 0 <= x(L23,M7) <= 1
 0 <= x(L23,M8) <= 1
 0 <= x(L23,M9) <= 1
 0 <= x(L23,M10) <= 1
 0 <= x(L24,M1) <= 1
 0 <= x(L24,M2) <= 1
 0 <= x(L24,M3) <= 1
 0 <= x(L24,M4) <= 1
 0 <= x(L24,M5) <= 1
 0 <= x(L24,M6) <= 1
 0 <= x(L24,M7) <= 1
 0 <= x(L24,M8) <= 1
 0 <= x(L24,M9) <= 1
 0 <= x(L24,M10) <= 1
 0 <= x(L25,M1) <= 1
 0 <= x(L25,M2) <= 1
 0 <= x(L25,M3) <= 1
 0 <= x(L25,M4) <= 1
 0 <= x(L25,M5) <= 1
 0 <= x(L25,M6) <= 1
 0 <= x(L25,M7) <= 1
 0 <= x(L25,M8) <= 1
 0 <= x(L25,M9) <= 1
 0 <= x(L25,M10) <= 1
 0 <= x(L26,M1) <= 1
 0 <= x(L26,M2) <= 1
 0 <= x(L26,M3) <= 1
 0 <= x(L26,M4) <= 1
 0 <= x(L26,M5) <= 1
 0 <= x(L26,M6) <= 1
 0 <= x(L26,M7) <= 1
 0 <= x(L26,M8) <= 1
 0 <= x(L26,M9) <= 1
 0 <= x(L26,M10) <= 1
 0 <= x(L27,M1) <= 1
 0 <= x(L27,M2) <= 1
 0 <= x(L27,M3) <= 1
 0 <= x(L27,M4) <= 1
 0 <= x(L27,M5) <= 1
 0 <= x(L27,M6) <= 1
 0 <= x(L27,M7) <= 1
 0 <= x(L27,M8) <= 1
 0 <= x(L27,M9) <= 1
 0 <= x(L27,M10) <= 1
 0 <= x(L28,M1) <= 1
 0 <= x(L28,M2) <= 1
 0 <= x(L28,M3) <= 1
 0 <= x(L28,M4) <= 1
 0 <= x(L28,M5) <= 1
 0 <= x(L28,M6) <= 1
 0 <= x(L28,M7) <= 1
 0 <= x(L28,M8) <= 1
 0 <= x(L28,M9) <= 1
 0 <= x(L28,M10) <= 1
 0 <= x(L29,M1) <= 1
 0 <= x(L29,M2) <= 1
 0 <= x(L29,M3) <= 1
 0 <= x(L29,M4) <= 1
 0 <= x(L29,M5) <= 1
 0 <= x(L29,M6) <= 1
 0 <= x(L29,M7) <= 1
 0 <= x(L29,M8) <= 1
 0 <= x(L29,M9) <= 1
 0 <= x(L29,M10) <= 1
 0 <= x(L30,M1) <= 1
 0 <= x(L30,M2) <= 1
 0 <= x(L30,M3) <= 1
 0 <= x(L30,M4) <= 1
 0 <= x(L30,M5) <= 1
 0 <= x(L30,M6) <= 1
 0 <= x(L30,M7) <= 1
 0 <= x(L30,M8) <= 1
 0 <= x(L30,M9) <= 1
 0 <= x(L30,M10) <= 1
 0 <= x(L31,M1) <= 1
 0 <= x(L31,M2) <= 1
 0 <= x(L31,M3) <= 1
 0 <= x(L31,M4) <= 1
 0 <= x(L31,M5) <= 1
 0 <= x(L31,M6) <= 1
 0 <= x(L31,M7) <= 1
 0 <= x(L31,M8) <= 1
 0 <= x(L31,M9) <= 1
 0 <= x(L31,M10) <= 1
 0 <= x(L32,M1) <= 1
 0 <= x(L32,M2) <= 1
 0 <= x(L32,M3) <= 1
 0 <= x(L32,M4) <= 1
 0 <= x(L32,M5) <= 1
 0 <= x(L32,M6) <= 1
 0 <= x(L32,M7) <= 1
 0 <= x(L32,M8) <= 1
 0 <= x(L32,M9) <= 1
 0 <= x(L32,M10) <= 1
 0 <= x(L33,M1) <= 1
 0 <= x(L33,M2) <= 1
 0 <= x(L33,M3) <= 1
 0 <= x(L33,M4) <= 1
 0 <= x(L33,M5) <= 1
 0 <= x(L33,M6) <= 1
 0 <= x(L33,M7) <= 1
 0 <= x(L33,M8) <= 1
 0 <= x(L33,M9) <= 1
 0 <= x(L33,M10) <= 1
 0 <= x(L34,M1) <= 1
 0 <= x(L34,M2) <= 1
 0 <= x(L34,M3) <= 1
 0 <= x(L34,M4) <= 1
 0 <= x(L34,M5) <= 1
 0 <= x(L34,M6) <= 1
 0 <= x(L34,M7) <= 1
 0 <= x(L34,M8) <= 1
 0 <= x(L34,M9) <= 1
 0 <= x(L34,M10) <= 1
 0 <= x(L35,M1) <= 1
 0 <= x(L35,M2) <= 1
 0 <= x(L35,M3) <= 1
 0 <= x(L35,M4) <= 1
 0 <= x(L35,M5) <= 1
 0 <= x(L35,M6) <= 1
 0 <= x(L35,M7) <= 1
 0 <= x(L35,M8) <= 1
 0 <= x(L35,M9) <= 1
 0 <= x(L35,M10) <= 1
 0 <= x(L36,M1) <= 1
 0 <= x(L36,M2) <= 1
 0 <= x(L36,M3) <= 1
 0 <= x(L36,M4) <= 1
 0 <= x(L36,M5) <= 1
 0 <= x(L36,M6) <= 1
 0 <= x(L36,M7) <= 1
 0 <= x(L36,M8) <= 1
 0 <= x(L36,M9) <= 1
 0 <= x(L36,M10) <= 1
 0 <= x(L37,M1) <= 1
 0 <= x(L37,M2) <= 1
 0 <= x(L37,M3) <= 1
 0 <= x(L37,M4) <= 1
 0 <= x(L37,M5) <= 1
 0 <= x(L37,M6) <= 1
 0 <= x(L37,M7) <= 1
 0 <= x(L37,M8) <= 1
 0 <= x(L37,M9) <= 1
 0 <= x(L37,M10) <= 1
 0 <= x(L38,M1) <= 1
 0 <= x(L38,M2) <= 1
 0 <= x(L38,M3) <= 1
 0 <= x(L38,M4) <= 1
 0 <= x(L38,M5) <= 1
 0 <= x(L38,M6) <= 1
 0 <= x(L38,M7) <= 1
 0 <= x(L38,M8) <= 1
 0 <= x(L38,M9) <= 1
 0 <= x(L38,M10) <= 1
 0 <= x(L39,M1) <= 1
 0 <= x(L39,M2) <= 1
 0 <= x(L39,M3) <= 1
 0 <= x(L39,M4) <= 1
 0 <= x(L39,M5) <= 1
 0 <= x(L39,M6) <= 1
 0 <= x(L39,M7) <= 1
 0 <= x(L39,M8) <= 1
 0 <= x(L39,M9) <= 1
 0 <= x(L39,M10) <= 1
 0 <= x(L40,M1) <= 1
 0 <= x(L40,M2) <= 1
 0 <= x(L40,M3) <= 1
 0 <= x(L40,M4) <= 1
 0 <= x(L40,M5) <= 1
 0 <= x(L40,M6) <= 1
 0 <= x(L40,M7) <= 1
 0 <= x(L40,M8) <= 1
 0 <= x(L40,M9) <= 1
 0 <= x(L40,M10) <= 1
 0 <= x(L41,M1) <= 1
 0 <= x(L41,M2) <= 1
 0 <= x(L41,M3) <= 1
 0 <= x(L41,M4) <= 1
 0 <= x(L41,M5) <= 1
 0 <= x(L41,M6) <= 1
 0 <= x(L41,M7) <= 1
 0 <= x(L41,M8) <= 1
 0 <= x(L41,M9) <= 1
 0 <= x(L41,M10) <= 1
 0 <= x(L42,M1) <= 1
 0 <= x(L42,M2) <= 1
 0 <= x(L42,M3) <= 1
 0 <= x(L42,M4) <= 1
 0 <= x(L42,M5) <= 1
 0 <= x(L42,M6) <= 1
 0 <= x(L42,M7) <= 1
 0 <= x(L42,M8) <= 1
 0 <= x(L42,M9) <= 1
 0 <= x(L42,M10) <= 1
 0 <= x(L43,M1) <= 1
 0 <= x(L43,M2) <= 1
 0 <= x(L43,M3) <= 1
 0 <= x(L43,M4) <= 1
 0 <= x(L43,M5) <= 1
 0 <= x(L43,M6) <= 1
 0 <= x(L43,M7) <= 1
 0 <= x(L43,M8) <= 1
 0 <= x(L43,M9) <= 1
 0 <= x(L43,M10) <= 1
 0 <= x(L44,M1) <= 1
 0 <= x(L44,M2) <= 1
 0 <= x(L44,M3) <= 1
 0 <= x(L44,M4) <= 1
 0 <= x(L44,M5) <= 1
 0 <= x(L44,M6) <= 1
 0 <= x(L44,M7) <= 1
 0 <= x(L44,M8) <= 1
 0 <= x(L44,M9) <= 1
 0 <= x(L44,M10) <= 1
 0 <= x(L45,M1) <= 1
 0 <= x(L45,M2) <= 1
 0 <= x(L45,M3) <= 1
 0 <= x(L45,M4) <= 1
 0 <= x(L45,M5) <= 1
 0 <= x(L45,M6) <= 1
 0 <= x(L45,M7) <= 1
 0 <= x(L45,M8) <= 1
 0 <= x(L45,M9) <= 1
 0 <= x(L45,M10) <= 1
 0 <= x(L46,M1) <= 1
 0 <= x(L46,M2) <= 1
 0 <= x(L46,M3) <= 1
 0 <= x(L46,M4) <= 1
 0 <= x(L46,M5) <= 1
 0 <= x(L46,M6) <= 1
 0 <= x(L46,M7) <= 1
 0 <= x(L46,M8) <= 1
 0 <= x(L46,M9) <= 1
 0 <= x(L46,M10) <= 1
 0 <= x(L47,M1) <= 1
 0 <= x(L47,M2) <= 1
 0 <= x(L47,M3) <= 1
 0 <= x(L47,M4) <= 1
 0 <= x(L47,M5) <= 1
 0 <= x(L47,M6) <= 1
 0 <= x(L47,M7) <= 1
 0 <= x(L47,M8) <= 1
 0 <= x(L47,M9) <= 1
 0 <= x(L47,M10) <= 1
 0 <= x(L48,M1) <= 1
 0 <= x(L48,M2) <= 1
 0 <= x(L48,M3) <= 1
 0 <= x(L48,M4) <= 1
 0 <= x(L48,M5) <= 1
 0 <= x(L48,M6) <= 1
 0 <= x(L48,M7) <= 1
 0 <= x(L48,M8) <= 1
 0 <= x(L48,M9) <= 1
 0 <= x(L48,M10) <= 1
 0 <= x(L49,M1) <= 1
 0 <= x(L49,M2) <= 1
 0 <= x(L49,M3) <= 1
 0 <= x(L49,M4) <= 1
 0 <= x(L49,M5) <= 1
 0 <= x(L49,M6) <= 1
 0 <= x(L49,M7) <= 1
 0 <= x(L49,M8) <= 1
 0 <= x(L49,M9) <= 1
 0 <= x(L49,M10) <= 1
 0 <= x(L50,M1) <= 1
 0 <= x(L50,M2) <= 1
 0 <= x(L50,M3) <= 1
 0 <= x(L50,M4) <= 1
 0 <= x(L50,M5) <= 1
 0 <= x(L50,M6) <= 1
 0 <= x(L50,M7) <= 1
 0 <= x(L50,M8) <= 1
 0 <= x(L50,M9) <= 1
 0 <= x(L50,M10) <= 1
 0 <= x(L51,M1) <= 1
 0 <= x(L51,M2) <= 1
 0 <= x(L51,M3) <= 1
 0 <= x(L51,M4) <= 1
 0 <= x(L51,M5) <= 1
 0 <= x(L51,M6) <= 1
 0 <= x(L51,M7) <= 1
 0 <= x(L51,M8) <= 1
 0 <= x(L51,M9) <= 1
 0 <= x(L51,M10) <= 1
 0 <= x(L52,M1) <= 1
 0 <= x(L52,M2) <= 1
 0 <= x(L52,M3) <= 1
 0 <= x(L52,M4) <= 1
 0 <= x(L52,M5) <= 1
 0 <= x(L52,M6) <= 1
 0 <= x(L52,M7) <= 1
 0 <= x(L52,M8) <= 1
 0 <= x(L52,M9) <= 1
 0 <= x(L52,M10) <= 1
 0 <= x(L53,M1) <= 1
 0 <= x(L53,M2) <= 1
 0 <= x(L53,M3) <= 1
 0 <= x(L53,M4) <= 1
 0 <= x(L53,M5) <= 1
 0 <= x(L53,M6) <= 1
 0 <= x(L53,M7) <= 1
 0 <= x(L53,M8) <= 1
 0 <= x(L53,M9) <= 1
 0 <= x(L53,M10) <= 1
 0 <= x(L54,M1) <= 1
 0 <= x(L54,M2) <= 1
 0 <= x(L54,M3) <= 1
 0 <= x(L54,M4) <= 1
 0 <= x(L54,M5) <= 1
 0 <= x(L54,M6) <= 1
 0 <= x(L54,M7) <= 1
 0 <= x(L54,M8) <= 1
 0 <= x(L54,M9) <= 1
 0 <= x(L54,M10) <= 1
 0 <= x(L55,M1) <= 1
 0 <= x(L55,M2) <= 1
 0 <= x(L55,M3) <= 1
 0 <= x(L55,M4) <= 1
 0 <= x(L55,M5) <= 1
 0 <= x(L55,M6) <= 1
 0 <= x(L55,M7) <= 1
 0 <= x(L55,M8) <= 1
 0 <= x(L55,M9) <= 1
 0 <= x(L55,M10) <= 1
 0 <= x(L56,M1) <= 1
 0 <= x(L56,M2) <= 1
 0 <= x(L56,M3) <= 1
 0 <= x(L56,M4) <= 1
 0 <= x(L56,M5) <= 1
 0 <= x(L56,M6) <= 1
 0 <= x(L56,M7) <= 1
 0 <= x(L56,M8) <= 1
 0 <= x(L56,M9) <= 1
 0 <= x(L56,M10) <= 1
 0 <= x(L57,M1) <= 1
 0 <= x(L57,M2) <= 1
 0 <= x(L57,M3) <= 1
 0 <= x(L57,M4) <= 1
 0 <= x(L57,M5) <= 1
 0 <= x(L57,M6) <= 1
 0 <= x(L57,M7) <= 1
 0 <= x(L57,M8) <= 1
 0 <= x(L57,M9) <= 1
 0 <= x(L57,M10) <= 1
 0 <= x(L58,M1) <= 1
 0 <= x(L58,M2) <= 1
 0 <= x(L58,M3) <= 1
 0 <= x(L58,M4) <= 1
 0 <= x(L58,M5) <= 1
 0 <= x(L58,M6) <= 1
 0 <= x(L58,M7) <= 1
 0 <= x(L58,M8) <= 1
 0 <= x(L58,M9) <= 1
 0 <= x(L58,M10) <= 1
 0 <= x(L59,M1) <= 1
 0 <= x(L59,M2) <= 1
 0 <= x(L59,M3) <= 1
 0 <= x(L59,M4) <= 1
 0 <= x(L59,M5) <= 1
 0 <= x(L59,M6) <= 1
 0 <= x(L59,M7) <= 1
 0 <= x(L59,M8) <= 1
 0 <= x(L59,M9) <= 1
 0 <= x(L59,M10) <= 1
 0 <= x(L60,M1) <= 1
 0 <= x(L60,M2) <= 1
 0 <= x(L60,M3) <= 1
 0 <= x(L60,M4) <= 1
 0 <= x(L60,M5) <= 1
 0 <= x(L60,M6) <= 1
 0 <= x(L60,M7) <= 1
 0 <= x(L60,M8) <= 1
 0 <= x(L60,M9) <= 1
 0 <= x(L60,M10) <= 1
 0 <= x(L61,M1) <= 1
 0 <= x(L61,M2) <= 1
 0 <= x(L61,M3) <= 1
 0 <= x(L61,M4) <= 1
 0 <= x(L61,M5) <= 1
 0 <= x(L61,M6) <= 1
 0 <= x(L61,M7) <= 1
 0 <= x(L61,M8) <= 1
 0 <= x(L61,M9) <= 1
 0 <= x(L61,M10) <= 1
 0 <= x(L62,M1) <= 1
 0 <= x(L62,M2) <= 1
 0 <= x(L62,M3) <= 1
 0 <= x(L62,M4) <= 1
 0 <= x(L62,M5) <= 1
 0 <= x(L62,M6) <= 1
 0 <= x(L62,M7) <= 1
 0 <= x(L62,M8) <= 1
 0 <= x(L62,M9) <= 1
 0 <= x(L62,M10) <= 1
 0 <= x(L63,M1) <= 1
 0 <= x(L63,M2) <= 1
 0 <= x(L63,M3) <= 1
 0 <= x(L63,M4) <= 1
 0 <= x(L63,M5) <= 1
 0 <= x(L63,M6) <= 1
 0 <= x(L63,M7) <= 1
 0 <= x(L63,M8) <= 1
 0 <= x(L63,M9) <= 1
 0 <= x(L63,M10) <= 1
 0 <= x(L64,M1) <= 1
 0 <= x(L64,M2) <= 1
 0 <= x(L64,M3) <= 1
 0 <= x(L64,M4) <= 1
 0 <= x(L64,M5) <= 1
 0 <= x(L64,M6) <= 1
 0 <= x(L64,M7) <= 1
 0 <= x(L64,M8) <= 1
 0 <= x(L64,M9) <= 1
 0 <= x(L64,M10) <= 1
 0 <= x(L65,M1) <= 1
 0 <= x(L65,M2) <= 1
 0 <= x(L65,M3) <= 1
 0 <= x(L65,M4) <= 1
 0 <= x(L65,M5) <= 1
 0 <= x(L65,M6) <= 1
 0 <= x(L65,M7) <= 1
 0 <= x(L65,M8) <= 1
 0 <= x(L65,M9) <= 1
 0 <= x(L65,M10) <= 1
 0 <= x(L66,M1) <= 1
 0 <= x(L66,M2) <= 1
 0 <= x(L66,M3) <= 1
 0 <= x(L66,M4) <= 1
 0 <= x(L66,M5) <= 1
 0 <= x(L66,M6) <= 1
 0 <= x(L66,M7) <= 1
 0 <= x(L66,M8) <= 1
 0 <= x(L66,M9) <= 1
 0 <= x(L66,M10) <= 1
 0 <= x(L67,M1) <= 1
 0 <= x(L67,M2) <= 1
 0 <= x(L67,M3) <= 1
 0 <= x(L67,M4) <= 1
 0 <= x(L67,M5) <= 1
 0 <= x(L67,M6) <= 1
 0 <= x(L67,M7) <= 1
 0 <= x(L67,M8) <= 1
 0 <= x(L67,M9) <= 1
 0 <= x(L67,M10) <= 1
 0 <= x(L68,M1) <= 1
 0 <= x(L68,M2) <= 1
 0 <= x(L68,M3) <= 1
 0 <= x(L68,M4) <= 1
 0 <= x(L68,M5) <= 1
 0 <= x(L68,M6) <= 1
 0 <= x(L68,M7) <= 1
 0 <= x(L68,M8) <= 1
 0 <= x(L68,M9) <= 1
 0 <= x(L68,M10) <= 1
 0 <= x(L69,M1) <= 1
 0 <= x(L69,M2) <= 1
 0 <= x(L69,M3) <= 1
 0 <= x(L69,M4) <= 1
 0 <= x(L69,M5) <= 1
 0 <= x(L69,M6) <= 1
 0 <= x(L69,M7) <= 1
 0 <= x(L69,M8) <= 1
 0 <= x(L69,M9) <= 1
 0 <= x(L69,M10) <= 1
 0 <= x(L70,M1) <= 1
 0 <= x(L70,M2) <= 1
 0 <= x(L70,M3) <= 1
 0 <= x(L70,M4) <= 1
 0 <= x(L70,M5) <= 1
 0 <= x(L70,M6) <= 1
 0 <= x(L70,M7) <= 1
 0 <= x(L70,M8) <= 1
 0 <= x(L70,M9) <= 1
 0 <= x(L70,M10) <= 1
 0 <= x(L71,M1) <= 1
 0 <= x(L71,M2) <= 1
 0 <= x(L71,M3) <= 1
 0 <= x(L71,M4) <= 1
 0 <= x(L71,M5) <= 1
 0 <= x(L71,M6) <= 1
 0 <= x(L71,M7) <= 1
 0 <= x(L71,M8) <= 1
 0 <= x(L71,M9) <= 1
 0 <= x(L71,M10) <= 1
 0 <= x(L72,M1) <= 1
 0 <= x(L72,M2) <= 1
 0 <= x(L72,M3) <= 1
 0 <= x(L72,M4) <= 1
 0 <= x(L72,M5) <= 1
 0 <= x(L72,M6) <= 1
 0 <= x(L72,M7) <= 1
 0 <= x(L72,M8) <= 1
 0 <= x(L72,M9) <= 1
 0 <= x(L72,M10) <= 1
 0 <= x(L73,M1) <= 1
 0 <= x(L73,M2) <= 1
 0 <= x(L73,M3) <= 1
 0 <= x(L73,M4) <= 1
 0 <= x(L73,M5) <= 1
 0 <= x(L73,M6) <= 1
 0 <= x(L73,M7) <= 1
 0 <= x(L73,M8) <= 1
 0 <= x(L73,M9) <= 1
 0 <= x(L73,M10) <= 1
 0 <= x(L74,M1) <= 1
 0 <= x(L74,M2) <= 1
 0 <= x(L74,M3) <= 1
 0 <= x(L74,M4) <= 1
 0 <= x(L74,M5) <= 1
 0 <= x(L74,M6) <= 1
 0 <= x(L74,M7) <= 1
 0 <= x(L74,M8) <= 1
 0 <= x(L74,M9) <= 1
 0 <= x(L74,M10) <= 1
 0 <= x(L75,M1) <= 1
 0 <= x(L75,M2) <= 1
 0 <= x(L75,M3) <= 1
 0 <= x(L75,M4) <= 1
 0 <= x(L75,M5) <= 1
 0 <= x(L75,M6) <= 1
 0 <= x(L75,M7) <= 1
 0 <= x(L75,M8) <= 1
 0 <= x(L75,M9) <= 1
 0 <= x(L75,M10) <= 1
 0 <= x(L76,M1) <= 1
 0 <= x(L76,M2) <= 1
 0 <= x(L76,M3) <= 1
 0 <= x(L76,M4) <= 1
 0 <= x(L76,M5) <= 1
 0 <= x(L76,M6) <= 1
 0 <= x(L76,M7) <= 1
 0 <= x(L76,M8) <= 1
 0 <= x(L76,M9) <= 1
 0 <= x(L76,M10) <= 1
 0 <= x(L77,M1) <= 1
 0 <= x(L77,M2) <= 1
 0 <= x(L77,M3) <= 1
 0 <= x(L77,M4) <= 1
 0 <= x(L77,M5) <= 1
 0 <= x(L77,M6) <= 1
 0 <= x(L77,M7) <= 1
 0 <= x(L77,M8) <= 1
 0 <= x(L77,M9) <= 1
 0 <= x(L77,M10) <= 1
 0 <= x(L78,M1) <= 1
 0 <= x(L78,M2) <= 1
 0 <= x(L78,M3) <= 1
 0 <= x(L78,M4) <= 1
 0 <= x(L78,M5) <= 1
 0 <= x(L78,M6) <= 1
 0 <= x(L78,M7) <= 1
 0 <= x(L78,M8) <= 1
 0 <= x(L78,M9) <= 1
 0 <= x(L78,M10) <= 1
 0 <= x(L79,M1) <= 1
 0 <= x(L79,M2) <= 1
 0 <= x(L79,M3) <= 1
 0 <= x(L79,M4) <= 1
 0 <= x(L79,M5) <= 1
 0 <= x(L79,M6) <= 1
 0 <= x(L79,M7) <= 1
 0 <= x(L79,M8) <= 1
 0 <= x(L79,M9) <= 1
 0 <= x(L79,M10) <= 1
 0 <= x(L80,M1) <= 1
 0 <= x(L80,M2) <= 1
 0 <= x(L80,M3) <= 1
 0 <= x(L80,M4) <= 1
 0 <= x(L80,M5) <= 1
 0 <= x(L80,M6) <= 1
 0 <= x(L80,M7) <= 1
 0 <= x(L80,M8) <= 1
 0 <= x(L80,M9) <= 1
 0 <= x(L80,M10) <= 1
 0 <= x(L81,M1) <= 1
 0 <= x(L81,M2) <= 1
 0 <= x(L81,M3) <= 1
 0 <= x(L81,M4) <= 1
 0 <= x(L81,M5) <= 1
 0 <= x(L81,M6) <= 1
 0 <= x(L81,M7) <= 1
 0 <= x(L81,M8) <= 1
 0 <= x(L81,M9) <= 1
 0 <= x(L81,M10) <= 1
 0 <= x(L82,M1) <= 1
 0 <= x(L82,M2) <= 1
 0 <= x(L82,M3) <= 1
 0 <= x(L82,M4) <= 1
 0 <= x(L82,M5) <= 1
 0 <= x(L82,M6) <= 1
 0 <= x(L82,M7) <= 1
 0 <= x(L82,M8) <= 1
 0 <= x(L82,M9) <= 1
 0 <= x(L82,M10) <= 1
 0 <= x(L83,M1) <= 1
 0 <= x(L83,M2) <= 1
 0 <= x(L83,M3) <= 1
 0 <= x(L83,M4) <= 1
 0 <= x(L83,M5) <= 1
 0 <= x(L83,M6) <= 1
 0 <= x(L83,M7) <= 1
 0 <= x(L83,M8) <= 1
 0 <= x(L83,M9) <= 1
 0 <= x(L83,M10) <= 1
 0 <= x(L84,M1) <= 1
 0 <= x(L84,M2) <= 1
 0 <= x(L84,M3) <= 1
 0 <= x(L84,M4) <= 1
 0 <= x(L84,M5) <= 1
 0 <= x(L84,M6) <= 1
 0 <= x(L84,M7) <= 1
 0 <= x(L84,M8) <= 1
 0 <= x(L84,M9) <= 1
 0 <= x(L84,M10) <= 1
 0 <= x(L85,M1) <= 1
 0 <= x(L85,M2) <= 1
 0 <= x(L85,M3) <= 1
 0 <= x(L85,M4) <= 1
 0 <= x(L85,M5) <= 1
 0 <= x(L85,M6) <= 1
 0 <= x(L85,M7) <= 1
 0 <= x(L85,M8) <= 1
 0 <= x(L85,M9) <= 1
 0 <= x(L85,M10) <= 1
 0 <= x(L86,M1) <= 1
 0 <= x(L86,M2) <= 1
 0 <= x(L86,M3) <= 1
 0 <= x(L86,M4) <= 1
 0 <= x(L86,M5) <= 1
 0 <= x(L86,M6) <= 1
 0 <= x(L86,M7) <= 1
 0 <= x(L86,M8) <= 1
 0 <= x(L86,M9) <= 1
 0 <= x(L86,M10) <= 1
 0 <= x(L87,M1) <= 1
 0 <= x(L87,M2) <= 1
 0 <= x(L87,M3) <= 1
 0 <= x(L87,M4) <= 1
 0 <= x(L87,M5) <= 1
 0 <= x(L87,M6) <= 1
 0 <= x(L87,M7) <= 1
 0 <= x(L87,M8) <= 1
 0 <= x(L87,M9) <= 1
 0 <= x(L87,M10) <= 1
 0 <= x(L88,M1) <= 1
 0 <= x(L88,M2) <= 1
 0 <= x(L88,M3) <= 1
 0 <= x(L88,M4) <= 1
 0 <= x(L88,M5) <= 1
 0 <= x(L88,M6) <= 1
 0 <= x(L88,M7) <= 1
 0 <= x(L88,M8) <= 1
 0 <= x(L88,M9) <= 1
 0 <= x(L88,M10) <= 1
 0 <= x(L89,M1) <= 1
 0 <= x(L89,M2) <= 1
 0 <= x(L89,M3) <= 1
 0 <= x(L89,M4) <= 1
 0 <= x(L89,M5) <= 1
 0 <= x(L89,M6) <= 1
 0 <= x(L89,M7) <= 1
 0 <= x(L89,M8) <= 1
 0 <= x(L89,M9) <= 1
 0 <= x(L89,M10) <= 1
 0 <= x(L90,M1) <= 1
 0 <= x(L90,M2) <= 1
 0 <= x(L90,M3) <= 1
 0 <= x(L90,M4) <= 1
 0 <= x(L90,M5) <= 1
 0 <= x(L90,M6) <= 1
 0 <= x(L90,M7) <= 1
 0 <= x(L90,M8) <= 1
 0 <= x(L90,M9) <= 1
 0 <= x(L90,M10) <= 1
 0 <= x(L91,M1) <= 1
 0 <= x(L91,M2) <= 1
 0 <= x(L91,M3) <= 1
 0 <= x(L91,M4) <= 1
 0 <= x(L91,M5) <= 1
 0 <= x(L91,M6) <= 1
 0 <= x(L91,M7) <= 1
 0 <= x(L91,M8) <= 1
 0 <= x(L91,M9) <= 1
 0 <= x(L91,M10) <= 1
 0 <= x(L92,M1) <= 1
 0 <= x(L92,M2) <= 1
 0 <= x(L92,M3) <= 1
 0 <= x(L92,M4) <= 1
 0 <= x(L92,M5) <= 1
 0 <= x(L92,M6) <= 1
 0 <= x(L92,M7) <= 1
 0 <= x(L92,M8) <= 1
 0 <= x(L92,M9) <= 1
 0 <= x(L92,M10) <= 1
 0 <= x(L93,M1) <= 1
 0 <= x(L93,M2) <= 1
 0 <= x(L93,M3) <= 1
 0 <= x(L93,M4) <= 1
 0 <= x(L93,M5) <= 1
 0 <= x(L93,M6) <= 1
 0 <= x(L93,M7) <= 1
 0 <= x(L93,M8) <= 1
 0 <= x(L93,M9) <= 1
 0 <= x(L93,M10) <= 1
 0 <= x(L94,M1) <= 1
 0 <= x(L94,M2) <= 1
 0 <= x(L94,M3) <= 1
 0 <= x(L94,M4) <= 1
 0 <= x(L94,M5) <= 1
 0 <= x(L94,M6) <= 1
 0 <= x(L94,M7) <= 1
 0 <= x(L94,M8) <= 1
 0 <= x(L94,M9) <= 1
 0 <= x(L94,M10) <= 1
 0 <= x(L95,M1) <= 1
 0 <= x(L95,M2) <= 1
 0 <= x(L95,M3) <= 1
 0 <= x(L95,M4) <= 1
 0 <= x(L95,M5) <= 1
 0 <= x(L95,M6) <= 1
 0 <= x(L95,M7) <= 1
 0 <= x(L95,M8) <= 1
 0 <= x(L95,M9) <= 1
 0 <= x(L95,M10) <= 1
 0 <= x(L96,M1) <= 1
 0 <= x(L96,M2) <= 1
 0 <= x(L96,M3) <= 1
 0 <= x(L96,M4) <= 1
 0 <= x(L96,M5) <= 1
 0 <= x(L96,M6) <= 1
 0 <= x(L96,M7) <= 1
 0 <= x(L96,M8) <= 1
 0 <= x(L96,M9) <= 1
 0 <= x(L96,M10) <= 1
 0 <= x(L97,M1) <= 1
 0 <= x(L97,M2) <= 1
 0 <= x(L97,M3) <= 1
 0 <= x(L97,M4) <= 1
 0 <= x(L97,M5) <= 1
 0 <= x(L97,M6) <= 1
 0 <= x(L97,M7) <= 1
 0 <= x(L97,M8) <= 1
 0 <= x(L97,M9) <= 1
 0 <= x(L97,M10) <= 1
 0 <= x(L98,M1) <= 1
 0 <= x(L98,M2) <= 1
 0 <= x(L98,M3) <= 1
 0 <= x(L98,M4) <= 1
 0 <= x(L98,M5) <= 1
 0 <= x(L98,M6) <= 1
 0 <= x(L98,M7) <= 1
 0 <= x(L98,M8) <= 1
 0 <= x(L98,M9) <= 1
 0 <= x(L98,M10) <= 1
 0 <= x(L99,M1) <= 1
 0 <= x(L99,M2) <= 1
 0 <= x(L99,M3) <= 1
 0 <= x(L99,M4) <= 1
 0 <= x(L99,M5) <= 1
 0 <= x(L99,M6) <= 1
 0 <= x(L99,M7) <= 1
 0 <= x(L99,M8) <= 1
 0 <= x(L99,M9) <= 1
 0 <= x(L99,M10) <= 1
 0 <= x(L100,M1) <= 1
 0 <= x(L100,M2) <= 1
 0 <= x(L100,M3) <= 1
 0 <= x(L100,M4) <= 1
 0 <= x(L100,M5) <= 1
 0 <= x(L100,M6) <= 1
 0 <= x(L100,M7) <= 1
 0 <= x(L100,M8) <= 1
 0 <= x(L100,M9) <= 1
 0 <= x(L100,M10) <= 1
 0 <= x(L101,M1) <= 1
 0 <= x(L101,M2) <= 1
 0 <= x(L101,M3) <= 1
 0 <= x(L101,M4) <= 1
 0 <= x(L101,M5) <= 1
 0 <= x(L101,M6) <= 1
 0 <= x(L101,M7) <= 1
 0 <= x(L101,M8) <= 1
 0 <= x(L101,M9) <= 1
 0 <= x(L101,M10) <= 1
 0 <= x(L102,M1) <= 1
 0 <= x(L102,M2) <= 1
 0 <= x(L102,M3) <= 1
 0 <= x(L102,M4) <= 1
 0 <= x(L102,M5) <= 1
 0 <= x(L102,M6) <= 1
 0 <= x(L102,M7) <= 1
 0 <= x(L102,M8) <= 1
 0 <= x(L102,M9) <= 1
 0 <= x(L102,M10) <= 1
 0 <= x(L103,M1) <= 1
 0 <= x(L103,M2) <= 1
 0 <= x(L103,M3) <= 1
 0 <= x(L103,M4) <= 1
 0 <= x(L103,M5) <= 1
 0 <= x(L103,M6) <= 1
 0 <= x(L103,M7) <= 1
 0 <= x(L103,M8) <= 1
 0 <= x(L103,M9) <= 1
 0 <= x(L103,M10) <= 1
 0 <= x(L104,M1) <= 1
 0 <= x(L104,M2) <= 1
 0 <= x(L104,M3) <= 1
 0 <= x(L104,M4) <= 1
 0 <= x(L104,M5) <= 1
 0 <= x(L104,M6) <= 1
 0 <= x(L104,M7) <= 1
 0 <= x(L104,M8) <= 1
 0 <= x(L104,M9) <= 1
 0 <= x(L104,M10) <= 1
 0 <= x(L105,M1) <= 1
 0 <= x(L105,M2) <= 1
 0 <= x(L105,M3) <= 1
 0 <= x(L105,M4) <= 1
 0 <= x(L105,M5) <= 1
 0 <= x(L105,M6) <= 1
 0 <= x(L105,M7) <= 1
 0 <= x(L105,M8) <= 1
 0 <= x(L105,M9) <= 1
 0 <= x(L105,M10) <= 1
 0 <= x(L106,M1) <= 1
 0 <= x(L106,M2) <= 1
 0 <= x(L106,M3) <= 1
 0 <= x(L106,M4) <= 1
 0 <= x(L106,M5) <= 1
 0 <= x(L106,M6) <= 1
 0 <= x(L106,M7) <= 1
 0 <= x(L106,M8) <= 1
 0 <= x(L106,M9) <= 1
 0 <= x(L106,M10) <= 1
 0 <= x(L107,M1) <= 1
 0 <= x(L107,M2) <= 1
 0 <= x(L107,M3) <= 1
 0 <= x(L107,M4) <= 1
 0 <= x(L107,M5) <= 1
 0 <= x(L107,M6) <= 1
 0 <= x(L107,M7) <= 1
 0 <= x(L107,M8) <= 1
 0 <= x(L107,M9) <= 1
 0 <= x(L107,M10) <= 1
 0 <= x(L108,M1) <= 1
 0 <= x(L108,M2) <= 1
 0 <= x(L108,M3) <= 1
 0 <= x(L108,M4) <= 1
 0 <= x(L108,M5) <= 1
 0 <= x(L108,M6) <= 1
 0 <= x(L108,M7) <= 1
 0 <= x(L108,M8) <= 1
 0 <= x(L108,M9) <= 1
 0 <= x(L108,M10) <= 1
 0 <= x(L109,M1) <= 1
 0 <= x(L109,M2) <= 1
 0 <= x(L109,M3) <= 1
 0 <= x(L109,M4) <= 1
 0 <= x(L109,M5) <= 1
 0 <= x(L109,M6) <= 1
 0 <= x(L109,M7) <= 1
 0 <= x(L109,M8) <= 1
 0 <= x(L109,M9) <= 1
 0 <= x(L109,M10) <= 1
 0 <= x(L110,M1) <= 1
 0 <= x(L110,M2) <= 1
 0 <= x(L110,M3) <= 1
 0 <= x(L110,M4) <= 1
 0 <= x(L110,M5) <= 1
 0 <= x(L110,M6) <= 1
 0 <= x(L110,M7) <= 1
 0 <= x(L110,M8) <= 1
 0 <= x(L110,M9) <= 1
 0 <= x(L110,M10) <= 1
 0 <= x(L111,M1) <= 1
 0 <= x(L111,M2) <= 1
 0 <= x(L111,M3) <= 1
 0 <= x(L111,M4) <= 1
 0 <= x(L111,M5) <= 1
 0 <= x(L111,M6) <= 1
 0 <= x(L111,M7) <= 1
 0 <= x(L111,M8) <= 1
 0 <= x(L111,M9) <= 1
 0 <= x(L111,M10) <= 1
 0 <= x(L112,M1) <= 1
 0 <= x(L112,M2) <= 1
 0 <= x(L112,M3) <= 1
 0 <= x(L112,M4) <= 1
 0 <= x(L112,M5) <= 1
 0 <= x(L112,M6) <= 1
 0 <= x(L112,M7) <= 1
 0 <= x(L112,M8) <= 1
 0 <= x(L112,M9) <= 1
 0 <= x(L112,M10) <= 1
 0 <= x(L113,M1) <= 1
 0 <= x(L113,M2) <= 1
 0 <= x(L113,M3) <= 1
 0 <= x(L113,M4) <= 1
 0 <= x(L113,M5) <= 1
 0 <= x(L113,M6) <= 1
 0 <= x(L113,M7) <= 1
 0 <= x(L113,M8) <= 1
 0 <= x(L113,M9) <= 1
 0 <= x(L113,M10) <= 1
 0 <= x(L114,M1) <= 1
 0 <= x(L114,M2) <= 1
 0 <= x(L114,M3) <= 1
 0 <= x(L114,M4) <= 1
 0 <= x(L114,M5) <= 1
 0 <= x(L114,M6) <= 1
 0 <= x(L114,M7) <= 1
 0 <= x(L114,M8) <= 1
 0 <= x(L114,M9) <= 1
 0 <= x(L114,M10) <= 1
 0 <= x(L115,M1) <= 1
 0 <= x(L115,M2) <= 1
 0 <= x(L115,M3) <= 1
 0 <= x(L115,M4) <= 1
 0 <= x(L115,M5) <= 1
 0 <= x(L115,M6) <= 1
 0 <= x(L115,M7) <= 1
 0 <= x(L115,M8) <= 1
 0 <= x(L115,M9) <= 1
 0 <= x(L115,M10) <= 1
 0 <= x(L116,M1) <= 1
 0 <= x(L116,M2) <= 1
 0 <= x(L116,M3) <= 1
 0 <= x(L116,M4) <= 1
 0 <= x(L116,M5) <= 1
 0 <= x(L116,M6) <= 1
 0 <= x(L116,M7) <= 1
 0 <= x(L116,M8) <= 1
 0 <= x(L116,M9) <= 1
 0 <= x(L116,M10) <= 1
 0 <= x(L117,M1) <= 1
 0 <= x(L117,M2) <= 1
 0 <= x(L117,M3) <= 1
 0 <= x(L117,M4) <= 1
 0 <= x(L117,M5) <= 1
 0 <= x(L117,M6) <= 1
 0 <= x(L117,M7) <= 1
 0 <= x(L117,M8) <= 1
 0 <= x(L117,M9) <= 1
 0 <= x(L117,M10) <= 1
 0 <= x(L118,M1) <= 1
 0 <= x(L118,M2) <= 1
 0 <= x(L118,M3) <= 1
 0 <= x(L118,M4) <= 1
 0 <= x(L118,M5) <= 1
 0 <= x(L118,M6) <= 1
 0 <= x(L118,M7) <= 1
 0 <= x(L118,M8) <= 1
 0 <= x(L118,M9) <= 1
 0 <= x(L118,M10) <= 1
 0 <= x(L119,M1) <= 1
 0 <= x(L119,M2) <= 1
 0 <= x(L119,M3) <= 1
 0 <= x(L119,M4) <= 1
 0 <= x(L119,M5) <= 1
 0 <= x(L119,M6) <= 1
 0 <= x(L119,M7) <= 1
 0 <= x(L119,M8) <= 1
 0 <= x(L119,M9) <= 1
 0 <= x(L119,M10) <= 1
 0 <= x(L120,M1) <= 1
 0 <= x(L120,M2) <= 1
 0 <= x(L120,M3) <= 1
 0 <= x(L120,M4) <= 1
 0 <= x(L120,M5) <= 1
 0 <= x(L120,M6) <= 1
 0 <= x(L120,M7) <= 1
 0 <= x(L120,M8) <= 1
 0 <= x(L120,M9) <= 1
 0 <= x(L120,M10) <= 1
 0 <= x(L121,M1) <= 1
 0 <= x(L121,M2) <= 1
 0 <= x(L121,M3) <= 1
 0 <= x(L121,M4) <= 1
 0 <= x(L121,M5) <= 1
 0 <= x(L121,M6) <= 1
 0 <= x(L121,M7) <= 1
 0 <= x(L121,M8) <= 1
 0 <= x(L121,M9) <= 1
 0 <= x(L121,M10) <= 1
 0 <= x(L122,M1) <= 1
 0 <= x(L122,M2) <= 1
 0 <= x(L122,M3) <= 1
 0 <= x(L122,M4) <= 1
 0 <= x(L122,M5) <= 1
 0 <= x(L122,M6) <= 1
 0 <= x(L122,M7) <= 1
 0 <= x(L122,M8) <= 1
 0 <= x(L122,M9) <= 1
 0 <= x(L122,M10) <= 1
 0 <= x(L123,M1) <= 1
 0 <= x(L123,M2) <= 1
 0 <= x(L123,M3) <= 1
 0 <= x(L123,M4) <= 1
 0 <= x(L123,M5) <= 1
 0 <= x(L123,M6) <= 1
 0 <= x(L123,M7) <= 1
 0 <= x(L123,M8) <= 1
 0 <= x(L123,M9) <= 1
 0 <= x(L123,M10) <= 1
 0 <= x(L124,M1) <= 1
 0 <= x(L124,M2) <= 1
 0 <= x(L124,M3) <= 1
 0 <= x(L124,M4) <= 1
 0 <= x(L124,M5) <= 1
 0 <= x(L124,M6) <= 1
 0 <= x(L124,M7) <= 1
 0 <= x(L124,M8) <= 1
 0 <= x(L124,M9) <= 1
 0 <= x(L124,M10) <= 1
 0 <= x(L125,M1) <= 1
 0 <= x(L125,M2) <= 1
 0 <= x(L125,M3) <= 1
 0 <= x(L125,M4) <= 1
 0 <= x(L125,M5) <= 1
 0 <= x(L125,M6) <= 1
 0 <= x(L125,M7) <= 1
 0 <= x(L125,M8) <= 1
 0 <= x(L125,M9) <= 1
 0 <= x(L125,M10) <= 1

Generals
 x(L1,M1)
 x(L1,M2)
 x(L1,M3)
 x(L1,M4)
 x(L1,M5)
 x(L1,M6)
 x(L1,M7)
 x(L1,M8)
 x(L1,M9)
 x(L1,M10)
 x(L2,M1)
 x(L2,M2)
 x(L2,M3)
 x(L2,M4)
 x(L2,M5)
 x(L2,M6)
 x(L2,M7)
 x(L2,M8)
 x(L2,M9)
 x(L2,M10)
 x(L3,M1)
 x(L3,M2)
 x(L3,M3)
 x(L3,M4)
 x(L3,M5)
 x(L3,M6)
 x(L3,M7)
 x(L3,M8)
 x(L3,M9)
 x(L3,M10)
 x(L4,M1)
 x(L4,M2)
 x(L4,M3)
 x(L4,M4)
 x(L4,M5)
 x(L4,M6)
 x(L4,M7)
 x(L4,M8)
 x(L4,M9)
 x(L4,M10)
 x(L5,M1)
 x(L5,M2)
 x(L5,M3)
 x(L5,M4)
 x(L5,M5)
 x(L5,M6)
 x(L5,M7)
 x(L5,M8)
 x(L5,M9)
 x(L5,M10)
 x(L6,M1)
 x(L6,M2)
 x(L6,M3)
 x(L6,M4)
 x(L6,M5)
 x(L6,M6)
 x(L6,M7)
 x(L6,M8)
 x(L6,M9)
 x(L6,M10)
 x(L7,M1)
 x(L7,M2)
 x(L7,M3)
 x(L7,M4)
 x(L7,M5)
 x(L7,M6)
 x(L7,M7)
 x(L7,M8)
 x(L7,M9)
 x(L7,M10)
 x(L8,M1)
 x(L8,M2)
 x(L8,M3)
 x(L8,M4)
 x(L8,M5)
 x(L8,M6)
 x(L8,M7)
 x(L8,M8)
 x(L8,M9)
 x(L8,M10)
 x(L9,M1)
 x(L9,M2)
 x(L9,M3)
 x(L9,M4)
 x(L9,M5)
 x(L9,M6)
 x(L9,M7)
 x(L9,M8)
 x(L9,M9)
 x(L9,M10)
 x(L10,M1)
 x(L10,M2)
 x(L10,M3)
 x(L10,M4)
 x(L10,M5)
 x(L10,M6)
 x(L10,M7)
 x(L10,M8)
 x(L10,M9)
 x(L10,M10)
 x(L11,M1)
 x(L11,M2)
 x(L11,M3)
 x(L11,M4)
 x(L11,M5)
 x(L11,M6)
 x(L11,M7)
 x(L11,M8)
 x(L11,M9)
 x(L11,M10)
 x(L12,M1)
 x(L12,M2)
 x(L12,M3)
 x(L12,M4)
 x(L12,M5)
 x(L12,M6)
 x(L12,M7)
 x(L12,M8)
 x(L12,M9)
 x(L12,M10)
 x(L13,M1)
 x(L13,M2)
 x(L13,M3)
 x(L13,M4)
 x(L13,M5)
 x(L13,M6)
 x(L13,M7)
 x(L13,M8)
 x(L13,M9)
 x(L13,M10)
 x(L14,M1)
 x(L14,M2)
 x(L14,M3)
 x(L14,M4)
 x(L14,M5)
 x(L14,M6)
 x(L14,M7)
 x(L14,M8)
 x(L14,M9)
 x(L14,M10)
 x(L15,M1)
 x(L15,M2)
 x(L15,M3)
 x(L15,M4)
 x(L15,M5)
 x(L15,M6)
 x(L15,M7)
 x(L15,M8)
 x(L15,M9)
 x(L15,M10)
 x(L16,M1)
 x(L16,M2)
 x(L16,M3)
 x(L16,M4)
 x(L16,M5)
 x(L16,M6)
 x(L16,M7)
 x(L16,M8)
 x(L16,M9)
 x(L16,M10)
 x(L17,M1)
 x(L17,M2)
 x(L17,M3)
 x(L17,M4)
 x(L17,M5)
 x(L17,M6)
 x(L17,M7)
 x(L17,M8)
 x(L17,M9)
 x(L17,M10)
 x(L18,M1)
 x(L18,M2)
 x(L18,M3)
 x(L18,M4)
 x(L18,M5)
 x(L18,M6)
 x(L18,M7)
 x(L18,M8)
 x(L18,M9)
 x(L18,M10)
 x(L19,M1)
 x(L19,M2)
 x(L19,M3)
 x(L19,M4)
 x(L19,M5)
 x(L19,M6)
 x(L19,M7)
 x(L19,M8)
 x(L19,M9)
 x(L19,M10)
 x(L20,M1)
 x(L20,M2)
 x(L20,M3)
 x(L20,M4)
 x(L20,M5)
 x(L20,M6)
 x(L20,M7)
 x(L20,M8)
 x(L20,M9)
 x(L20,M10)
 x(L21,M1)
 x(L21,M2)
 x(L21,M3)
 x(L21,M4)
 x(L21,M5)
 x(L21,M6)
 x(L21,M7)
 x(L21,M8)
 x(L21,M9)
 x(L21,M10)
 x(L22,M1)
 x(L22,M2)
 x(L22,M3)
 x(L22,M4)
 x(L22,M5)
 x(L22,M6)
 x(L22,M7)
 x(L22,M8)
 x(L22,M9)
 x(L22,M10)
 x(L23,M1)
 x(L23,M2)
 x(L23,M3)
 x(L23,M4)
 x(L23,M5)
 x(L23,M6)
 x(L23,M7)
 x(L23,M8)
 x(L23,M9)
 x(L23,M10)
 x(L24,M1)
 x(L24,M2)
 x(L24,M3)
 x(L24,M4)
 x(L24,M5)
 x(L24,M6)
 x(L24,M7)
 x(L24,M8)
 x(L24,M9)
 x(L24,M10)
 x(L25,M1)
 x(L25,M2)
 x(L25,M3)
 x(L25,M4)
 x(L25,M5)
 x(L25,M6)
 x(L25,M7)
 x(L25,M8)
 x(L25,M9)
 x(L25,M10)
 x(L26,M1)
 x(L26,M2)
 x(L26,M3)
 x(L26,M4)
 x(L26,M5)
 x(L26,M6)
 x(L26,M7)
 x(L26,M8)
 x(L26,M9)
 x(L26,M10)
 x(L27,M1)
 x(L27,M2)
 x(L27,M3)
 x(L27,M4)
 x(L27,M5)
 x(L27,M6)
 x(L27,M7)
 x(L27,M8)
 x(L27,M9)
 x(L27,M10)
 x(L28,M1)
 x(L28,M2)
 x(L28,M3)
 x(L28,M4)
 x(L28,M5)
 x(L28,M6)
 x(L28,M7)
 x(L28,M8)
 x(L28,M9)
 x(L28,M10)
 x(L29,M1)
 x(L29,M2)
 x(L29,M3)
 x(L29,M4)
 x(L29,M5)
 x(L29,M6)
 x(L29,M7)
 x(L29,M8)
 x(L29,M9)
 x(L29,M10)
 x(L30,M1)
 x(L30,M2)
 x(L30,M3)
 x(L30,M4)
 x(L30,M5)
 x(L30,M6)
 x(L30,M7)
 x(L30,M8)
 x(L30,M9)
 x(L30,M10)
 x(L31,M1)
 x(L31,M2)
 x(L31,M3)
 x(L31,M4)
 x(L31,M5)
 x(L31,M6)
 x(L31,M7)
 x(L31,M8)
 x(L31,M9)
 x(L31,M10)
 x(L32,M1)
 x(L32,M2)
 x(L32,M3)
 x(L32,M4)
 x(L32,M5)
 x(L32,M6)
 x(L32,M7)
 x(L32,M8)
 x(L32,M9)
 x(L32,M10)
 x(L33,M1)
 x(L33,M2)
 x(L33,M3)
 x(L33,M4)
 x(L33,M5)
 x(L33,M6)
 x(L33,M7)
 x(L33,M8)
 x(L33,M9)
 x(L33,M10)
 x(L34,M1)
 x(L34,M2)
 x(L34,M3)
 x(L34,M4)
 x(L34,M5)
 x(L34,M6)
 x(L34,M7)
 x(L34,M8)
 x(L34,M9)
 x(L34,M10)
 x(L35,M1)
 x(L35,M2)
 x(L35,M3)
 x(L35,M4)
 x(L35,M5)
 x(L35,M6)
 x(L35,M7)
 x(L35,M8)
 x(L35,M9)
 x(L35,M10)
 x(L36,M1)
 x(L36,M2)
 x(L36,M3)
 x(L36,M4)
 x(L36,M5)
 x(L36,M6)
 x(L36,M7)
 x(L36,M8)
 x(L36,M9)
 x(L36,M10)
 x(L37,M1)
 x(L37,M2)
 x(L37,M3)
 x(L37,M4)
 x(L37,M5)
 x(L37,M6)
 x(L37,M7)
 x(L37,M8)
 x(L37,M9)
 x(L37,M10)
 x(L38,M1)
 x(L38,M2)
 x(L38,M3)
 x(L38,M4)
 x(L38,M5)
 x(L38,M6)
 x(L38,M7)
 x(L38,M8)
 x(L38,M9)
 x(L38,M10)
 x(L39,M1)
 x(L39,M2)
 x(L39,M3)
 x(L39,M4)
 x(L39,M5)
 x(L39,M6)
 x(L39,M7)
 x(L39,M8)
 x(L39,M9)
 x(L39,M10)
 x(L40,M1)
 x(L40,M2)
 x(L40,M3)
 x(L40,M4)
 x(L40,M5)
 x(L40,M6)
 x(L40,M7)
 x(L40,M8)
 x(L40,M9)
 x(L40,M10)
 x(L41,M1)
 x(L41,M2)
 x(L41,M3)
 x(L41,M4)
 x(L41,M5)
 x(L41,M6)
 x(L41,M7)
 x(L41,M8)
 x(L41,M9)
 x(L41,M10)
 x(L42,M1)
 x(L42,M2)
 x(L42,M3)
 x(L42,M4)
 x(L42,M5)
 x(L42,M6)
 x(L42,M7)
 x(L42,M8)
 x(L42,M9)
 x(L42,M10)
 x(L43,M1)
 x(L43,M2)
 x(L43,M3)
 x(L43,M4)
 x(L43,M5)
 x(L43,M6)
 x(L43,M7)
 x(L43,M8)
 x(L43,M9)
 x(L43,M10)
 x(L44,M1)
 x(L44,M2)
 x(L44,M3)
 x(L44,M4)
 x(L44,M5)
 x(L44,M6)
 x(L44,M7)
 x(L44,M8)
 x(L44,M9)
 x(L44,M10)
 x(L45,M1)
 x(L45,M2)
 x(L45,M3)
 x(L45,M4)
 x(L45,M5)
 x(L45,M6)
 x(L45,M7)
 x(L45,M8)
 x(L45,M9)
 x(L45,M10)
 x(L46,M1)
 x(L46,M2)
 x(L46,M3)
 x(L46,M4)
 x(L46,M5)
 x(L46,M6)
 x(L46,M7)
 x(L46,M8)
 x(L46,M9)
 x(L46,M10)
 x(L47,M1)
 x(L47,M2)
 x(L47,M3)
 x(L47,M4)
 x(L47,M5)
 x(L47,M6)
 x(L47,M7)
 x(L47,M8)
 x(L47,M9)
 x(L47,M10)
 x(L48,M1)
 x(L48,M2)
 x(L48,M3)
 x(L48,M4)
 x(L48,M5)
 x(L48,M6)
 x(L48,M7)
 x(L48,M8)
 x(L48,M9)
 x(L48,M10)
 x(L49,M1)
 x(L49,M2)
 x(L49,M3)
 x(L49,M4)
 x(L49,M5)
 x(L49,M6)
 x(L49,M7)
 x(L49,M8)
 x(L49,M9)
 x(L49,M10)
 x(L50,M1)
 x(L50,M2)
 x(L50,M3)
 x(L50,M4)
 x(L50,M5)
 x(L50,M6)
 x(L50,M7)
 x(L50,M8)
 x(L50,M9)
 x(L50,M10)
 x(L51,M1)
 x(L51,M2)
 x(L51,M3)
 x(L51,M4)
 x(L51,M5)
 x(L51,M6)
 x(L51,M7)
 x(L51,M8)
 x(L51,M9)
 x(L51,M10)
 x(L52,M1)
 x(L52,M2)
 x(L52,M3)
 x(L52,M4)
 x(L52,M5)
 x(L52,M6)
 x(L52,M7)
 x(L52,M8)
 x(L52,M9)
 x(L52,M10)
 x(L53,M1)
 x(L53,M2)
 x(L53,M3)
 x(L53,M4)
 x(L53,M5)
 x(L53,M6)
 x(L53,M7)
 x(L53,M8)
 x(L53,M9)
 x(L53,M10)
 x(L54,M1)
 x(L54,M2)
 x(L54,M3)
 x(L54,M4)
 x(L54,M5)
 x(L54,M6)
 x(L54,M7)
 x(L54,M8)
 x(L54,M9)
 x(L54,M10)
 x(L55,M1)
 x(L55,M2)
 x(L55,M3)
 x(L55,M4)
 x(L55,M5)
 x(L55,M6)
 x(L55,M7)
 x(L55,M8)
 x(L55,M9)
 x(L55,M10)
 x(L56,M1)
 x(L56,M2)
 x(L56,M3)
 x(L56,M4)
 x(L56,M5)
 x(L56,M6)
 x(L56,M7)
 x(L56,M8)
 x(L56,M9)
 x(L56,M10)
 x(L57,M1)
 x(L57,M2)
 x(L57,M3)
 x(L57,M4)
 x(L57,M5)
 x(L57,M6)
 x(L57,M7)
 x(L57,M8)
 x(L57,M9)
 x(L57,M10)
 x(L58,M1)
 x(L58,M2)
 x(L58,M3)
 x(L58,M4)
 x(L58,M5)
 x(L58,M6)
 x(L58,M7)
 x(L58,M8)
 x(L58,M9)
 x(L58,M10)
 x(L59,M1)
 x(L59,M2)
 x(L59,M3)
 x(L59,M4)
 x(L59,M5)
 x(L59,M6)
 x(L59,M7)
 x(L59,M8)
 x(L59,M9)
 x(L59,M10)
 x(L60,M1)
 x(L60,M2)
 x(L60,M3)
 x(L60,M4)
 x(L60,M5)
 x(L60,M6)
 x(L60,M7)
 x(L60,M8)
 x(L60,M9)
 x(L60,M10)
 x(L61,M1)
 x(L61,M2)
 x(L61,M3)
 x(L61,M4)
 x(L61,M5)
 x(L61,M6)
 x(L61,M7)
 x(L61,M8)
 x(L61,M9)
 x(L61,M10)
 x(L62,M1)
 x(L62,M2)
 x(L62,M3)
 x(L62,M4)
 x(L62,M5)
 x(L62,M6)
 x(L62,M7)
 x(L62,M8)
 x(L62,M9)
 x(L62,M10)
 x(L63,M1)
 x(L63,M2)
 x(L63,M3)
 x(L63,M4)
 x(L63,M5)
 x(L63,M6)
 x(L63,M7)
 x(L63,M8)
 x(L63,M9)
 x(L63,M10)
 x(L64,M1)
 x(L64,M2)
 x(L64,M3)
 x(L64,M4)
 x(L64,M5)
 x(L64,M6)
 x(L64,M7)
 x(L64,M8)
 x(L64,M9)
 x(L64,M10)
 x(L65,M1)
 x(L65,M2)
 x(L65,M3)
 x(L65,M4)
 x(L65,M5)
 x(L65,M6)
 x(L65,M7)
 x(L65,M8)
 x(L65,M9)
 x(L65,M10)
 x(L66,M1)
 x(L66,M2)
 x(L66,M3)
 x(L66,M4)
 x(L66,M5)
 x(L66,M6)
 x(L66,M7)
 x(L66,M8)
 x(L66,M9)
 x(L66,M10)
 x(L67,M1)
 x(L67,M2)
 x(L67,M3)
 x(L67,M4)
 x(L67,M5)
 x(L67,M6)
 x(L67,M7)
 x(L67,M8)
 x(L67,M9)
 x(L67,M10)
 x(L68,M1)
 x(L68,M2)
 x(L68,M3)
 x(L68,M4)
 x(L68,M5)
 x(L68,M6)
 x(L68,M7)
 x(L68,M8)
 x(L68,M9)
 x(L68,M10)
 x(L69,M1)
 x(L69,M2)
 x(L69,M3)
 x(L69,M4)
 x(L69,M5)
 x(L69,M6)
 x(L69,M7)
 x(L69,M8)
 x(L69,M9)
 x(L69,M10)
 x(L70,M1)
 x(L70,M2)
 x(L70,M3)
 x(L70,M4)
 x(L70,M5)
 x(L70,M6)
 x(L70,M7)
 x(L70,M8)
 x(L70,M9)
 x(L70,M10)
 x(L71,M1)
 x(L71,M2)
 x(L71,M3)
 x(L71,M4)
 x(L71,M5)
 x(L71,M6)
 x(L71,M7)
 x(L71,M8)
 x(L71,M9)
 x(L71,M10)
 x(L72,M1)
 x(L72,M2)
 x(L72,M3)
 x(L72,M4)
 x(L72,M5)
 x(L72,M6)
 x(L72,M7)
 x(L72,M8)
 x(L72,M9)
 x(L72,M10)
 x(L73,M1)
 x(L73,M2)
 x(L73,M3)
 x(L73,M4)
 x(L73,M5)
 x(L73,M6)
 x(L73,M7)
 x(L73,M8)
 x(L73,M9)
 x(L73,M10)
 x(L74,M1)
 x(L74,M2)
 x(L74,M3)
 x(L74,M4)
 x(L74,M5)
 x(L74,M6)
 x(L74,M7)
 x(L74,M8)
 x(L74,M9)
 x(L74,M10)
 x(L75,M1)
 x(L75,M2)
 x(L75,M3)
 x(L75,M4)
 x(L75,M5)
 x(L75,M6)
 x(L75,M7)
 x(L75,M8)
 x(L75,M9)
 x(L75,M10)
 x(L76,M1)
 x(L76,M2)
 x(L76,M3)
 x(L76,M4)
 x(L76,M5)
 x(L76,M6)
 x(L76,M7)
 x(L76,M8)
 x(L76,M9)
 x(L76,M10)
 x(L77,M1)
 x(L77,M2)
 x(L77,M3)
 x(L77,M4)
 x(L77,M5)
 x(L77,M6)
 x(L77,M7)
 x(L77,M8)
 x(L77,M9)
 x(L77,M10)
 x(L78,M1)
 x(L78,M2)
 x(L78,M3)
 x(L78,M4)
 x(L78,M5)
 x(L78,M6)
 x(L78,M7)
 x(L78,M8)
 x(L78,M9)
 x(L78,M10)
 x(L79,M1)
 x(L79,M2)
 x(L79,M3)
 x(L79,M4)
 x(L79,M5)
 x(L79,M6)
 x(L79,M7)
 x(L79,M8)
 x(L79,M9)
 x(L79,M10)
 x(L80,M1)
 x(L80,M2)
 x(L80,M3)
 x(L80,M4)
 x(L80,M5)
 x(L80,M6)
 x(L80,M7)
 x(L80,M8)
 x(L80,M9)
 x(L80,M10)
 x(L81,M1)
 x(L81,M2)
 x(L81,M3)
 x(L81,M4)
 x(L81,M5)
 x(L81,M6)
 x(L81,M7)
 x(L81,M8)
 x(L81,M9)
 x(L81,M10)
 x(L82,M1)
 x(L82,M2)
 x(L82,M3)
 x(L82,M4)
 x(L82,M5)
 x(L82,M6)
 x(L82,M7)
 x(L82,M8)
 x(L82,M9)
 x(L82,M10)
 x(L83,M1)
 x(L83,M2)
 x(L83,M3)
 x(L83,M4)
 x(L83,M5)
 x(L83,M6)
 x(L83,M7)
 x(L83,M8)
 x(L83,M9)
 x(L83,M10)
 x(L84,M1)
 x(L84,M2)
 x(L84,M3)
 x(L84,M4)
 x(L84,M5)
 x(L84,M6)
 x(L84,M7)
 x(L84,M8)
 x(L84,M9)
 x(L84,M10)
 x(L85,M1)
 x(L85,M2)
 x(L85,M3)
 x(L85,M4)
 x(L85,M5)
 x(L85,M6)
 x(L85,M7)
 x(L85,M8)
 x(L85,M9)
 x(L85,M10)
 x(L86,M1)
 x(L86,M2)
 x(L86,M3)
 x(L86,M4)
 x(L86,M5)
 x(L86,M6)
 x(L86,M7)
 x(L86,M8)
 x(L86,M9)
 x(L86,M10)
 x(L87,M1)
 x(L87,M2)
 x(L87,M3)
 x(L87,M4)
 x(L87,M5)
 x(L87,M6)
 x(L87,M7)
 x(L87,M8)
 x(L87,M9)
 x(L87,M10)
 x(L88,M1)
 x(L88,M2)
 x(L88,M3)
 x(L88,M4)
 x(L88,M5)
 x(L88,M6)
 x(L88,M7)
 x(L88,M8)
 x(L88,M9)
 x(L88,M10)
 x(L89,M1)
 x(L89,M2)
 x(L89,M3)
 x(L89,M4)
 x(L89,M5)
 x(L89,M6)
 x(L89,M7)
 x(L89,M8)
 x(L89,M9)
 x(L89,M10)
 x(L90,M1)
 x(L90,M2)
 x(L90,M3)
 x(L90,M4)
 x(L90,M5)
 x(L90,M6)
 x(L90,M7)
 x(L90,M8)
 x(L90,M9)
 x(L90,M10)
 x(L91,M1)
 x(L91,M2)
 x(L91,M3)
 x(L91,M4)
 x(L91,M5)
 x(L91,M6)
 x(L91,M7)
 x(L91,M8)
 x(L91,M9)
 x(L91,M10)
 x(L92,M1)
 x(L92,M2)
 x(L92,M3)
 x(L92,M4)
 x(L92,M5)
 x(L92,M6)
 x(L92,M7)
 x(L92,M8)
 x(L92,M9)
 x(L92,M10)
 x(L93,M1)
 x(L93,M2)
 x(L93,M3)
 x(L93,M4)
 x(L93,M5)
 x(L93,M6)
 x(L93,M7)
 x(L93,M8)
 x(L93,M9)
 x(L93,M10)
 x(L94,M1)
 x(L94,M2)
 x(L94,M3)
 x(L94,M4)
 x(L94,M5)
 x(L94,M6)
 x(L94,M7)
 x(L94,M8)
 x(L94,M9)
 x(L94,M10)
 x(L95,M1)
 x(L95,M2)
 x(L95,M3)
 x(L95,M4)
 x(L95,M5)
 x(L95,M6)
 x(L95,M7)
 x(L95,M8)
 x(L95,M9)
 x(L95,M10)
 x(L96,M1)
 x(L96,M2)
 x(L96,M3)
 x(L96,M4)
 x(L96,M5)
 x(L96,M6)
 x(L96,M7)
 x(L96,M8)
 x(L96,M9)
 x(L96,M10)
 x(L97,M1)
 x(L97,M2)
 x(L97,M3)
 x(L97,M4)
 x(L97,M5)
 x(L97,M6)
 x(L97,M7)
 x(L97,M8)
 x(L97,M9)
 x(L97,M10)
 x(L98,M1)
 x(L98,M2)
 x(L98,M3)
 x(L98,M4)
 x(L98,M5)
 x(L98,M6)
 x(L98,M7)
 x(L98,M8)
 x(L98,M9)
 x(L98,M10)
 x(L99,M1)
 x(L99,M2)
 x(L99,M3)
 x(L99,M4)
 x(L99,M5)
 x(L99,M6)
 x(L99,M7)
 x(L99,M8)
 x(L99,M9)
 x(L99,M10)
 x(L100,M1)
 x(L100,M2)
 x(L100,M3)
 x(L100,M4)
 x(L100,M5)
 x(L100,M6)
 x(L100,M7)
 x(L100,M8)
 x(L100,M9)
 x(L100,M10)
 x(L101,M1)
 x(L101,M2)
 x(L101,M3)
 x(L101,M4)
 x(L101,M5)
 x(L101,M6)
 x(L101,M7)
 x(L101,M8)
 x(L101,M9)
 x(L101,M10)
 x(L102,M1)
 x(L102,M2)
 x(L102,M3)
 x(L102,M4)
 x(L102,M5)
 x(L102,M6)
 x(L102,M7)
 x(L102,M8)
 x(L102,M9)
 x(L102,M10)
 x(L103,M1)
 x(L103,M2)
 x(L103,M3)
 x(L103,M4)
 x(L103,M5)
 x(L103,M6)
 x(L103,M7)
 x(L103,M8)
 x(L103,M9)
 x(L103,M10)
 x(L104,M1)
 x(L104,M2)
 x(L104,M3)
 x(L104,M4)
 x(L104,M5)
 x(L104,M6)
 x(L104,M7)
 x(L104,M8)
 x(L104,M9)
 x(L104,M10)
 x(L105,M1)
 x(L105,M2)
 x(L105,M3)
 x(L105,M4)
 x(L105,M5)
 x(L105,M6)
 x(L105,M7)
 x(L105,M8)
 x(L105,M9)
 x(L105,M10)
 x(L106,M1)
 x(L106,M2)
 x(L106,M3)
 x(L106,M4)
 x(L106,M5)
 x(L106,M6)
 x(L106,M7)
 x(L106,M8)
 x(L106,M9)
 x(L106,M10)
 x(L107,M1)
 x(L107,M2)
 x(L107,M3)
 x(L107,M4)
 x(L107,M5)
 x(L107,M6)
 x(L107,M7)
 x(L107,M8)
 x(L107,M9)
 x(L107,M10)
 x(L108,M1)
 x(L108,M2)
 x(L108,M3)
 x(L108,M4)
 x(L108,M5)
 x(L108,M6)
 x(L108,M7)
 x(L108,M8)
 x(L108,M9)
 x(L108,M10)
 x(L109,M1)
 x(L109,M2)
 x(L109,M3)
 x(L109,M4)
 x(L109,M5)
 x(L109,M6)
 x(L109,M7)
 x(L109,M8)
 x(L109,M9)
 x(L109,M10)
 x(L110,M1)
 x(L110,M2)
 x(L110,M3)
 x(L110,M4)
 x(L110,M5)
 x(L110,M6)
 x(L110,M7)
 x(L110,M8)
 x(L110,M9)
 x(L110,M10)
 x(L111,M1)
 x(L111,M2)
 x(L111,M3)
 x(L111,M4)
 x(L111,M5)
 x(L111,M6)
 x(L111,M7)
 x(L111,M8)
 x(L111,M9)
 x(L111,M10)
 x(L112,M1)
 x(L112,M2)
 x(L112,M3)
 x(L112,M4)
 x(L112,M5)
 x(L112,M6)
 x(L112,M7)
 x(L112,M8)
 x(L112,M9)
 x(L112,M10)
 x(L113,M1)
 x(L113,M2)
 x(L113,M3)
 x(L113,M4)
 x(L113,M5)
 x(L113,M6)
 x(L113,M7)
 x(L113,M8)
 x(L113,M9)
 x(L113,M10)
 x(L114,M1)
 x(L114,M2)
 x(L114,M3)
 x(L114,M4)
 x(L114,M5)
 x(L114,M6)
 x(L114,M7)
 x(L114,M8)
 x(L114,M9)
 x(L114,M10)
 x(L115,M1)
 x(L115,M2)
 x(L115,M3)
 x(L115,M4)
 x(L115,M5)
 x(L115,M6)
 x(L115,M7)
 x(L115,M8)
 x(L115,M9)
 x(L115,M10)
 x(L116,M1)
 x(L116,M2)
 x(L116,M3)
 x(L116,M4)
 x(L116,M5)
 x(L116,M6)
 x(L116,M7)
 x(L116,M8)
 x(L116,M9)
 x(L116,M10)
 x(L117,M1)
 x(L117,M2)
 x(L117,M3)
 x(L117,M4)
 x(L117,M5)
 x(L117,M6)
 x(L117,M7)
 x(L117,M8)
 x(L117,M9)
 x(L117,M10)
 x(L118,M1)
 x(L118,M2)
 x(L118,M3)
 x(L118,M4)
 x(L118,M5)
 x(L118,M6)
 x(L118,M7)
 x(L118,M8)
 x(L118,M9)
 x(L118,M10)
 x(L119,M1)
 x(L119,M2)
 x(L119,M3)
 x(L119,M4)
 x(L119,M5)
 x(L119,M6)
 x(L119,M7)
 x(L119,M8)
 x(L119,M9)
 x(L119,M10)
 x(L120,M1)
 x(L120,M2)
 x(L120,M3)
 x(L120,M4)
 x(L120,M5)
 x(L120,M6)
 x(L120,M7)
 x(L120,M8)
 x(L120,M9)
 x(L120,M10)
 x(L121,M1)
 x(L121,M2)
 x(L121,M3)
 x(L121,M4)
 x(L121,M5)
 x(L121,M6)
 x(L121,M7)
 x(L121,M8)
 x(L121,M9)
 x(L121,M10)
 x(L122,M1)
 x(L122,M2)
 x(L122,M3)
 x(L122,M4)
 x(L122,M5)
 x(L122,M6)
 x(L122,M7)
 x(L122,M8)
 x(L122,M9)
 x(L122,M10)
 x(L123,M1)
 x(L123,M2)
 x(L123,M3)
 x(L123,M4)
 x(L123,M5)
 x(L123,M6)
 x(L123,M7)
 x(L123,M8)
 x(L123,M9)
 x(L123,M10)
 x(L124,M1)
 x(L124,M2)
 x(L124,M3)
 x(L124,M4)
 x(L124,M5)
 x(L124,M6)
 x(L124,M7)
 x(L124,M8)
 x(L124,M9)
 x(L124,M10)
 x(L125,M1)
 x(L125,M2)
 x(L125,M3)
 x(L125,M4)
 x(L125,M5)
 x(L125,M6)
 x(L125,M7)
 x(L125,M8)
 x(L125,M9)
 x(L125,M10)

End
