\ SCIP STATISTICS
\   Problem name     : Master
\   Variables        : 166 (165 binary, 0 integer, 0 implicit integer, 1 continuous)
\   Constraints      : 17
Minimize
 Obj: +1 X0 +1 X1 +1 X2 +1 X3 +1 X4 +1 X5 +1 X6 +1 X7 +1 X8 +1 X9 +1 X10 +1 X11 +1 X12 +1 X13 +1 X14 +1 X15
      +1 X16 +1 X17 +1 X18 +1 X19 +1 X20 +1 X21 +1 X22 +1 X23 +1 X24 +1 X25 +1 X26 +1 X27 +1 X28 +1 X29
      +1 X30 +1 X31 +1 X32 +1 X33 +1 X34 +1 X35 +1 X36 +1 X37 +1 X38 +1 X39 +1 X40 +1 X41 +1 X42 +1 X43
      +1 X44 +1 X45 +1 X46 +1 X47 +1 X48 +1 X49 +1 X50 +1 X51 +1 X52 +1 X53 +1 X54 +1 X55 +1 X56 +1 X57
      +1 X58 +1 X59 +1 X60 +1 X61 +1 X62 +1 X63 +1 X64 +1 X65 +1 X66 +1 X67 +1 X68 +1 X69 +1 X70 +1 X71
      +1 X72 +1 X73 +1 X74 +1 X75 +1 X76 +1 X77 +1 X78 +1 X79 +1 X80 +1 X81 +1 X82 +1 X83 +1 X84 +1 X85
      +1 X86 +1 X87 +1 X88 +1 X89 +1 X90 +1 X91 +1 X92 +1 X93 +1 X94 +1 X95 +1 X96 +1 X97 +1 X98 +1 X99
      +1 X100 +1 X101 +1 X102 +1 X103 +1 X104 +1 X105 +1 X106 +1 X107 +1 X108 +1 X109 +1 X110 +1 X111
      +1 X112 +1 X113 +1 X114 +1 X115 +1 X116 +1 X117 +1 X118 +1 X119 +1 X120 +1 X121 +1 X122 +1 X123
      +1 X124 +1 X125 +1 X126 +1 X127 +1 X128 +1 X129 +1 X130 +1 X131 +1 X132 +1 X133 +1 X134 +1 X135
      +1 X136 +1 X137 +1 X138 +1 X139 +1 X140 +1 X141 +1 X142 +1 X143 +1 X144 +1 X145 +1 X146 +1 X147
      +1 X148 +1 X149 +1 X150 +1 X151 +1 X152 +1 X153 +1 X154 +1 X155 +1 X156 +1 X157 +1 X158 +1 X159
      +1 X160 +1 X161 +1 X162 +1 X163 +1 X164 +1 theta
Subject to
 c1: +1 X0 +1 X5 +1 X6 +1 X7 +1 X8 +1 X15 +1 X16 +1 X17 +1 X18 +1 X19 +1 X20 +1 X25 +1 X26 +1 X27 +1 X28
  +1 X30 = +1
 c2: +1 X31 +1 X38 +1 X39 +1 X40 +1 X41 +1 X42 +1 X43 +1 X59 +1 X60 +1 X61 +1 X62 +1 X63 +1 X64 +1 X65
  +1 X66 +1 X67 +1 X68 +1 X69 +1 X70 +1 X71 +1 X72 +1 X73 +1 X94 +1 X95 +1 X96 +1 X97 +1 X98 +1 X99 +1 X100
  +1 X101 +1 X102 +1 X103 +1 X104 +1 X105 +1 X106 +1 X107 +1 X108 +1 X109 +1 X110 +1 X111 +1 X112 +1 X113
  +1 X129 +1 X130 +1 X131 +1 X132 +1 X133 +1 X134 +1 X135 +1 X136 +1 X137 +1 X138 +1 X139 +1 X140 +1 X141
  +1 X142 +1 X143 +1 X150 +1 X151 +1 X152 +1 X153 +1 X154 +1 X155 +1 X157 = +1
 c3: +1 X1 +1 X5 +1 X9 +1 X10 +1 X11 +1 X15 +1 X16 +1 X17 +1 X21 +1 X22 +1 X23 +1 X25 +1 X26 +1 X27 +1 X29
  +1 X30 = +1
 c4: +1 X158 +1 X161 +1 X162 +1 X164 = +1
 c5: +1 X32 +1 X38 +1 X44 +1 X45 +1 X46 +1 X47 +1 X48 +1 X59 +1 X60 +1 X61 +1 X62 +1 X63 +1 X74 +1 X75
  +1 X76 +1 X77 +1 X78 +1 X79 +1 X80 +1 X81 +1 X82 +1 X83 +1 X94 +1 X95 +1 X96 +1 X97 +1 X98 +1 X99 +1 X100
  +1 X101 +1 X102 +1 X103 +1 X114 +1 X115 +1 X116 +1 X117 +1 X118 +1 X119 +1 X120 +1 X121 +1 X122 +1 X123
  +1 X129 +1 X130 +1 X131 +1 X132 +1 X133 +1 X134 +1 X135 +1 X136 +1 X137 +1 X138 +1 X144 +1 X145 +1 X146
  +1 X147 +1 X148 +1 X150 +1 X151 +1 X152 +1 X153 +1 X154 +1 X156 +1 X157 = +1
 c6: +1 X2 +1 X6 +1 X9 +1 X12 +1 X13 +1 X15 +1 X18 +1 X19 +1 X21 +1 X22 +1 X24 +1 X25 +1 X26 +1 X28 +1 X29
  +1 X30 = +1
 c7: +1 X159 +1 X161 +1 X163 +1 X164 = +1
 c8: +1 X33 +1 X39 +1 X44 +1 X49 +1 X50 +1 X51 +1 X52 +1 X59 +1 X64 +1 X65 +1 X66 +1 X67 +1 X74 +1 X75
  +1 X76 +1 X77 +1 X84 +1 X85 +1 X86 +1 X87 +1 X88 +1 X89 +1 X94 +1 X95 +1 X96 +1 X97 +1 X104 +1 X105
  +1 X106 +1 X107 +1 X108 +1 X109 +1 X114 +1 X115 +1 X116 +1 X117 +1 X118 +1 X119 +1 X124 +1 X125 +1 X126
  +1 X127 +1 X129 +1 X130 +1 X131 +1 X132 +1 X133 +1 X134 +1 X139 +1 X140 +1 X141 +1 X142 +1 X144 +1 X145
  +1 X146 +1 X147 +1 X149 +1 X150 +1 X151 +1 X152 +1 X153 +1 X155 +1 X156 +1 X157 = +1
 c9: +1 X3 +1 X7 +1 X10 +1 X12 +1 X14 +1 X16 +1 X18 +1 X20 +1 X21 +1 X23 +1 X24 +1 X25 +1 X27 +1 X28 +1 X29
  +1 X30 = +1
 c10: +1 X160 +1 X162 +1 X163 +1 X164 = +1
 c11: +1 X34 +1 X40 +1 X45 +1 X49 +1 X53 +1 X54 +1 X55 +1 X60 +1 X64 +1 X68 +1 X69 +1 X70 +1 X74 +1 X78
  +1 X79 +1 X80 +1 X84 +1 X85 +1 X86 +1 X90 +1 X91 +1 X92 +1 X94 +1 X98 +1 X99 +1 X100 +1 X104 +1 X105
  +1 X106 +1 X110 +1 X111 +1 X112 +1 X114 +1 X115 +1 X116 +1 X120 +1 X121 +1 X122 +1 X124 +1 X125 +1 X126
  +1 X128 +1 X129 +1 X130 +1 X131 +1 X135 +1 X136 +1 X137 +1 X139 +1 X140 +1 X141 +1 X143 +1 X144 +1 X145
  +1 X146 +1 X148 +1 X149 +1 X150 +1 X151 +1 X152 +1 X154 +1 X155 +1 X156 +1 X157 = +1
 c12: +1 X35 +1 X41 +1 X46 +1 X50 +1 X53 +1 X56 +1 X57 +1 X61 +1 X65 +1 X68 +1 X71 +1 X72 +1 X75 +1 X78
  +1 X81 +1 X82 +1 X84 +1 X87 +1 X88 +1 X90 +1 X91 +1 X93 +1 X95 +1 X98 +1 X101 +1 X102 +1 X104 +1 X107
  +1 X108 +1 X110 +1 X111 +1 X113 +1 X114 +1 X117 +1 X118 +1 X120 +1 X121 +1 X123 +1 X124 +1 X125 +1 X127
  +1 X128 +1 X129 +1 X132 +1 X133 +1 X135 +1 X136 +1 X138 +1 X139 +1 X140 +1 X142 +1 X143 +1 X144 +1 X145
  +1 X147 +1 X148 +1 X149 +1 X150 +1 X151 +1 X153 +1 X154 +1 X155 +1 X156 +1 X157 = +1
 c13: +1 X4 +1 X8 +1 X11 +1 X13 +1 X14 +1 X17 +1 X19 +1 X20 +1 X22 +1 X23 +1 X24 +1 X26 +1 X27 +1 X28
  +1 X29 +1 X30 = +1
 c14: +1 X36 +1 X42 +1 X47 +1 X51 +1 X54 +1 X56 +1 X58 +1 X62 +1 X66 +1 X69 +1 X71 +1 X73 +1 X76 +1 X79
  +1 X81 +1 X83 +1 X85 +1 X87 +1 X89 +1 X90 +1 X92 +1 X93 +1 X96 +1 X99 +1 X101 +1 X103 +1 X105 +1 X107
  +1 X109 +1 X110 +1 X112 +1 X113 +1 X115 +1 X117 +1 X119 +1 X120 +1 X122 +1 X123 +1 X124 +1 X126 +1 X127
  +1 X128 +1 X130 +1 X132 +1 X134 +1 X135 +1 X137 +1 X138 +1 X139 +1 X141 +1 X142 +1 X143 +1 X144 +1 X146
  +1 X147 +1 X148 +1 X149 +1 X150 +1 X152 +1 X153 +1 X154 +1 X155 +1 X156 +1 X157 = +1
 c15: +1 X37 +1 X43 +1 X48 +1 X52 +1 X55 +1 X57 +1 X58 +1 X63 +1 X67 +1 X70 +1 X72 +1 X73 +1 X77 +1 X80
  +1 X82 +1 X83 +1 X86 +1 X88 +1 X89 +1 X91 +1 X92 +1 X93 +1 X97 +1 X100 +1 X102 +1 X103 +1 X106 +1 X108
  +1 X109 +1 X111 +1 X112 +1 X113 +1 X116 +1 X118 +1 X119 +1 X121 +1 X122 +1 X123 +1 X125 +1 X126 +1 X127
  +1 X128 +1 X131 +1 X133 +1 X134 +1 X136 +1 X137 +1 X138 +1 X140 +1 X141 +1 X142 +1 X143 +1 X145 +1 X146
  +1 X147 +1 X148 +1 X149 +1 X151 +1 X152 +1 X153 +1 X154 +1 X155 +1 X156 +1 X157 = +1
 c16: +1 theta -15 X30 -15 X157 -15 X164 +15 X0 +15 X1 +15 X2 +15 X3 +15 X4 +15 X5 +15 X6 +15 X7 +15 X8
  +15 X9 +15 X10 +15 X11 +15 X12 +15 X13 +15 X14 +15 X15 +15 X16 +15 X17 +15 X18 +15 X19 +15 X20 +15 X21
  +15 X22 +15 X23 +15 X24 +15 X25 +15 X26 +15 X27 +15 X28 +15 X29 +15 X31 +15 X32 +15 X33 +15 X34 +15 X35
  +15 X36 +15 X37 +15 X38 +15 X39 +15 X40 +15 X41 +15 X42 +15 X43 +15 X44 +15 X45 +15 X46 +15 X47 +15 X48
  +15 X49 +15 X50 +15 X51 +15 X52 +15 X53 +15 X54 +15 X55 +15 X56 +15 X57 +15 X58 +15 X59 +15 X60 +15 X61
  +15 X62 +15 X63 +15 X64 +15 X65 +15 X66 +15 X67 +15 X68 +15 X69 +15 X70 +15 X71 +15 X72 +15 X73 +15 X74
  +15 X75 +15 X76 +15 X77 +15 X78 +15 X79 +15 X80 +15 X81 +15 X82 +15 X83 +15 X84 +15 X85 +15 X86 +15 X87
  +15 X88 +15 X89 +15 X90 +15 X91 +15 X92 +15 X93 +15 X94 +15 X95 +15 X96 +15 X97 +15 X98 +15 X99 +15 X100
  +15 X101 +15 X102 +15 X103 +15 X104 +15 X105 +15 X106 +15 X107 +15 X108 +15 X109 +15 X110 +15 X111 +15 X112
  +15 X113 +15 X114 +15 X115 +15 X116 +15 X117 +15 X118 +15 X119 +15 X120 +15 X121 +15 X122 +15 X123 +15 X124
  +15 X125 +15 X126 +15 X127 +15 X128 +15 X129 +15 X130 +15 X131 +15 X132 +15 X133 +15 X134 +15 X135 +15 X136
  +15 X137 +15 X138 +15 X139 +15 X140 +15 X141 +15 X142 +15 X143 +15 X144 +15 X145 +15 X146 +15 X147 +15 X148
  +15 X149 +15 X150 +15 X151 +15 X152 +15 X153 +15 X154 +15 X155 +15 X156 +15 X158 +15 X159 +15 X160 +15 X161
  +15 X162 +15 X163 >= +30
 c17: +1 theta -15 X30 -15 X157 -15 X160 -15 X161 +15 X0 +15 X1 +15 X2 +15 X3 +15 X4 +15 X5 +15 X6 +15 X7
  +15 X8 +15 X9 +15 X10 +15 X11 +15 X12 +15 X13 +15 X14 +15 X15 +15 X16 +15 X17 +15 X18 +15 X19 +15 X20
  +15 X21 +15 X22 +15 X23 +15 X24 +15 X25 +15 X26 +15 X27 +15 X28 +15 X29 +15 X31 +15 X32 +15 X33 +15 X34
  +15 X35 +15 X36 +15 X37 +15 X38 +15 X39 +15 X40 +15 X41 +15 X42 +15 X43 +15 X44 +15 X45 +15 X46 +15 X47
  +15 X48 +15 X49 +15 X50 +15 X51 +15 X52 +15 X53 +15 X54 +15 X55 +15 X56 +15 X57 +15 X58 +15 X59 +15 X60
  +15 X61 +15 X62 +15 X63 +15 X64 +15 X65 +15 X66 +15 X67 +15 X68 +15 X69 +15 X70 +15 X71 +15 X72 +15 X73
  +15 X74 +15 X75 +15 X76 +15 X77 +15 X78 +15 X79 +15 X80 +15 X81 +15 X82 +15 X83 +15 X84 +15 X85 +15 X86
  +15 X87 +15 X88 +15 X89 +15 X90 +15 X91 +15 X92 +15 X93 +15 X94 +15 X95 +15 X96 +15 X97 +15 X98 +15 X99
  +15 X100 +15 X101 +15 X102 +15 X103 +15 X104 +15 X105 +15 X106 +15 X107 +15 X108 +15 X109 +15 X110 +15 X111
  +15 X112 +15 X113 +15 X114 +15 X115 +15 X116 +15 X117 +15 X118 +15 X119 +15 X120 +15 X121 +15 X122 +15 X123
  +15 X124 +15 X125 +15 X126 +15 X127 +15 X128 +15 X129 +15 X130 +15 X131 +15 X132 +15 X133 +15 X134 +15 X135
  +15 X136 +15 X137 +15 X138 +15 X139 +15 X140 +15 X141 +15 X142 +15 X143 +15 X144 +15 X145 +15 X146 +15 X147
  +15 X148 +15 X149 +15 X150 +15 X151 +15 X152 +15 X153 +15 X154 +15 X155 +15 X156 +15 X158 +15 X159 +15 X162
  +15 X163 +15 X164 >= +15
Bounds
 0 <= X0 <= 1
 0 <= X1 <= 1
 0 <= X2 <= 1
 0 <= X3 <= 1
 0 <= X4 <= 1
 0 <= X5 <= 1
 0 <= X6 <= 1
 0 <= X7 <= 1
 0 <= X8 <= 1
 0 <= X9 <= 1
 0 <= X10 <= 1
 0 <= X11 <= 1
 0 <= X12 <= 1
 0 <= X13 <= 1
 0 <= X14 <= 1
 0 <= X15 <= 1
 0 <= X16 <= 1
 0 <= X17 <= 1
 0 <= X18 <= 1
 0 <= X19 <= 1
 0 <= X20 <= 1
 0 <= X21 <= 1
 0 <= X22 <= 1
 0 <= X23 <= 1
 0 <= X24 <= 1
 0 <= X25 <= 1
 0 <= X26 <= 1
 0 <= X27 <= 1
 0 <= X28 <= 1
 0 <= X29 <= 1
 0 <= X30 <= 1
 0 <= X31 <= 1
 0 <= X32 <= 1
 0 <= X33 <= 1
 0 <= X34 <= 1
 0 <= X35 <= 1
 0 <= X36 <= 1
 0 <= X37 <= 1
 0 <= X38 <= 1
 0 <= X39 <= 1
 0 <= X40 <= 1
 0 <= X41 <= 1
 0 <= X42 <= 1
 0 <= X43 <= 1
 0 <= X44 <= 1
 0 <= X45 <= 1
 0 <= X46 <= 1
 0 <= X47 <= 1
 0 <= X48 <= 1
 0 <= X49 <= 1
 0 <= X50 <= 1
 0 <= X51 <= 1
 0 <= X52 <= 1
 0 <= X53 <= 1
 0 <= X54 <= 1
 0 <= X55 <= 1
 0 <= X56 <= 1
 0 <= X57 <= 1
 0 <= X58 <= 1
 0 <= X59 <= 1
 0 <= X60 <= 1
 0 <= X61 <= 1
 0 <= X62 <= 1
 0 <= X63 <= 1
 0 <= X64 <= 1
 0 <= X65 <= 1
 0 <= X66 <= 1
 0 <= X67 <= 1
 0 <= X68 <= 1
 0 <= X69 <= 1
 0 <= X70 <= 1
 0 <= X71 <= 1
 0 <= X72 <= 1
 0 <= X73 <= 1
 0 <= X74 <= 1
 0 <= X75 <= 1
 0 <= X76 <= 1
 0 <= X77 <= 1
 0 <= X78 <= 1
 0 <= X79 <= 1
 0 <= X80 <= 1
 0 <= X81 <= 1
 0 <= X82 <= 1
 0 <= X83 <= 1
 0 <= X84 <= 1
 0 <= X85 <= 1
 0 <= X86 <= 1
 0 <= X87 <= 1
 0 <= X88 <= 1
 0 <= X89 <= 1
 0 <= X90 <= 1
 0 <= X91 <= 1
 0 <= X92 <= 1
 0 <= X93 <= 1
 0 <= X94 <= 1
 0 <= X95 <= 1
 0 <= X96 <= 1
 0 <= X97 <= 1
 0 <= X98 <= 1
 0 <= X99 <= 1
 0 <= X100 <= 1
 0 <= X101 <= 1
 0 <= X102 <= 1
 0 <= X103 <= 1
 0 <= X104 <= 1
 0 <= X105 <= 1
 0 <= X106 <= 1
 0 <= X107 <= 1
 0 <= X108 <= 1
 0 <= X109 <= 1
 0 <= X110 <= 1
 0 <= X111 <= 1
 0 <= X112 <= 1
 0 <= X113 <= 1
 0 <= X114 <= 1
 0 <= X115 <= 1
 0 <= X116 <= 1
 0 <= X117 <= 1
 0 <= X118 <= 1
 0 <= X119 <= 1
 0 <= X120 <= 1
 0 <= X121 <= 1
 0 <= X122 <= 1
 0 <= X123 <= 1
 0 <= X124 <= 1
 0 <= X125 <= 1
 0 <= X126 <= 1
 0 <= X127 <= 1
 0 <= X128 <= 1
 0 <= X129 <= 1
 0 <= X130 <= 1
 0 <= X131 <= 1
 0 <= X132 <= 1
 0 <= X133 <= 1
 0 <= X134 <= 1
 0 <= X135 <= 1
 0 <= X136 <= 1
 0 <= X137 <= 1
 0 <= X138 <= 1
 0 <= X139 <= 1
 0 <= X140 <= 1
 0 <= X141 <= 1
 0 <= X142 <= 1
 0 <= X143 <= 1
 0 <= X144 <= 1
 0 <= X145 <= 1
 0 <= X146 <= 1
 0 <= X147 <= 1
 0 <= X148 <= 1
 0 <= X149 <= 1
 0 <= X150 <= 1
 0 <= X151 <= 1
 0 <= X152 <= 1
 0 <= X153 <= 1
 0 <= X154 <= 1
 0 <= X155 <= 1
 0 <= X156 <= 1
 0 <= X157 <= 1
 0 <= X158 <= 1
 0 <= X159 <= 1
 0 <= X160 <= 1
 0 <= X161 <= 1
 0 <= X162 <= 1
 0 <= X163 <= 1
 0 <= X164 <= 1
 60 <= theta
Binaries
 X0 X1 X2 X3 X4 X5 X6 X7 X8 X9 X10 X11 X12 X13 X14 X15 X16 X17 X18 X19 X20 X21 X22 X23 X24 X25 X26 X27
 X28 X29 X30 X31 X32 X33 X34 X35 X36 X37 X38 X39 X40 X41 X42 X43 X44 X45 X46 X47 X48 X49 X50 X51 X52 X53
 X54 X55 X56 X57 X58 X59 X60 X61 X62 X63 X64 X65 X66 X67 X68 X69 X70 X71 X72 X73 X74 X75 X76 X77 X78 X79
 X80 X81 X82 X83 X84 X85 X86 X87 X88 X89 X90 X91 X92 X93 X94 X95 X96 X97 X98 X99 X100 X101 X102 X103 X104
 X105 X106 X107 X108 X109 X110 X111 X112 X113 X114 X115 X116 X117 X118 X119 X120 X121 X122 X123 X124 X125
 X126 X127 X128 X129 X130 X131 X132 X133 X134 X135 X136 X137 X138 X139 X140 X141 X142 X143 X144 X145 X146
 X147 X148 X149 X150 X151 X152 X153 X154 X155 X156 X157 X158 X159 X160 X161 X162 X163 X164
End
