\ SCIP STATISTICS
\   Problem name     : Sub
\   Variables        : 13 (12 binary, 0 integer, 0 implicit integer, 1 continuous)
\   Constraints      : 24
Minimize
 Obj: +1 Cmax
Subject to
 c1: +1 Y30,0 +1 Y30,1 +1 Y30,2 +1 Y30,3 = +1
 c2: +1 Y157,0 +1 Y157,1 +1 Y157,2 +1 Y157,3 = +1
 c3: +1 Y164,0 +1 Y164,1 +1 Y164,2 +1 Y164,3 = +1
 c4: +1 Y30,1 = +0
 c5: +1 Y30,2 = +0
 c6: +1 Y157,2 = +0
 c7: +1 Y164,0 = +0
 c8: +1 Y164,1 = +0
 c9: +1 Cmax -60 Y30,0 -45 Y157,0 -30 Y164,0 >= +0
 c10: +1 Cmax -60 Y30,1 -45 Y157,1 -30 Y164,1 >= +0
 c11: +1 Cmax -60 Y30,2 -45 Y157,2 -30 Y164,2 >= +0
 c12: +1 Cmax -60 Y30,3 -45 Y157,3 -30 Y164,3 >= +0
 c13: +12.3 Y30,0 <= +30
 c14: +12.3 Y30,1 <= +25
 c15: +12.3 Y30,2 <= +20
 c16: +12.3 Y30,3 <= +50
 c17: +34.1 Y157,0 <= +30
 c18: +34.1 Y157,1 <= +25
 c19: +34.1 Y157,2 <= +20
 c20: +34.1 Y157,3 <= +50
 c21: +27.5 Y164,0 <= +30
 c22: +27.5 Y164,1 <= +25
 c23: +27.5 Y164,2 <= +20
 c24: +27.5 Y164,3 <= +50
Bounds
 0 <= Y30,0 <= 1
 0 <= Y30,1 <= 1
 0 <= Y30,2 <= 1
 0 <= Y30,3 <= 1
 0 <= Y157,0 <= 1
 0 <= Y157,1 <= 1
 0 <= Y157,2 <= 1
 0 <= Y157,3 <= 1
 0 <= Y164,0 <= 1
 0 <= Y164,1 <= 1
 0 <= Y164,2 <= 1
 0 <= Y164,3 <= 1
 30 <= Cmax
Binaries
 Y30,0 Y30,1 Y30,2 Y30,3 Y157,0 Y157,1 Y157,2 Y157,3 Y164,0 Y164,1 Y164,2 Y164,3
End
