\ SCIP STATISTICS
\   Problem name     : Sub
\   Variables        : 17 (16 binary, 0 integer, 0 implicit integer, 1 continuous)
\   Constraints      : 31
Minimize
 Obj: +1 Cmax
Subject to
 c1: +1 Y30,0 +1 Y30,1 +1 Y30,2 +1 Y30,3 = +1
 c2: +1 Y157,0 +1 Y157,1 +1 Y157,2 +1 Y157,3 = +1
 c3: +1 Y159,0 +1 Y159,1 +1 Y159,2 +1 Y159,3 = +1
 c4: +1 Y162,0 +1 Y162,1 +1 Y162,2 +1 Y162,3 = +1
 c5: +1 Y30,1 = +0
 c6: +1 Y30,2 = +0
 c7: +1 Y157,2 = +0
 c8: +1 Y159,0 = +0
 c9: +1 Y159,1 = +0
 c10: +1 Y162,0 = +0
 c11: +1 Y162,1 = +0
 c12: +1 Cmax -60 Y30,0 -45 Y157,0 -30 Y159,0 -30 Y162,0 >= +0
 c13: +1 Cmax -60 Y30,1 -45 Y157,1 -30 Y159,1 -30 Y162,1 >= +0
 c14: +1 Cmax -60 Y30,2 -45 Y157,2 -30 Y159,2 -30 Y162,2 >= +0
 c15: +1 Cmax -60 Y30,3 -45 Y157,3 -30 Y159,3 -30 Y162,3 >= +0
 c16: +12.3 Y30,0 <= +30
 c17: +12.3 Y30,1 <= +25
 c18: +12.3 Y30,2 <= +20
 c19: +12.3 Y30,3 <= +50
 c20: +34.1 Y157,0 <= +30
 c21: +34.1 Y157,1 <= +25
 c22: +34.1 Y157,2 <= +20
 c23: +34.1 Y157,3 <= +50
 c24: +12 Y159,0 <= +30
 c25: +12 Y159,1 <= +25
 c26: +12 Y159,2 <= +20
 c27: +12 Y159,3 <= +50
 c28: +15.5 Y162,0 <= +30
 c29: +15.5 Y162,1 <= +25
 c30: +15.5 Y162,2 <= +20
 c31: +15.5 Y162,3 <= +50
Bounds
 0 <= Y30,0 <= 1
 0 <= Y30,1 <= 1
 0 <= Y30,2 <= 1
 0 <= Y30,3 <= 1
 0 <= Y157,0 <= 1
 0 <= Y157,1 <= 1
 0 <= Y157,2 <= 1
 0 <= Y157,3 <= 1
 0 <= Y159,0 <= 1
 0 <= Y159,1 <= 1
 0 <= Y159,2 <= 1
 0 <= Y159,3 <= 1
 0 <= Y162,0 <= 1
 0 <= Y162,1 <= 1
 0 <= Y162,2 <= 1
 0 <= Y162,3 <= 1
 30 <= Cmax
Binaries
 Y30,0 Y30,1 Y30,2 Y30,3 Y157,0 Y157,1 Y157,2 Y157,3 Y159,0 Y159,1 Y159,2 Y159,3 Y162,0 Y162,1 Y162,2
 Y162,3
End
