\ SCIP STATISTICS
\   Problem name     : Sub
\   Variables        : 17 (16 binary, 0 integer, 0 implicit integer, 1 continuous)
\   Constraints      : 31
Minimize
 Obj: +1 Cmax
Subject to
 c1: +1 Y30,0 +1 Y30,1 +1 Y30,2 +1 Y30,3 = +1
 c2: +1 Y157,0 +1 Y157,1 +1 Y157,2 +1 Y157,3 = +1
 c3: +1 Y160,0 +1 Y160,1 +1 Y160,2 +1 Y160,3 = +1
 c4: +1 Y161,0 +1 Y161,1 +1 Y161,2 +1 Y161,3 = +1
 c5: +1 Y30,1 = +0
 c6: +1 Y30,2 = +0
 c7: +1 Y157,2 = +0
 c8: +1 Y160,0 = +0
 c9: +1 Y160,1 = +0
 c10: +1 Y161,0 = +0
 c11: +1 Y161,1 = +0
 c12: +1 Cmax -60 Y30,0 -45 Y157,0 -30 Y160,0 -30 Y161,0 >= +0
 c13: +1 Cmax -60 Y30,1 -45 Y157,1 -30 Y160,1 -30 Y161,1 >= +0
 c14: +1 Cmax -60 Y30,2 -45 Y157,2 -30 Y160,2 -30 Y161,2 >= +0
 c15: +1 Cmax -60 Y30,3 -45 Y157,3 -30 Y160,3 -30 Y161,3 >= +0
 c16: +12.3 Y30,0 <= +30
 c17: +12.3 Y30,1 <= +25
 c18: +12.3 Y30,2 <= +20
 c19: +12.3 Y30,3 <= +50
 c20: +34.1 Y157,0 <= +30
 c21: +34.1 Y157,1 <= +25
 c22: +34.1 Y157,2 <= +20
 c23: +34.1 Y157,3 <= +50
 c24: +5.5 Y160,0 <= +30
 c25: +5.5 Y160,1 <= +25
 c26: +5.5 Y160,2 <= +20
 c27: +5.5 Y160,3 <= +50
 c28: +22 Y161,0 <= +30
 c29: +22 Y161,1 <= +25
 c30: +22 Y161,2 <= +20
 c31: +22 Y161,3 <= +50
Bounds
 0 <= Y30,0 <= 1
 0 <= Y30,1 <= 1
 0 <= Y30,2 <= 1
 0 <= Y30,3 <= 1
 0 <= Y157,0 <= 1
 0 <= Y157,1 <= 1
 0 <= Y157,2 <= 1
 0 <= Y157,3 <= 1
 0 <= Y160,0 <= 1
 0 <= Y160,1 <= 1
 0 <= Y160,2 <= 1
 0 <= Y160,3 <= 1
 0 <= Y161,0 <= 1
 0 <= Y161,1 <= 1
 0 <= Y161,2 <= 1
 0 <= Y161,3 <= 1
 30 <= Cmax
Binaries
 Y30,0 Y30,1 Y30,2 Y30,3 Y157,0 Y157,1 Y157,2 Y157,3 Y160,0 Y160,1 Y160,2 Y160,3 Y161,0 Y161,1 Y161,2
 Y161,3
End
