\ SCIP STATISTICS
\   Problem name     : Scheduling
\   Variables        : 6007 (6006 binary, 0 integer, 0 implicit integer, 1 continuous)
\   Constraints      : 9881
Minimize
 Obj: +1 Cmax
Subject to
 c1: +1 Y0,0 +1 Y0,1 +1 Y0,2 +1 Y0,3 +1 Y0,4 +1 Y0,5 +1 Y0,6 +1 Y5,0 +1 Y5,1 +1 Y5,2 +1 Y5,3 +1 Y5,4 +1 Y5,5
  +1 Y5,6 +1 Y6,0 +1 Y6,1 +1 Y6,2 +1 Y6,3 +1 Y6,4 +1 Y6,5 +1 Y6,6 +1 Y7,0 +1 Y7,1 +1 Y7,2 +1 Y7,3 +1 Y7,4
  +1 Y7,5 +1 Y7,6 +1 Y8,0 +1 Y8,1 +1 Y8,2 +1 Y8,3 +1 Y8,4 +1 Y8,5 +1 Y8,6 +1 Y15,0 +1 Y15,1 +1 Y15,2 +1 Y15,3
  +1 Y15,4 +1 Y15,5 +1 Y15,6 +1 Y16,0 +1 Y16,1 +1 Y16,2 +1 Y16,3 +1 Y16,4 +1 Y16,5 +1 Y16,6 +1 Y17,0 +1 Y17,1
  +1 Y17,2 +1 Y17,3 +1 Y17,4 +1 Y17,5 +1 Y17,6 +1 Y18,0 +1 Y18,1 +1 Y18,2 +1 Y18,3 +1 Y18,4 +1 Y18,5 +1 Y18,6
  +1 Y19,0 +1 Y19,1 +1 Y19,2 +1 Y19,3 +1 Y19,4 +1 Y19,5 +1 Y19,6 +1 Y20,0 +1 Y20,1 +1 Y20,2 +1 Y20,3 +1 Y20,4
  +1 Y20,5 +1 Y20,6 +1 Y25,0 +1 Y25,1 +1 Y25,2 +1 Y25,3 +1 Y25,4 +1 Y25,5 +1 Y25,6 +1 Y26,0 +1 Y26,1 +1 Y26,2
  +1 Y26,3 +1 Y26,4 +1 Y26,5 +1 Y26,6 +1 Y27,0 +1 Y27,1 +1 Y27,2 +1 Y27,3 +1 Y27,4 +1 Y27,5 +1 Y27,6 +1 Y28,0
  +1 Y28,1 +1 Y28,2 +1 Y28,3 +1 Y28,4 +1 Y28,5 +1 Y28,6 +1 Y30,0 +1 Y30,1 +1 Y30,2 +1 Y30,3 +1 Y30,4 +1 Y30,5
  +1 Y30,6 = +1
 c2: +1 Y31,0 +1 Y31,1 +1 Y31,2 +1 Y31,3 +1 Y31,4 +1 Y31,5 +1 Y31,6 +1 Y37,0 +1 Y37,1 +1 Y37,2 +1 Y37,3
  +1 Y37,4 +1 Y37,5 +1 Y37,6 +1 Y38,0 +1 Y38,1 +1 Y38,2 +1 Y38,3 +1 Y38,4 +1 Y38,5 +1 Y38,6 +1 Y39,0 +1 Y39,1
  +1 Y39,2 +1 Y39,3 +1 Y39,4 +1 Y39,5 +1 Y39,6 +1 Y40,0 +1 Y40,1 +1 Y40,2 +1 Y40,3 +1 Y40,4 +1 Y40,5 +1 Y40,6
  +1 Y41,0 +1 Y41,1 +1 Y41,2 +1 Y41,3 +1 Y41,4 +1 Y41,5 +1 Y41,6 +1 Y52,0 +1 Y52,1 +1 Y52,2 +1 Y52,3 +1 Y52,4
  +1 Y52,5 +1 Y52,6 +1 Y53,0 +1 Y53,1 +1 Y53,2 +1 Y53,3 +1 Y53,4 +1 Y53,5 +1 Y53,6 +1 Y54,0 +1 Y54,1 +1 Y54,2
  +1 Y54,3 +1 Y54,4 +1 Y54,5 +1 Y54,6 +1 Y55,0 +1 Y55,1 +1 Y55,2 +1 Y55,3 +1 Y55,4 +1 Y55,5 +1 Y55,6 +1 Y56,0
  +1 Y56,1 +1 Y56,2 +1 Y56,3 +1 Y56,4 +1 Y56,5 +1 Y56,6 +1 Y57,0 +1 Y57,1 +1 Y57,2 +1 Y57,3 +1 Y57,4 +1 Y57,5
  +1 Y57,6 +1 Y58,0 +1 Y58,1 +1 Y58,2 +1 Y58,3 +1 Y58,4 +1 Y58,5 +1 Y58,6 +1 Y59,0 +1 Y59,1 +1 Y59,2 +1 Y59,3
  +1 Y59,4 +1 Y59,5 +1 Y59,6 +1 Y60,0 +1 Y60,1 +1 Y60,2 +1 Y60,3 +1 Y60,4 +1 Y60,5 +1 Y60,6 +1 Y61,0 +1 Y61,1
  +1 Y61,2 +1 Y61,3 +1 Y61,4 +1 Y61,5 +1 Y61,6 +1 Y72,0 +1 Y72,1 +1 Y72,2 +1 Y72,3 +1 Y72,4 +1 Y72,5 +1 Y72,6
  +1 Y73,0 +1 Y73,1 +1 Y73,2 +1 Y73,3 +1 Y73,4 +1 Y73,5 +1 Y73,6 +1 Y74,0 +1 Y74,1 +1 Y74,2 +1 Y74,3 +1 Y74,4
  +1 Y74,5 +1 Y74,6 +1 Y75,0 +1 Y75,1 +1 Y75,2 +1 Y75,3 +1 Y75,4 +1 Y75,5 +1 Y75,6 +1 Y76,0 +1 Y76,1 +1 Y76,2
  +1 Y76,3 +1 Y76,4 +1 Y76,5 +1 Y76,6 +1 Y77,0 +1 Y77,1 +1 Y77,2 +1 Y77,3 +1 Y77,4 +1 Y77,5 +1 Y77,6 +1 Y78,0
  +1 Y78,1 +1 Y78,2 +1 Y78,3 +1 Y78,4 +1 Y78,5 +1 Y78,6 +1 Y79,0 +1 Y79,1 +1 Y79,2 +1 Y79,3 +1 Y79,4 +1 Y79,5
  +1 Y79,6 +1 Y80,0 +1 Y80,1 +1 Y80,2 +1 Y80,3 +1 Y80,4 +1 Y80,5 +1 Y80,6 +1 Y81,0 +1 Y81,1 +1 Y81,2 +1 Y81,3
  +1 Y81,4 +1 Y81,5 +1 Y81,6 +1 Y87,0 +1 Y87,1 +1 Y87,2 +1 Y87,3 +1 Y87,4 +1 Y87,5 +1 Y87,6 +1 Y88,0 +1 Y88,1
  +1 Y88,2 +1 Y88,3 +1 Y88,4 +1 Y88,5 +1 Y88,6 +1 Y89,0 +1 Y89,1 +1 Y89,2 +1 Y89,3 +1 Y89,4 +1 Y89,5 +1 Y89,6
  +1 Y90,0 +1 Y90,1 +1 Y90,2 +1 Y90,3 +1 Y90,4 +1 Y90,5 +1 Y90,6 +1 Y91,0 +1 Y91,1 +1 Y91,2 +1 Y91,3 +1 Y91,4
  +1 Y91,5 +1 Y91,6 +1 Y93,0 +1 Y93,1 +1 Y93,2 +1 Y93,3 +1 Y93,4 +1 Y93,5 +1 Y93,6 = +1
 c3: +1 Y94,0 +1 Y94,1 +1 Y94,2 +1 Y94,3 +1 Y94,4 +1 Y94,5 +1 Y94,6 +1 Y102,0 +1 Y102,1 +1 Y102,2 +1 Y102,3
  +1 Y102,4 +1 Y102,5 +1 Y102,6 +1 Y103,0 +1 Y103,1 +1 Y103,2 +1 Y103,3 +1 Y103,4 +1 Y103,5 +1 Y103,6
  +1 Y104,0 +1 Y104,1 +1 Y104,2 +1 Y104,3 +1 Y104,4 +1 Y104,5 +1 Y104,6 +1 Y105,0 +1 Y105,1 +1 Y105,2
  +1 Y105,3 +1 Y105,4 +1 Y105,5 +1 Y105,6 +1 Y106,0 +1 Y106,1 +1 Y106,2 +1 Y106,3 +1 Y106,4 +1 Y106,5
  +1 Y106,6 +1 Y107,0 +1 Y107,1 +1 Y107,2 +1 Y107,3 +1 Y107,4 +1 Y107,5 +1 Y107,6 +1 Y108,0 +1 Y108,1
  +1 Y108,2 +1 Y108,3 +1 Y108,4 +1 Y108,5 +1 Y108,6 +1 Y130,0 +1 Y130,1 +1 Y130,2 +1 Y130,3 +1 Y130,4
  +1 Y130,5 +1 Y130,6 +1 Y131,0 +1 Y131,1 +1 Y131,2 +1 Y131,3 +1 Y131,4 +1 Y131,5 +1 Y131,6 +1 Y132,0
  +1 Y132,1 +1 Y132,2 +1 Y132,3 +1 Y132,4 +1 Y132,5 +1 Y132,6 +1 Y133,0 +1 Y133,1 +1 Y133,2 +1 Y133,3
  +1 Y133,4 +1 Y133,5 +1 Y133,6 +1 Y134,0 +1 Y134,1 +1 Y134,2 +1 Y134,3 +1 Y134,4 +1 Y134,5 +1 Y134,6
  +1 Y135,0 +1 Y135,1 +1 Y135,2 +1 Y135,3 +1 Y135,4 +1 Y135,5 +1 Y135,6 +1 Y136,0 +1 Y136,1 +1 Y136,2
  +1 Y136,3 +1 Y136,4 +1 Y136,5 +1 Y136,6 +1 Y137,0 +1 Y137,1 +1 Y137,2 +1 Y137,3 +1 Y137,4 +1 Y137,5
  +1 Y137,6 +1 Y138,0 +1 Y138,1 +1 Y138,2 +1 Y138,3 +1 Y138,4 +1 Y138,5 +1 Y138,6 +1 Y139,0 +1 Y139,1
  +1 Y139,2 +1 Y139,3 +1 Y139,4 +1 Y139,5 +1 Y139,6 +1 Y140,0 +1 Y140,1 +1 Y140,2 +1 Y140,3 +1 Y140,4
  +1 Y140,5 +1 Y140,6 +1 Y141,0 +1 Y141,1 +1 Y141,2 +1 Y141,3 +1 Y141,4 +1 Y141,5 +1 Y141,6 +1 Y142,0
  +1 Y142,1 +1 Y142,2 +1 Y142,3 +1 Y142,4 +1 Y142,5 +1 Y142,6 +1 Y143,0 +1 Y143,1 +1 Y143,2 +1 Y143,3
  +1 Y143,4 +1 Y143,5 +1 Y143,6 +1 Y144,0 +1 Y144,1 +1 Y144,2 +1 Y144,3 +1 Y144,4 +1 Y144,5 +1 Y144,6
  +1 Y145,0 +1 Y145,1 +1 Y145,2 +1 Y145,3 +1 Y145,4 +1 Y145,5 +1 Y145,6 +1 Y146,0 +1 Y146,1 +1 Y146,2
  +1 Y146,3 +1 Y146,4 +1 Y146,5 +1 Y146,6 +1 Y147,0 +1 Y147,1 +1 Y147,2 +1 Y147,3 +1 Y147,4 +1 Y147,5
  +1 Y147,6 +1 Y148,0 +1 Y148,1 +1 Y148,2 +1 Y148,3 +1 Y148,4 +1 Y148,5 +1 Y148,6 +1 Y149,0 +1 Y149,1
  +1 Y149,2 +1 Y149,3 +1 Y149,4 +1 Y149,5 +1 Y149,6 +1 Y150,0 +1 Y150,1 +1 Y150,2 +1 Y150,3 +1 Y150,4
  +1 Y150,5 +1 Y150,6 +1 Y186,0 +1 Y186,1 +1 Y186,2 +1 Y186,3 +1 Y186,4 +1 Y186,5 +1 Y186,6 +1 Y187,0
  +1 Y187,1 +1 Y187,2 +1 Y187,3 +1 Y187,4 +1 Y187,5 +1 Y187,6 +1 Y188,0 +1 Y188,1 +1 Y188,2 +1 Y188,3
  +1 Y188,4 +1 Y188,5 +1 Y188,6 +1 Y189,0 +1 Y189,1 +1 Y189,2 +1 Y189,3 +1 Y189,4 +1 Y189,5 +1 Y189,6
  +1 Y190,0 +1 Y190,1 +1 Y190,2 +1 Y190,3 +1 Y190,4 +1 Y190,5 +1 Y190,6 +1 Y191,0 +1 Y191,1 +1 Y191,2
  +1 Y191,3 +1 Y191,4 +1 Y191,5 +1 Y191,6 +1 Y192,0 +1 Y192,1 +1 Y192,2 +1 Y192,3 +1 Y192,4 +1 Y192,5
  +1 Y192,6 +1 Y193,0 +1 Y193,1 +1 Y193,2 +1 Y193,3 +1 Y193,4 +1 Y193,5 +1 Y193,6 +1 Y194,0 +1 Y194,1
  +1 Y194,2 +1 Y194,3 +1 Y194,4 +1 Y194,5 +1 Y194,6 +1 Y195,0 +1 Y195,1 +1 Y195,2 +1 Y195,3 +1 Y195,4
  +1 Y195,5 +1 Y195,6 +1 Y196,0 +1 Y196,1 +1 Y196,2 +1 Y196,3 +1 Y196,4 +1 Y196,5 +1 Y196,6 +1 Y197,0
  +1 Y197,1 +1 Y197,2 +1 Y197,3 +1 Y197,4 +1 Y197,5 +1 Y197,6 +1 Y198,0 +1 Y198,1 +1 Y198,2 +1 Y198,3
  +1 Y198,4 +1 Y198,5 +1 Y198,6 +1 Y199,0 +1 Y199,1 +1 Y199,2 +1 Y199,3 +1 Y199,4 +1 Y199,5 +1 Y199,6
  +1 Y200,0 +1 Y200,1 +1 Y200,2 +1 Y200,3 +1 Y200,4 +1 Y200,5 +1 Y200,6 +1 Y201,0 +1 Y201,1 +1 Y201,2
  +1 Y201,3 +1 Y201,4 +1 Y201,5 +1 Y201,6 +1 Y202,0 +1 Y202,1 +1 Y202,2 +1 Y202,3 +1 Y202,4 +1 Y202,5
  +1 Y202,6 +1 Y203,0 +1 Y203,1 +1 Y203,2 +1 Y203,3 +1 Y203,4 +1 Y203,5 +1 Y203,6 +1 Y204,0 +1 Y204,1
  +1 Y204,2 +1 Y204,3 +1 Y204,4 +1 Y204,5 +1 Y204,6 +1 Y205,0 +1 Y205,1 +1 Y205,2 +1 Y205,3 +1 Y205,4
  +1 Y205,5 +1 Y205,6 +1 Y206,0 +1 Y206,1 +1 Y206,2 +1 Y206,3 +1 Y206,4 +1 Y206,5 +1 Y206,6 +1 Y207,0
  +1 Y207,1 +1 Y207,2 +1 Y207,3 +1 Y207,4 +1 Y207,5 +1 Y207,6 +1 Y208,0 +1 Y208,1 +1 Y208,2 +1 Y208,3
  +1 Y208,4 +1 Y208,5 +1 Y208,6 +1 Y209,0 +1 Y209,1 +1 Y209,2 +1 Y209,3 +1 Y209,4 +1 Y209,5 +1 Y209,6
  +1 Y210,0 +1 Y210,1 +1 Y210,2 +1 Y210,3 +1 Y210,4 +1 Y210,5 +1 Y210,6 +1 Y211,0 +1 Y211,1 +1 Y211,2
  +1 Y211,3 +1 Y211,4 +1 Y211,5 +1 Y211,6 +1 Y212,0 +1 Y212,1 +1 Y212,2 +1 Y212,3 +1 Y212,4 +1 Y212,5
  +1 Y212,6 +1 Y213,0 +1 Y213,1 +1 Y213,2 +1 Y213,3 +1 Y213,4 +1 Y213,5 +1 Y213,6 +1 Y214,0 +1 Y214,1
  +1 Y214,2 +1 Y214,3 +1 Y214,4 +1 Y214,5 +1 Y214,6 +1 Y215,0 +1 Y215,1 +1 Y215,2 +1 Y215,3 +1 Y215,4
  +1 Y215,5 +1 Y215,6 +1 Y216,0 +1 Y216,1 +1 Y216,2 +1 Y216,3 +1 Y216,4 +1 Y216,5 +1 Y216,6 +1 Y217,0
  +1 Y217,1 +1 Y217,2 +1 Y217,3 +1 Y217,4 +1 Y217,5 +1 Y217,6 +1 Y218,0 +1 Y218,1 +1 Y218,2 +1 Y218,3
  +1 Y218,4 +1 Y218,5 +1 Y218,6 +1 Y219,0 +1 Y219,1 +1 Y219,2 +1 Y219,3 +1 Y219,4 +1 Y219,5 +1 Y219,6
  +1 Y220,0 +1 Y220,1 +1 Y220,2 +1 Y220,3 +1 Y220,4 +1 Y220,5 +1 Y220,6 +1 Y256,0 +1 Y256,1 +1 Y256,2
  +1 Y256,3 +1 Y256,4 +1 Y256,5 +1 Y256,6 +1 Y257,0 +1 Y257,1 +1 Y257,2 +1 Y257,3 +1 Y257,4 +1 Y257,5
  +1 Y257,6 +1 Y258,0 +1 Y258,1 +1 Y258,2 +1 Y258,3 +1 Y258,4 +1 Y258,5 +1 Y258,6 +1 Y259,0 +1 Y259,1
  +1 Y259,2 +1 Y259,3 +1 Y259,4 +1 Y259,5 +1 Y259,6 +1 Y260,0 +1 Y260,1 +1 Y260,2 +1 Y260,3 +1 Y260,4
  +1 Y260,5 +1 Y260,6 +1 Y261,0 +1 Y261,1 +1 Y261,2 +1 Y261,3 +1 Y261,4 +1 Y261,5 +1 Y261,6 +1 Y262,0
  +1 Y262,1 +1 Y262,2 +1 Y262,3 +1 Y262,4 +1 Y262,5 +1 Y262,6 +1 Y263,0 +1 Y263,1 +1 Y263,2 +1 Y263,3
  +1 Y263,4 +1 Y263,5 +1 Y263,6 +1 Y264,0 +1 Y264,1 +1 Y264,2 +1 Y264,3 +1 Y264,4 +1 Y264,5 +1 Y264,6
  +1 Y265,0 +1 Y265,1 +1 Y265,2 +1 Y265,3 +1 Y265,4 +1 Y265,5 +1 Y265,6 +1 Y266,0 +1 Y266,1 +1 Y266,2
  +1 Y266,3 +1 Y266,4 +1 Y266,5 +1 Y266,6 +1 Y267,0 +1 Y267,1 +1 Y267,2 +1 Y267,3 +1 Y267,4 +1 Y267,5
  +1 Y267,6 +1 Y268,0 +1 Y268,1 +1 Y268,2 +1 Y268,3 +1 Y268,4 +1 Y268,5 +1 Y268,6 +1 Y269,0 +1 Y269,1
  +1 Y269,2 +1 Y269,3 +1 Y269,4 +1 Y269,5 +1 Y269,6 +1 Y270,0 +1 Y270,1 +1 Y270,2 +1 Y270,3 +1 Y270,4
  +1 Y270,5 +1 Y270,6 +1 Y271,0 +1 Y271,1 +1 Y271,2 +1 Y271,3 +1 Y271,4 +1 Y271,5 +1 Y271,6 +1 Y272,0
  +1 Y272,1 +1 Y272,2 +1 Y272,3 +1 Y272,4 +1 Y272,5 +1 Y272,6 +1 Y273,0 +1 Y273,1 +1 Y273,2 +1 Y273,3
  +1 Y273,4 +1 Y273,5 +1 Y273,6 +1 Y274,0 +1 Y274,1 +1 Y274,2 +1 Y274,3 +1 Y274,4 +1 Y274,5 +1 Y274,6
  +1 Y275,0 +1 Y275,1 +1 Y275,2 +1 Y275,3 +1 Y275,4 +1 Y275,5 +1 Y275,6 +1 Y276,0 +1 Y276,1 +1 Y276,2
  +1 Y276,3 +1 Y276,4 +1 Y276,5 +1 Y276,6 +1 Y277,0 +1 Y277,1 +1 Y277,2 +1 Y277,3 +1 Y277,4 +1 Y277,5
  +1 Y277,6 +1 Y278,0 +1 Y278,1 +1 Y278,2 +1 Y278,3 +1 Y278,4 +1 Y278,5 +1 Y278,6 +1 Y279,0 +1 Y279,1
  +1 Y279,2 +1 Y279,3 +1 Y279,4 +1 Y279,5 +1 Y279,6 +1 Y280,0 +1 Y280,1 +1 Y280,2 +1 Y280,3 +1 Y280,4
  +1 Y280,5 +1 Y280,6 +1 Y281,0 +1 Y281,1 +1 Y281,2 +1 Y281,3 +1 Y281,4 +1 Y281,5 +1 Y281,6 +1 Y282,0
  +1 Y282,1 +1 Y282,2 +1 Y282,3 +1 Y282,4 +1 Y282,5 +1 Y282,6 +1 Y283,0 +1 Y283,1 +1 Y283,2 +1 Y283,3
  +1 Y283,4 +1 Y283,5 +1 Y283,6 +1 Y284,0 +1 Y284,1 +1 Y284,2 +1 Y284,3 +1 Y284,4 +1 Y284,5 +1 Y284,6
  +1 Y285,0 +1 Y285,1 +1 Y285,2 +1 Y285,3 +1 Y285,4 +1 Y285,5 +1 Y285,6 +1 Y286,0 +1 Y286,1 +1 Y286,2
  +1 Y286,3 +1 Y286,4 +1 Y286,5 +1 Y286,6 +1 Y287,0 +1 Y287,1 +1 Y287,2 +1 Y287,3 +1 Y287,4 +1 Y287,5
  +1 Y287,6 +1 Y288,0 +1 Y288,1 +1 Y288,2 +1 Y288,3 +1 Y288,4 +1 Y288,5 +1 Y288,6 +1 Y289,0 +1 Y289,1
  +1 Y289,2 +1 Y289,3 +1 Y289,4 +1 Y289,5 +1 Y289,6 +1 Y290,0 +1 Y290,1 +1 Y290,2 +1 Y290,3 +1 Y290,4
  +1 Y290,5 +1 Y290,6 +1 Y312,0 +1 Y312,1 +1 Y312,2 +1 Y312,3 +1 Y312,4 +1 Y312,5 +1 Y312,6 +1 Y313,0
  +1 Y313,1 +1 Y313,2 +1 Y313,3 +1 Y313,4 +1 Y313,5 +1 Y313,6 +1 Y314,0 +1 Y314,1 +1 Y314,2 +1 Y314,3
  +1 Y314,4 +1 Y314,5 +1 Y314,6 +1 Y315,0 +1 Y315,1 +1 Y315,2 +1 Y315,3 +1 Y315,4 +1 Y315,5 +1 Y315,6
  +1 Y316,0 +1 Y316,1 +1 Y316,2 +1 Y316,3 +1 Y316,4 +1 Y316,5 +1 Y316,6 +1 Y317,0 +1 Y317,1 +1 Y317,2
  +1 Y317,3 +1 Y317,4 +1 Y317,5 +1 Y317,6 +1 Y318,0 +1 Y318,1 +1 Y318,2 +1 Y318,3 +1 Y318,4 +1 Y318,5
  +1 Y318,6 +1 Y319,0 +1 Y319,1 +1 Y319,2 +1 Y319,3 +1 Y319,4 +1 Y319,5 +1 Y319,6 +1 Y320,0 +1 Y320,1
  +1 Y320,2 +1 Y320,3 +1 Y320,4 +1 Y320,5 +1 Y320,6 +1 Y321,0 +1 Y321,1 +1 Y321,2 +1 Y321,3 +1 Y321,4
  +1 Y321,5 +1 Y321,6 +1 Y322,0 +1 Y322,1 +1 Y322,2 +1 Y322,3 +1 Y322,4 +1 Y322,5 +1 Y322,6 +1 Y323,0
  +1 Y323,1 +1 Y323,2 +1 Y323,3 +1 Y323,4 +1 Y323,5 +1 Y323,6 +1 Y324,0 +1 Y324,1 +1 Y324,2 +1 Y324,3
  +1 Y324,4 +1 Y324,5 +1 Y324,6 +1 Y325,0 +1 Y325,1 +1 Y325,2 +1 Y325,3 +1 Y325,4 +1 Y325,5 +1 Y325,6
  +1 Y326,0 +1 Y326,1 +1 Y326,2 +1 Y326,3 +1 Y326,4 +1 Y326,5 +1 Y326,6 +1 Y327,0 +1 Y327,1 +1 Y327,2
  +1 Y327,3 +1 Y327,4 +1 Y327,5 +1 Y327,6 +1 Y328,0 +1 Y328,1 +1 Y328,2 +1 Y328,3 +1 Y328,4 +1 Y328,5
  +1 Y328,6 +1 Y329,0 +1 Y329,1 +1 Y329,2 +1 Y329,3 +1 Y329,4 +1 Y329,5 +1 Y329,6 +1 Y330,0 +1 Y330,1
  +1 Y330,2 +1 Y330,3 +1 Y330,4 +1 Y330,5 +1 Y330,6 +1 Y331,0 +1 Y331,1 +1 Y331,2 +1 Y331,3 +1 Y331,4
  +1 Y331,5 +1 Y331,6 +1 Y332,0 +1 Y332,1 +1 Y332,2 +1 Y332,3 +1 Y332,4 +1 Y332,5 +1 Y332,6 +1 Y340,0
  +1 Y340,1 +1 Y340,2 +1 Y340,3 +1 Y340,4 +1 Y340,5 +1 Y340,6 +1 Y341,0 +1 Y341,1 +1 Y341,2 +1 Y341,3
  +1 Y341,4 +1 Y341,5 +1 Y341,6 +1 Y342,0 +1 Y342,1 +1 Y342,2 +1 Y342,3 +1 Y342,4 +1 Y342,5 +1 Y342,6
  +1 Y343,0 +1 Y343,1 +1 Y343,2 +1 Y343,3 +1 Y343,4 +1 Y343,5 +1 Y343,6 +1 Y344,0 +1 Y344,1 +1 Y344,2
  +1 Y344,3 +1 Y344,4 +1 Y344,5 +1 Y344,6 +1 Y345,0 +1 Y345,1 +1 Y345,2 +1 Y345,3 +1 Y345,4 +1 Y345,5
  +1 Y345,6 +1 Y346,0 +1 Y346,1 +1 Y346,2 +1 Y346,3 +1 Y346,4 +1 Y346,5 +1 Y346,6 +1 Y348,0 +1 Y348,1
  +1 Y348,2 +1 Y348,3 +1 Y348,4 +1 Y348,5 +1 Y348,6 = +1
 c4: +1 Y349,0 +1 Y349,1 +1 Y349,2 +1 Y349,3 +1 Y349,4 +1 Y349,5 +1 Y349,6 +1 Y356,0 +1 Y356,1 +1 Y356,2
  +1 Y356,3 +1 Y356,4 +1 Y356,5 +1 Y356,6 +1 Y357,0 +1 Y357,1 +1 Y357,2 +1 Y357,3 +1 Y357,4 +1 Y357,5
  +1 Y357,6 +1 Y358,0 +1 Y358,1 +1 Y358,2 +1 Y358,3 +1 Y358,4 +1 Y358,5 +1 Y358,6 +1 Y359,0 +1 Y359,1
  +1 Y359,2 +1 Y359,3 +1 Y359,4 +1 Y359,5 +1 Y359,6 +1 Y360,0 +1 Y360,1 +1 Y360,2 +1 Y360,3 +1 Y360,4
  +1 Y360,5 +1 Y360,6 +1 Y361,0 +1 Y361,1 +1 Y361,2 +1 Y361,3 +1 Y361,4 +1 Y361,5 +1 Y361,6 +1 Y377,0
  +1 Y377,1 +1 Y377,2 +1 Y377,3 +1 Y377,4 +1 Y377,5 +1 Y377,6 +1 Y378,0 +1 Y378,1 +1 Y378,2 +1 Y378,3
  +1 Y378,4 +1 Y378,5 +1 Y378,6 +1 Y379,0 +1 Y379,1 +1 Y379,2 +1 Y379,3 +1 Y379,4 +1 Y379,5 +1 Y379,6
  +1 Y380,0 +1 Y380,1 +1 Y380,2 +1 Y380,3 +1 Y380,4 +1 Y380,5 +1 Y380,6 +1 Y381,0 +1 Y381,1 +1 Y381,2
  +1 Y381,3 +1 Y381,4 +1 Y381,5 +1 Y381,6 +1 Y382,0 +1 Y382,1 +1 Y382,2 +1 Y382,3 +1 Y382,4 +1 Y382,5
  +1 Y382,6 +1 Y383,0 +1 Y383,1 +1 Y383,2 +1 Y383,3 +1 Y383,4 +1 Y383,5 +1 Y383,6 +1 Y384,0 +1 Y384,1
  +1 Y384,2 +1 Y384,3 +1 Y384,4 +1 Y384,5 +1 Y384,6 +1 Y385,0 +1 Y385,1 +1 Y385,2 +1 Y385,3 +1 Y385,4
  +1 Y385,5 +1 Y385,6 +1 Y386,0 +1 Y386,1 +1 Y386,2 +1 Y386,3 +1 Y386,4 +1 Y386,5 +1 Y386,6 +1 Y387,0
  +1 Y387,1 +1 Y387,2 +1 Y387,3 +1 Y387,4 +1 Y387,5 +1 Y387,6 +1 Y388,0 +1 Y388,1 +1 Y388,2 +1 Y388,3
  +1 Y388,4 +1 Y388,5 +1 Y388,6 +1 Y389,0 +1 Y389,1 +1 Y389,2 +1 Y389,3 +1 Y389,4 +1 Y389,5 +1 Y389,6
  +1 Y390,0 +1 Y390,1 +1 Y390,2 +1 Y390,3 +1 Y390,4 +1 Y390,5 +1 Y390,6 +1 Y391,0 +1 Y391,1 +1 Y391,2
  +1 Y391,3 +1 Y391,4 +1 Y391,5 +1 Y391,6 +1 Y412,0 +1 Y412,1 +1 Y412,2 +1 Y412,3 +1 Y412,4 +1 Y412,5
  +1 Y412,6 +1 Y413,0 +1 Y413,1 +1 Y413,2 +1 Y413,3 +1 Y413,4 +1 Y413,5 +1 Y413,6 +1 Y414,0 +1 Y414,1
  +1 Y414,2 +1 Y414,3 +1 Y414,4 +1 Y414,5 +1 Y414,6 +1 Y415,0 +1 Y415,1 +1 Y415,2 +1 Y415,3 +1 Y415,4
  +1 Y415,5 +1 Y415,6 +1 Y416,0 +1 Y416,1 +1 Y416,2 +1 Y416,3 +1 Y416,4 +1 Y416,5 +1 Y416,6 +1 Y417,0
  +1 Y417,1 +1 Y417,2 +1 Y417,3 +1 Y417,4 +1 Y417,5 +1 Y417,6 +1 Y418,0 +1 Y418,1 +1 Y418,2 +1 Y418,3
  +1 Y418,4 +1 Y418,5 +1 Y418,6 +1 Y419,0 +1 Y419,1 +1 Y419,2 +1 Y419,3 +1 Y419,4 +1 Y419,5 +1 Y419,6
  +1 Y420,0 +1 Y420,1 +1 Y420,2 +1 Y420,3 +1 Y420,4 +1 Y420,5 +1 Y420,6 +1 Y421,0 +1 Y421,1 +1 Y421,2
  +1 Y421,3 +1 Y421,4 +1 Y421,5 +1 Y421,6 +1 Y422,0 +1 Y422,1 +1 Y422,2 +1 Y422,3 +1 Y422,4 +1 Y422,5
  +1 Y422,6 +1 Y423,0 +1 Y423,1 +1 Y423,2 +1 Y423,3 +1 Y423,4 +1 Y423,5 +1 Y423,6 +1 Y424,0 +1 Y424,1
  +1 Y424,2 +1 Y424,3 +1 Y424,4 +1 Y424,5 +1 Y424,6 +1 Y425,0 +1 Y425,1 +1 Y425,2 +1 Y425,3 +1 Y425,4
  +1 Y425,5 +1 Y425,6 +1 Y426,0 +1 Y426,1 +1 Y426,2 +1 Y426,3 +1 Y426,4 +1 Y426,5 +1 Y426,6 +1 Y427,0
  +1 Y427,1 +1 Y427,2 +1 Y427,3 +1 Y427,4 +1 Y427,5 +1 Y427,6 +1 Y428,0 +1 Y428,1 +1 Y428,2 +1 Y428,3
  +1 Y428,4 +1 Y428,5 +1 Y428,6 +1 Y429,0 +1 Y429,1 +1 Y429,2 +1 Y429,3 +1 Y429,4 +1 Y429,5 +1 Y429,6
  +1 Y430,0 +1 Y430,1 +1 Y430,2 +1 Y430,3 +1 Y430,4 +1 Y430,5 +1 Y430,6 +1 Y431,0 +1 Y431,1 +1 Y431,2
  +1 Y431,3 +1 Y431,4 +1 Y431,5 +1 Y431,6 +1 Y447,0 +1 Y447,1 +1 Y447,2 +1 Y447,3 +1 Y447,4 +1 Y447,5
  +1 Y447,6 +1 Y448,0 +1 Y448,1 +1 Y448,2 +1 Y448,3 +1 Y448,4 +1 Y448,5 +1 Y448,6 +1 Y449,0 +1 Y449,1
  +1 Y449,2 +1 Y449,3 +1 Y449,4 +1 Y449,5 +1 Y449,6 +1 Y450,0 +1 Y450,1 +1 Y450,2 +1 Y450,3 +1 Y450,4
  +1 Y450,5 +1 Y450,6 +1 Y451,0 +1 Y451,1 +1 Y451,2 +1 Y451,3 +1 Y451,4 +1 Y451,5 +1 Y451,6 +1 Y452,0
  +1 Y452,1 +1 Y452,2 +1 Y452,3 +1 Y452,4 +1 Y452,5 +1 Y452,6 +1 Y453,0 +1 Y453,1 +1 Y453,2 +1 Y453,3
  +1 Y453,4 +1 Y453,5 +1 Y453,6 +1 Y454,0 +1 Y454,1 +1 Y454,2 +1 Y454,3 +1 Y454,4 +1 Y454,5 +1 Y454,6
  +1 Y455,0 +1 Y455,1 +1 Y455,2 +1 Y455,3 +1 Y455,4 +1 Y455,5 +1 Y455,6 +1 Y456,0 +1 Y456,1 +1 Y456,2
  +1 Y456,3 +1 Y456,4 +1 Y456,5 +1 Y456,6 +1 Y457,0 +1 Y457,1 +1 Y457,2 +1 Y457,3 +1 Y457,4 +1 Y457,5
  +1 Y457,6 +1 Y458,0 +1 Y458,1 +1 Y458,2 +1 Y458,3 +1 Y458,4 +1 Y458,5 +1 Y458,6 +1 Y459,0 +1 Y459,1
  +1 Y459,2 +1 Y459,3 +1 Y459,4 +1 Y459,5 +1 Y459,6 +1 Y460,0 +1 Y460,1 +1 Y460,2 +1 Y460,3 +1 Y460,4
  +1 Y460,5 +1 Y460,6 +1 Y461,0 +1 Y461,1 +1 Y461,2 +1 Y461,3 +1 Y461,4 +1 Y461,5 +1 Y461,6 +1 Y468,0
  +1 Y468,1 +1 Y468,2 +1 Y468,3 +1 Y468,4 +1 Y468,5 +1 Y468,6 +1 Y469,0 +1 Y469,1 +1 Y469,2 +1 Y469,3
  +1 Y469,4 +1 Y469,5 +1 Y469,6 +1 Y470,0 +1 Y470,1 +1 Y470,2 +1 Y470,3 +1 Y470,4 +1 Y470,5 +1 Y470,6
  +1 Y471,0 +1 Y471,1 +1 Y471,2 +1 Y471,3 +1 Y471,4 +1 Y471,5 +1 Y471,6 +1 Y472,0 +1 Y472,1 +1 Y472,2
  +1 Y472,3 +1 Y472,4 +1 Y472,5 +1 Y472,6 +1 Y473,0 +1 Y473,1 +1 Y473,2 +1 Y473,3 +1 Y473,4 +1 Y473,5
  +1 Y473,6 +1 Y475,0 +1 Y475,1 +1 Y475,2 +1 Y475,3 +1 Y475,4 +1 Y475,5 +1 Y475,6 = +1
 c5: +1 Y476,0 +1 Y476,1 +1 Y476,2 +1 Y476,3 +1 Y476,4 +1 Y476,5 +1 Y476,6 +1 Y482,0 +1 Y482,1 +1 Y482,2
  +1 Y482,3 +1 Y482,4 +1 Y482,5 +1 Y482,6 +1 Y483,0 +1 Y483,1 +1 Y483,2 +1 Y483,3 +1 Y483,4 +1 Y483,5
  +1 Y483,6 +1 Y484,0 +1 Y484,1 +1 Y484,2 +1 Y484,3 +1 Y484,4 +1 Y484,5 +1 Y484,6 +1 Y485,0 +1 Y485,1
  +1 Y485,2 +1 Y485,3 +1 Y485,4 +1 Y485,5 +1 Y485,6 +1 Y486,0 +1 Y486,1 +1 Y486,2 +1 Y486,3 +1 Y486,4
  +1 Y486,5 +1 Y486,6 +1 Y497,0 +1 Y497,1 +1 Y497,2 +1 Y497,3 +1 Y497,4 +1 Y497,5 +1 Y497,6 +1 Y498,0
  +1 Y498,1 +1 Y498,2 +1 Y498,3 +1 Y498,4 +1 Y498,5 +1 Y498,6 +1 Y499,0 +1 Y499,1 +1 Y499,2 +1 Y499,3
  +1 Y499,4 +1 Y499,5 +1 Y499,6 +1 Y500,0 +1 Y500,1 +1 Y500,2 +1 Y500,3 +1 Y500,4 +1 Y500,5 +1 Y500,6
  +1 Y501,0 +1 Y501,1 +1 Y501,2 +1 Y501,3 +1 Y501,4 +1 Y501,5 +1 Y501,6 +1 Y502,0 +1 Y502,1 +1 Y502,2
  +1 Y502,3 +1 Y502,4 +1 Y502,5 +1 Y502,6 +1 Y503,0 +1 Y503,1 +1 Y503,2 +1 Y503,3 +1 Y503,4 +1 Y503,5
  +1 Y503,6 +1 Y504,0 +1 Y504,1 +1 Y504,2 +1 Y504,3 +1 Y504,4 +1 Y504,5 +1 Y504,6 +1 Y505,0 +1 Y505,1
  +1 Y505,2 +1 Y505,3 +1 Y505,4 +1 Y505,5 +1 Y505,6 +1 Y506,0 +1 Y506,1 +1 Y506,2 +1 Y506,3 +1 Y506,4
  +1 Y506,5 +1 Y506,6 +1 Y517,0 +1 Y517,1 +1 Y517,2 +1 Y517,3 +1 Y517,4 +1 Y517,5 +1 Y517,6 +1 Y518,0
  +1 Y518,1 +1 Y518,2 +1 Y518,3 +1 Y518,4 +1 Y518,5 +1 Y518,6 +1 Y519,0 +1 Y519,1 +1 Y519,2 +1 Y519,3
  +1 Y519,4 +1 Y519,5 +1 Y519,6 +1 Y520,0 +1 Y520,1 +1 Y520,2 +1 Y520,3 +1 Y520,4 +1 Y520,5 +1 Y520,6
  +1 Y521,0 +1 Y521,1 +1 Y521,2 +1 Y521,3 +1 Y521,4 +1 Y521,5 +1 Y521,6 +1 Y522,0 +1 Y522,1 +1 Y522,2
  +1 Y522,3 +1 Y522,4 +1 Y522,5 +1 Y522,6 +1 Y523,0 +1 Y523,1 +1 Y523,2 +1 Y523,3 +1 Y523,4 +1 Y523,5
  +1 Y523,6 +1 Y524,0 +1 Y524,1 +1 Y524,2 +1 Y524,3 +1 Y524,4 +1 Y524,5 +1 Y524,6 +1 Y525,0 +1 Y525,1
  +1 Y525,2 +1 Y525,3 +1 Y525,4 +1 Y525,5 +1 Y525,6 +1 Y526,0 +1 Y526,1 +1 Y526,2 +1 Y526,3 +1 Y526,4
  +1 Y526,5 +1 Y526,6 +1 Y532,0 +1 Y532,1 +1 Y532,2 +1 Y532,3 +1 Y532,4 +1 Y532,5 +1 Y532,6 +1 Y533,0
  +1 Y533,1 +1 Y533,2 +1 Y533,3 +1 Y533,4 +1 Y533,5 +1 Y533,6 +1 Y534,0 +1 Y534,1 +1 Y534,2 +1 Y534,3
  +1 Y534,4 +1 Y534,5 +1 Y534,6 +1 Y535,0 +1 Y535,1 +1 Y535,2 +1 Y535,3 +1 Y535,4 +1 Y535,5 +1 Y535,6
  +1 Y536,0 +1 Y536,1 +1 Y536,2 +1 Y536,3 +1 Y536,4 +1 Y536,5 +1 Y536,6 +1 Y538,0 +1 Y538,1 +1 Y538,2
  +1 Y538,3 +1 Y538,4 +1 Y538,5 +1 Y538,6 = +1
 c6: +1 Y95,0 +1 Y95,1 +1 Y95,2 +1 Y95,3 +1 Y95,4 +1 Y95,5 +1 Y95,6 +1 Y102,0 +1 Y102,1 +1 Y102,2 +1 Y102,3
  +1 Y102,4 +1 Y102,5 +1 Y102,6 +1 Y109,0 +1 Y109,1 +1 Y109,2 +1 Y109,3 +1 Y109,4 +1 Y109,5 +1 Y109,6
  +1 Y110,0 +1 Y110,1 +1 Y110,2 +1 Y110,3 +1 Y110,4 +1 Y110,5 +1 Y110,6 +1 Y111,0 +1 Y111,1 +1 Y111,2
  +1 Y111,3 +1 Y111,4 +1 Y111,5 +1 Y111,6 +1 Y112,0 +1 Y112,1 +1 Y112,2 +1 Y112,3 +1 Y112,4 +1 Y112,5
  +1 Y112,6 +1 Y113,0 +1 Y113,1 +1 Y113,2 +1 Y113,3 +1 Y113,4 +1 Y113,5 +1 Y113,6 +1 Y114,0 +1 Y114,1
  +1 Y114,2 +1 Y114,3 +1 Y114,4 +1 Y114,5 +1 Y114,6 +1 Y130,0 +1 Y130,1 +1 Y130,2 +1 Y130,3 +1 Y130,4
  +1 Y130,5 +1 Y130,6 +1 Y131,0 +1 Y131,1 +1 Y131,2 +1 Y131,3 +1 Y131,4 +1 Y131,5 +1 Y131,6 +1 Y132,0
  +1 Y132,1 +1 Y132,2 +1 Y132,3 +1 Y132,4 +1 Y132,5 +1 Y132,6 +1 Y133,0 +1 Y133,1 +1 Y133,2 +1 Y133,3
  +1 Y133,4 +1 Y133,5 +1 Y133,6 +1 Y134,0 +1 Y134,1 +1 Y134,2 +1 Y134,3 +1 Y134,4 +1 Y134,5 +1 Y134,6
  +1 Y135,0 +1 Y135,1 +1 Y135,2 +1 Y135,3 +1 Y135,4 +1 Y135,5 +1 Y135,6 +1 Y151,0 +1 Y151,1 +1 Y151,2
  +1 Y151,3 +1 Y151,4 +1 Y151,5 +1 Y151,6 +1 Y152,0 +1 Y152,1 +1 Y152,2 +1 Y152,3 +1 Y152,4 +1 Y152,5
  +1 Y152,6 +1 Y153,0 +1 Y153,1 +1 Y153,2 +1 Y153,3 +1 Y153,4 +1 Y153,5 +1 Y153,6 +1 Y154,0 +1 Y154,1
  +1 Y154,2 +1 Y154,3 +1 Y154,4 +1 Y154,5 +1 Y154,6 +1 Y155,0 +1 Y155,1 +1 Y155,2 +1 Y155,3 +1 Y155,4
  +1 Y155,5 +1 Y155,6 +1 Y156,0 +1 Y156,1 +1 Y156,2 +1 Y156,3 +1 Y156,4 +1 Y156,5 +1 Y156,6 +1 Y157,0
  +1 Y157,1 +1 Y157,2 +1 Y157,3 +1 Y157,4 +1 Y157,5 +1 Y157,6 +1 Y158,0 +1 Y158,1 +1 Y158,2 +1 Y158,3
  +1 Y158,4 +1 Y158,5 +1 Y158,6 +1 Y159,0 +1 Y159,1 +1 Y159,2 +1 Y159,3 +1 Y159,4 +1 Y159,5 +1 Y159,6
  +1 Y160,0 +1 Y160,1 +1 Y160,2 +1 Y160,3 +1 Y160,4 +1 Y160,5 +1 Y160,6 +1 Y161,0 +1 Y161,1 +1 Y161,2
  +1 Y161,3 +1 Y161,4 +1 Y161,5 +1 Y161,6 +1 Y162,0 +1 Y162,1 +1 Y162,2 +1 Y162,3 +1 Y162,4 +1 Y162,5
  +1 Y162,6 +1 Y163,0 +1 Y163,1 +1 Y163,2 +1 Y163,3 +1 Y163,4 +1 Y163,5 +1 Y163,6 +1 Y164,0 +1 Y164,1
  +1 Y164,2 +1 Y164,3 +1 Y164,4 +1 Y164,5 +1 Y164,6 +1 Y165,0 +1 Y165,1 +1 Y165,2 +1 Y165,3 +1 Y165,4
  +1 Y165,5 +1 Y165,6 +1 Y186,0 +1 Y186,1 +1 Y186,2 +1 Y186,3 +1 Y186,4 +1 Y186,5 +1 Y186,6 +1 Y187,0
  +1 Y187,1 +1 Y187,2 +1 Y187,3 +1 Y187,4 +1 Y187,5 +1 Y187,6 +1 Y188,0 +1 Y188,1 +1 Y188,2 +1 Y188,3
  +1 Y188,4 +1 Y188,5 +1 Y188,6 +1 Y189,0 +1 Y189,1 +1 Y189,2 +1 Y189,3 +1 Y189,4 +1 Y189,5 +1 Y189,6
  +1 Y190,0 +1 Y190,1 +1 Y190,2 +1 Y190,3 +1 Y190,4 +1 Y190,5 +1 Y190,6 +1 Y191,0 +1 Y191,1 +1 Y191,2
  +1 Y191,3 +1 Y191,4 +1 Y191,5 +1 Y191,6 +1 Y192,0 +1 Y192,1 +1 Y192,2 +1 Y192,3 +1 Y192,4 +1 Y192,5
  +1 Y192,6 +1 Y193,0 +1 Y193,1 +1 Y193,2 +1 Y193,3 +1 Y193,4 +1 Y193,5 +1 Y193,6 +1 Y194,0 +1 Y194,1
  +1 Y194,2 +1 Y194,3 +1 Y194,4 +1 Y194,5 +1 Y194,6 +1 Y195,0 +1 Y195,1 +1 Y195,2 +1 Y195,3 +1 Y195,4
  +1 Y195,5 +1 Y195,6 +1 Y196,0 +1 Y196,1 +1 Y196,2 +1 Y196,3 +1 Y196,4 +1 Y196,5 +1 Y196,6 +1 Y197,0
  +1 Y197,1 +1 Y197,2 +1 Y197,3 +1 Y197,4 +1 Y197,5 +1 Y197,6 +1 Y198,0 +1 Y198,1 +1 Y198,2 +1 Y198,3
  +1 Y198,4 +1 Y198,5 +1 Y198,6 +1 Y199,0 +1 Y199,1 +1 Y199,2 +1 Y199,3 +1 Y199,4 +1 Y199,5 +1 Y199,6
  +1 Y200,0 +1 Y200,1 +1 Y200,2 +1 Y200,3 +1 Y200,4 +1 Y200,5 +1 Y200,6 +1 Y221,0 +1 Y221,1 +1 Y221,2
  +1 Y221,3 +1 Y221,4 +1 Y221,5 +1 Y221,6 +1 Y222,0 +1 Y222,1 +1 Y222,2 +1 Y222,3 +1 Y222,4 +1 Y222,5
  +1 Y222,6 +1 Y223,0 +1 Y223,1 +1 Y223,2 +1 Y223,3 +1 Y223,4 +1 Y223,5 +1 Y223,6 +1 Y224,0 +1 Y224,1
  +1 Y224,2 +1 Y224,3 +1 Y224,4 +1 Y224,5 +1 Y224,6 +1 Y225,0 +1 Y225,1 +1 Y225,2 +1 Y225,3 +1 Y225,4
  +1 Y225,5 +1 Y225,6 +1 Y226,0 +1 Y226,1 +1 Y226,2 +1 Y226,3 +1 Y226,4 +1 Y226,5 +1 Y226,6 +1 Y227,0
  +1 Y227,1 +1 Y227,2 +1 Y227,3 +1 Y227,4 +1 Y227,5 +1 Y227,6 +1 Y228,0 +1 Y228,1 +1 Y228,2 +1 Y228,3
  +1 Y228,4 +1 Y228,5 +1 Y228,6 +1 Y229,0 +1 Y229,1 +1 Y229,2 +1 Y229,3 +1 Y229,4 +1 Y229,5 +1 Y229,6
  +1 Y230,0 +1 Y230,1 +1 Y230,2 +1 Y230,3 +1 Y230,4 +1 Y230,5 +1 Y230,6 +1 Y231,0 +1 Y231,1 +1 Y231,2
  +1 Y231,3 +1 Y231,4 +1 Y231,5 +1 Y231,6 +1 Y232,0 +1 Y232,1 +1 Y232,2 +1 Y232,3 +1 Y232,4 +1 Y232,5
  +1 Y232,6 +1 Y233,0 +1 Y233,1 +1 Y233,2 +1 Y233,3 +1 Y233,4 +1 Y233,5 +1 Y233,6 +1 Y234,0 +1 Y234,1
  +1 Y234,2 +1 Y234,3 +1 Y234,4 +1 Y234,5 +1 Y234,6 +1 Y235,0 +1 Y235,1 +1 Y235,2 +1 Y235,3 +1 Y235,4
  +1 Y235,5 +1 Y235,6 +1 Y236,0 +1 Y236,1 +1 Y236,2 +1 Y236,3 +1 Y236,4 +1 Y236,5 +1 Y236,6 +1 Y237,0
  +1 Y237,1 +1 Y237,2 +1 Y237,3 +1 Y237,4 +1 Y237,5 +1 Y237,6 +1 Y238,0 +1 Y238,1 +1 Y238,2 +1 Y238,3
  +1 Y238,4 +1 Y238,5 +1 Y238,6 +1 Y239,0 +1 Y239,1 +1 Y239,2 +1 Y239,3 +1 Y239,4 +1 Y239,5 +1 Y239,6
  +1 Y240,0 +1 Y240,1 +1 Y240,2 +1 Y240,3 +1 Y240,4 +1 Y240,5 +1 Y240,6 +1 Y256,0 +1 Y256,1 +1 Y256,2
  +1 Y256,3 +1 Y256,4 +1 Y256,5 +1 Y256,6 +1 Y257,0 +1 Y257,1 +1 Y257,2 +1 Y257,3 +1 Y257,4 +1 Y257,5
  +1 Y257,6 +1 Y258,0 +1 Y258,1 +1 Y258,2 +1 Y258,3 +1 Y258,4 +1 Y258,5 +1 Y258,6 +1 Y259,0 +1 Y259,1
  +1 Y259,2 +1 Y259,3 +1 Y259,4 +1 Y259,5 +1 Y259,6 +1 Y260,0 +1 Y260,1 +1 Y260,2 +1 Y260,3 +1 Y260,4
  +1 Y260,5 +1 Y260,6 +1 Y261,0 +1 Y261,1 +1 Y261,2 +1 Y261,3 +1 Y261,4 +1 Y261,5 +1 Y261,6 +1 Y262,0
  +1 Y262,1 +1 Y262,2 +1 Y262,3 +1 Y262,4 +1 Y262,5 +1 Y262,6 +1 Y263,0 +1 Y263,1 +1 Y263,2 +1 Y263,3
  +1 Y263,4 +1 Y263,5 +1 Y263,6 +1 Y264,0 +1 Y264,1 +1 Y264,2 +1 Y264,3 +1 Y264,4 +1 Y264,5 +1 Y264,6
  +1 Y265,0 +1 Y265,1 +1 Y265,2 +1 Y265,3 +1 Y265,4 +1 Y265,5 +1 Y265,6 +1 Y266,0 +1 Y266,1 +1 Y266,2
  +1 Y266,3 +1 Y266,4 +1 Y266,5 +1 Y266,6 +1 Y267,0 +1 Y267,1 +1 Y267,2 +1 Y267,3 +1 Y267,4 +1 Y267,5
  +1 Y267,6 +1 Y268,0 +1 Y268,1 +1 Y268,2 +1 Y268,3 +1 Y268,4 +1 Y268,5 +1 Y268,6 +1 Y269,0 +1 Y269,1
  +1 Y269,2 +1 Y269,3 +1 Y269,4 +1 Y269,5 +1 Y269,6 +1 Y270,0 +1 Y270,1 +1 Y270,2 +1 Y270,3 +1 Y270,4
  +1 Y270,5 +1 Y270,6 +1 Y271,0 +1 Y271,1 +1 Y271,2 +1 Y271,3 +1 Y271,4 +1 Y271,5 +1 Y271,6 +1 Y272,0
  +1 Y272,1 +1 Y272,2 +1 Y272,3 +1 Y272,4 +1 Y272,5 +1 Y272,6 +1 Y273,0 +1 Y273,1 +1 Y273,2 +1 Y273,3
  +1 Y273,4 +1 Y273,5 +1 Y273,6 +1 Y274,0 +1 Y274,1 +1 Y274,2 +1 Y274,3 +1 Y274,4 +1 Y274,5 +1 Y274,6
  +1 Y275,0 +1 Y275,1 +1 Y275,2 +1 Y275,3 +1 Y275,4 +1 Y275,5 +1 Y275,6 +1 Y291,0 +1 Y291,1 +1 Y291,2
  +1 Y291,3 +1 Y291,4 +1 Y291,5 +1 Y291,6 +1 Y292,0 +1 Y292,1 +1 Y292,2 +1 Y292,3 +1 Y292,4 +1 Y292,5
  +1 Y292,6 +1 Y293,0 +1 Y293,1 +1 Y293,2 +1 Y293,3 +1 Y293,4 +1 Y293,5 +1 Y293,6 +1 Y294,0 +1 Y294,1
  +1 Y294,2 +1 Y294,3 +1 Y294,4 +1 Y294,5 +1 Y294,6 +1 Y295,0 +1 Y295,1 +1 Y295,2 +1 Y295,3 +1 Y295,4
  +1 Y295,5 +1 Y295,6 +1 Y296,0 +1 Y296,1 +1 Y296,2 +1 Y296,3 +1 Y296,4 +1 Y296,5 +1 Y296,6 +1 Y297,0
  +1 Y297,1 +1 Y297,2 +1 Y297,3 +1 Y297,4 +1 Y297,5 +1 Y297,6 +1 Y298,0 +1 Y298,1 +1 Y298,2 +1 Y298,3
  +1 Y298,4 +1 Y298,5 +1 Y298,6 +1 Y299,0 +1 Y299,1 +1 Y299,2 +1 Y299,3 +1 Y299,4 +1 Y299,5 +1 Y299,6
  +1 Y300,0 +1 Y300,1 +1 Y300,2 +1 Y300,3 +1 Y300,4 +1 Y300,5 +1 Y300,6 +1 Y301,0 +1 Y301,1 +1 Y301,2
  +1 Y301,3 +1 Y301,4 +1 Y301,5 +1 Y301,6 +1 Y302,0 +1 Y302,1 +1 Y302,2 +1 Y302,3 +1 Y302,4 +1 Y302,5
  +1 Y302,6 +1 Y303,0 +1 Y303,1 +1 Y303,2 +1 Y303,3 +1 Y303,4 +1 Y303,5 +1 Y303,6 +1 Y304,0 +1 Y304,1
  +1 Y304,2 +1 Y304,3 +1 Y304,4 +1 Y304,5 +1 Y304,6 +1 Y305,0 +1 Y305,1 +1 Y305,2 +1 Y305,3 +1 Y305,4
  +1 Y305,5 +1 Y305,6 +1 Y312,0 +1 Y312,1 +1 Y312,2 +1 Y312,3 +1 Y312,4 +1 Y312,5 +1 Y312,6 +1 Y313,0
  +1 Y313,1 +1 Y313,2 +1 Y313,3 +1 Y313,4 +1 Y313,5 +1 Y313,6 +1 Y314,0 +1 Y314,1 +1 Y314,2 +1 Y314,3
  +1 Y314,4 +1 Y314,5 +1 Y314,6 +1 Y315,0 +1 Y315,1 +1 Y315,2 +1 Y315,3 +1 Y315,4 +1 Y315,5 +1 Y315,6
  +1 Y316,0 +1 Y316,1 +1 Y316,2 +1 Y316,3 +1 Y316,4 +1 Y316,5 +1 Y316,6 +1 Y317,0 +1 Y317,1 +1 Y317,2
  +1 Y317,3 +1 Y317,4 +1 Y317,5 +1 Y317,6 +1 Y318,0 +1 Y318,1 +1 Y318,2 +1 Y318,3 +1 Y318,4 +1 Y318,5
  +1 Y318,6 +1 Y319,0 +1 Y319,1 +1 Y319,2 +1 Y319,3 +1 Y319,4 +1 Y319,5 +1 Y319,6 +1 Y320,0 +1 Y320,1
  +1 Y320,2 +1 Y320,3 +1 Y320,4 +1 Y320,5 +1 Y320,6 +1 Y321,0 +1 Y321,1 +1 Y321,2 +1 Y321,3 +1 Y321,4
  +1 Y321,5 +1 Y321,6 +1 Y322,0 +1 Y322,1 +1 Y322,2 +1 Y322,3 +1 Y322,4 +1 Y322,5 +1 Y322,6 +1 Y323,0
  +1 Y323,1 +1 Y323,2 +1 Y323,3 +1 Y323,4 +1 Y323,5 +1 Y323,6 +1 Y324,0 +1 Y324,1 +1 Y324,2 +1 Y324,3
  +1 Y324,4 +1 Y324,5 +1 Y324,6 +1 Y325,0 +1 Y325,1 +1 Y325,2 +1 Y325,3 +1 Y325,4 +1 Y325,5 +1 Y325,6
  +1 Y326,0 +1 Y326,1 +1 Y326,2 +1 Y326,3 +1 Y326,4 +1 Y326,5 +1 Y326,6 +1 Y333,0 +1 Y333,1 +1 Y333,2
  +1 Y333,3 +1 Y333,4 +1 Y333,5 +1 Y333,6 +1 Y334,0 +1 Y334,1 +1 Y334,2 +1 Y334,3 +1 Y334,4 +1 Y334,5
  +1 Y334,6 +1 Y335,0 +1 Y335,1 +1 Y335,2 +1 Y335,3 +1 Y335,4 +1 Y335,5 +1 Y335,6 +1 Y336,0 +1 Y336,1
  +1 Y336,2 +1 Y336,3 +1 Y336,4 +1 Y336,5 +1 Y336,6 +1 Y337,0 +1 Y337,1 +1 Y337,2 +1 Y337,3 +1 Y337,4
  +1 Y337,5 +1 Y337,6 +1 Y338,0 +1 Y338,1 +1 Y338,2 +1 Y338,3 +1 Y338,4 +1 Y338,5 +1 Y338,6 +1 Y340,0
  +1 Y340,1 +1 Y340,2 +1 Y340,3 +1 Y340,4 +1 Y340,5 +1 Y340,6 +1 Y341,0 +1 Y341,1 +1 Y341,2 +1 Y341,3
  +1 Y341,4 +1 Y341,5 +1 Y341,6 +1 Y342,0 +1 Y342,1 +1 Y342,2 +1 Y342,3 +1 Y342,4 +1 Y342,5 +1 Y342,6
  +1 Y343,0 +1 Y343,1 +1 Y343,2 +1 Y343,3 +1 Y343,4 +1 Y343,5 +1 Y343,6 +1 Y344,0 +1 Y344,1 +1 Y344,2
  +1 Y344,3 +1 Y344,4 +1 Y344,5 +1 Y344,6 +1 Y345,0 +1 Y345,1 +1 Y345,2 +1 Y345,3 +1 Y345,4 +1 Y345,5
  +1 Y345,6 +1 Y347,0 +1 Y347,1 +1 Y347,2 +1 Y347,3 +1 Y347,4 +1 Y347,5 +1 Y347,6 +1 Y348,0 +1 Y348,1
  +1 Y348,2 +1 Y348,3 +1 Y348,4 +1 Y348,5 +1 Y348,6 = +1
 c7: +1 Y350,0 +1 Y350,1 +1 Y350,2 +1 Y350,3 +1 Y350,4 +1 Y350,5 +1 Y350,6 +1 Y356,0 +1 Y356,1 +1 Y356,2
  +1 Y356,3 +1 Y356,4 +1 Y356,5 +1 Y356,6 +1 Y362,0 +1 Y362,1 +1 Y362,2 +1 Y362,3 +1 Y362,4 +1 Y362,5
  +1 Y362,6 +1 Y363,0 +1 Y363,1 +1 Y363,2 +1 Y363,3 +1 Y363,4 +1 Y363,5 +1 Y363,6 +1 Y364,0 +1 Y364,1
  +1 Y364,2 +1 Y364,3 +1 Y364,4 +1 Y364,5 +1 Y364,6 +1 Y365,0 +1 Y365,1 +1 Y365,2 +1 Y365,3 +1 Y365,4
  +1 Y365,5 +1 Y365,6 +1 Y366,0 +1 Y366,1 +1 Y366,2 +1 Y366,3 +1 Y366,4 +1 Y366,5 +1 Y366,6 +1 Y377,0
  +1 Y377,1 +1 Y377,2 +1 Y377,3 +1 Y377,4 +1 Y377,5 +1 Y377,6 +1 Y378,0 +1 Y378,1 +1 Y378,2 +1 Y378,3
  +1 Y378,4 +1 Y378,5 +1 Y378,6 +1 Y379,0 +1 Y379,1 +1 Y379,2 +1 Y379,3 +1 Y379,4 +1 Y379,5 +1 Y379,6
  +1 Y380,0 +1 Y380,1 +1 Y380,2 +1 Y380,3 +1 Y380,4 +1 Y380,5 +1 Y380,6 +1 Y381,0 +1 Y381,1 +1 Y381,2
  +1 Y381,3 +1 Y381,4 +1 Y381,5 +1 Y381,6 +1 Y392,0 +1 Y392,1 +1 Y392,2 +1 Y392,3 +1 Y392,4 +1 Y392,5
  +1 Y392,6 +1 Y393,0 +1 Y393,1 +1 Y393,2 +1 Y393,3 +1 Y393,4 +1 Y393,5 +1 Y393,6 +1 Y394,0 +1 Y394,1
  +1 Y394,2 +1 Y394,3 +1 Y394,4 +1 Y394,5 +1 Y394,6 +1 Y395,0 +1 Y395,1 +1 Y395,2 +1 Y395,3 +1 Y395,4
  +1 Y395,5 +1 Y395,6 +1 Y396,0 +1 Y396,1 +1 Y396,2 +1 Y396,3 +1 Y396,4 +1 Y396,5 +1 Y396,6 +1 Y397,0
  +1 Y397,1 +1 Y397,2 +1 Y397,3 +1 Y397,4 +1 Y397,5 +1 Y397,6 +1 Y398,0 +1 Y398,1 +1 Y398,2 +1 Y398,3
  +1 Y398,4 +1 Y398,5 +1 Y398,6 +1 Y399,0 +1 Y399,1 +1 Y399,2 +1 Y399,3 +1 Y399,4 +1 Y399,5 +1 Y399,6
  +1 Y400,0 +1 Y400,1 +1 Y400,2 +1 Y400,3 +1 Y400,4 +1 Y400,5 +1 Y400,6 +1 Y401,0 +1 Y401,1 +1 Y401,2
  +1 Y401,3 +1 Y401,4 +1 Y401,5 +1 Y401,6 +1 Y412,0 +1 Y412,1 +1 Y412,2 +1 Y412,3 +1 Y412,4 +1 Y412,5
  +1 Y412,6 +1 Y413,0 +1 Y413,1 +1 Y413,2 +1 Y413,3 +1 Y413,4 +1 Y413,5 +1 Y413,6 +1 Y414,0 +1 Y414,1
  +1 Y414,2 +1 Y414,3 +1 Y414,4 +1 Y414,5 +1 Y414,6 +1 Y415,0 +1 Y415,1 +1 Y415,2 +1 Y415,3 +1 Y415,4
  +1 Y415,5 +1 Y415,6 +1 Y416,0 +1 Y416,1 +1 Y416,2 +1 Y416,3 +1 Y416,4 +1 Y416,5 +1 Y416,6 +1 Y417,0
  +1 Y417,1 +1 Y417,2 +1 Y417,3 +1 Y417,4 +1 Y417,5 +1 Y417,6 +1 Y418,0 +1 Y418,1 +1 Y418,2 +1 Y418,3
  +1 Y418,4 +1 Y418,5 +1 Y418,6 +1 Y419,0 +1 Y419,1 +1 Y419,2 +1 Y419,3 +1 Y419,4 +1 Y419,5 +1 Y419,6
  +1 Y420,0 +1 Y420,1 +1 Y420,2 +1 Y420,3 +1 Y420,4 +1 Y420,5 +1 Y420,6 +1 Y421,0 +1 Y421,1 +1 Y421,2
  +1 Y421,3 +1 Y421,4 +1 Y421,5 +1 Y421,6 +1 Y432,0 +1 Y432,1 +1 Y432,2 +1 Y432,3 +1 Y432,4 +1 Y432,5
  +1 Y432,6 +1 Y433,0 +1 Y433,1 +1 Y433,2 +1 Y433,3 +1 Y433,4 +1 Y433,5 +1 Y433,6 +1 Y434,0 +1 Y434,1
  +1 Y434,2 +1 Y434,3 +1 Y434,4 +1 Y434,5 +1 Y434,6 +1 Y435,0 +1 Y435,1 +1 Y435,2 +1 Y435,3 +1 Y435,4
  +1 Y435,5 +1 Y435,6 +1 Y436,0 +1 Y436,1 +1 Y436,2 +1 Y436,3 +1 Y436,4 +1 Y436,5 +1 Y436,6 +1 Y437,0
  +1 Y437,1 +1 Y437,2 +1 Y437,3 +1 Y437,4 +1 Y437,5 +1 Y437,6 +1 Y438,0 +1 Y438,1 +1 Y438,2 +1 Y438,3
  +1 Y438,4 +1 Y438,5 +1 Y438,6 +1 Y439,0 +1 Y439,1 +1 Y439,2 +1 Y439,3 +1 Y439,4 +1 Y439,5 +1 Y439,6
  +1 Y440,0 +1 Y440,1 +1 Y440,2 +1 Y440,3 +1 Y440,4 +1 Y440,5 +1 Y440,6 +1 Y441,0 +1 Y441,1 +1 Y441,2
  +1 Y441,3 +1 Y441,4 +1 Y441,5 +1 Y441,6 +1 Y447,0 +1 Y447,1 +1 Y447,2 +1 Y447,3 +1 Y447,4 +1 Y447,5
  +1 Y447,6 +1 Y448,0 +1 Y448,1 +1 Y448,2 +1 Y448,3 +1 Y448,4 +1 Y448,5 +1 Y448,6 +1 Y449,0 +1 Y449,1
  +1 Y449,2 +1 Y449,3 +1 Y449,4 +1 Y449,5 +1 Y449,6 +1 Y450,0 +1 Y450,1 +1 Y450,2 +1 Y450,3 +1 Y450,4
  +1 Y450,5 +1 Y450,6 +1 Y451,0 +1 Y451,1 +1 Y451,2 +1 Y451,3 +1 Y451,4 +1 Y451,5 +1 Y451,6 +1 Y452,0
  +1 Y452,1 +1 Y452,2 +1 Y452,3 +1 Y452,4 +1 Y452,5 +1 Y452,6 +1 Y453,0 +1 Y453,1 +1 Y453,2 +1 Y453,3
  +1 Y453,4 +1 Y453,5 +1 Y453,6 +1 Y454,0 +1 Y454,1 +1 Y454,2 +1 Y454,3 +1 Y454,4 +1 Y454,5 +1 Y454,6
  +1 Y455,0 +1 Y455,1 +1 Y455,2 +1 Y455,3 +1 Y455,4 +1 Y455,5 +1 Y455,6 +1 Y456,0 +1 Y456,1 +1 Y456,2
  +1 Y456,3 +1 Y456,4 +1 Y456,5 +1 Y456,6 +1 Y462,0 +1 Y462,1 +1 Y462,2 +1 Y462,3 +1 Y462,4 +1 Y462,5
  +1 Y462,6 +1 Y463,0 +1 Y463,1 +1 Y463,2 +1 Y463,3 +1 Y463,4 +1 Y463,5 +1 Y463,6 +1 Y464,0 +1 Y464,1
  +1 Y464,2 +1 Y464,3 +1 Y464,4 +1 Y464,5 +1 Y464,6 +1 Y465,0 +1 Y465,1 +1 Y465,2 +1 Y465,3 +1 Y465,4
  +1 Y465,5 +1 Y465,6 +1 Y466,0 +1 Y466,1 +1 Y466,2 +1 Y466,3 +1 Y466,4 +1 Y466,5 +1 Y466,6 +1 Y468,0
  +1 Y468,1 +1 Y468,2 +1 Y468,3 +1 Y468,4 +1 Y468,5 +1 Y468,6 +1 Y469,0 +1 Y469,1 +1 Y469,2 +1 Y469,3
  +1 Y469,4 +1 Y469,5 +1 Y469,6 +1 Y470,0 +1 Y470,1 +1 Y470,2 +1 Y470,3 +1 Y470,4 +1 Y470,5 +1 Y470,6
  +1 Y471,0 +1 Y471,1 +1 Y471,2 +1 Y471,3 +1 Y471,4 +1 Y471,5 +1 Y471,6 +1 Y472,0 +1 Y472,1 +1 Y472,2
  +1 Y472,3 +1 Y472,4 +1 Y472,5 +1 Y472,6 +1 Y474,0 +1 Y474,1 +1 Y474,2 +1 Y474,3 +1 Y474,4 +1 Y474,5
  +1 Y474,6 +1 Y475,0 +1 Y475,1 +1 Y475,2 +1 Y475,3 +1 Y475,4 +1 Y475,5 +1 Y475,6 = +1
 c8: +1 Y351,0 +1 Y351,1 +1 Y351,2 +1 Y351,3 +1 Y351,4 +1 Y351,5 +1 Y351,6 +1 Y357,0 +1 Y357,1 +1 Y357,2
  +1 Y357,3 +1 Y357,4 +1 Y357,5 +1 Y357,6 +1 Y362,0 +1 Y362,1 +1 Y362,2 +1 Y362,3 +1 Y362,4 +1 Y362,5
  +1 Y362,6 +1 Y367,0 +1 Y367,1 +1 Y367,2 +1 Y367,3 +1 Y367,4 +1 Y367,5 +1 Y367,6 +1 Y368,0 +1 Y368,1
  +1 Y368,2 +1 Y368,3 +1 Y368,4 +1 Y368,5 +1 Y368,6 +1 Y369,0 +1 Y369,1 +1 Y369,2 +1 Y369,3 +1 Y369,4
  +1 Y369,5 +1 Y369,6 +1 Y370,0 +1 Y370,1 +1 Y370,2 +1 Y370,3 +1 Y370,4 +1 Y370,5 +1 Y370,6 +1 Y377,0
  +1 Y377,1 +1 Y377,2 +1 Y377,3 +1 Y377,4 +1 Y377,5 +1 Y377,6 +1 Y382,0 +1 Y382,1 +1 Y382,2 +1 Y382,3
  +1 Y382,4 +1 Y382,5 +1 Y382,6 +1 Y383,0 +1 Y383,1 +1 Y383,2 +1 Y383,3 +1 Y383,4 +1 Y383,5 +1 Y383,6
  +1 Y384,0 +1 Y384,1 +1 Y384,2 +1 Y384,3 +1 Y384,4 +1 Y384,5 +1 Y384,6 +1 Y385,0 +1 Y385,1 +1 Y385,2
  +1 Y385,3 +1 Y385,4 +1 Y385,5 +1 Y385,6 +1 Y392,0 +1 Y392,1 +1 Y392,2 +1 Y392,3 +1 Y392,4 +1 Y392,5
  +1 Y392,6 +1 Y393,0 +1 Y393,1 +1 Y393,2 +1 Y393,3 +1 Y393,4 +1 Y393,5 +1 Y393,6 +1 Y394,0 +1 Y394,1
  +1 Y394,2 +1 Y394,3 +1 Y394,4 +1 Y394,5 +1 Y394,6 +1 Y395,0 +1 Y395,1 +1 Y395,2 +1 Y395,3 +1 Y395,4
  +1 Y395,5 +1 Y395,6 +1 Y402,0 +1 Y402,1 +1 Y402,2 +1 Y402,3 +1 Y402,4 +1 Y402,5 +1 Y402,6 +1 Y403,0
  +1 Y403,1 +1 Y403,2 +1 Y403,3 +1 Y403,4 +1 Y403,5 +1 Y403,6 +1 Y404,0 +1 Y404,1 +1 Y404,2 +1 Y404,3
  +1 Y404,4 +1 Y404,5 +1 Y404,6 +1 Y405,0 +1 Y405,1 +1 Y405,2 +1 Y405,3 +1 Y405,4 +1 Y405,5 +1 Y405,6
  +1 Y406,0 +1 Y406,1 +1 Y406,2 +1 Y406,3 +1 Y406,4 +1 Y406,5 +1 Y406,6 +1 Y407,0 +1 Y407,1 +1 Y407,2
  +1 Y407,3 +1 Y407,4 +1 Y407,5 +1 Y407,6 +1 Y412,0 +1 Y412,1 +1 Y412,2 +1 Y412,3 +1 Y412,4 +1 Y412,5
  +1 Y412,6 +1 Y413,0 +1 Y413,1 +1 Y413,2 +1 Y413,3 +1 Y413,4 +1 Y413,5 +1 Y413,6 +1 Y414,0 +1 Y414,1
  +1 Y414,2 +1 Y414,3 +1 Y414,4 +1 Y414,5 +1 Y414,6 +1 Y415,0 +1 Y415,1 +1 Y415,2 +1 Y415,3 +1 Y415,4
  +1 Y415,5 +1 Y415,6 +1 Y422,0 +1 Y422,1 +1 Y422,2 +1 Y422,3 +1 Y422,4 +1 Y422,5 +1 Y422,6 +1 Y423,0
  +1 Y423,1 +1 Y423,2 +1 Y423,3 +1 Y423,4 +1 Y423,5 +1 Y423,6 +1 Y424,0 +1 Y424,1 +1 Y424,2 +1 Y424,3
  +1 Y424,4 +1 Y424,5 +1 Y424,6 +1 Y425,0 +1 Y425,1 +1 Y425,2 +1 Y425,3 +1 Y425,4 +1 Y425,5 +1 Y425,6
  +1 Y426,0 +1 Y426,1 +1 Y426,2 +1 Y426,3 +1 Y426,4 +1 Y426,5 +1 Y426,6 +1 Y427,0 +1 Y427,1 +1 Y427,2
  +1 Y427,3 +1 Y427,4 +1 Y427,5 +1 Y427,6 +1 Y432,0 +1 Y432,1 +1 Y432,2 +1 Y432,3 +1 Y432,4 +1 Y432,5
  +1 Y432,6 +1 Y433,0 +1 Y433,1 +1 Y433,2 +1 Y433,3 +1 Y433,4 +1 Y433,5 +1 Y433,6 +1 Y434,0 +1 Y434,1
  +1 Y434,2 +1 Y434,3 +1 Y434,4 +1 Y434,5 +1 Y434,6 +1 Y435,0 +1 Y435,1 +1 Y435,2 +1 Y435,3 +1 Y435,4
  +1 Y435,5 +1 Y435,6 +1 Y436,0 +1 Y436,1 +1 Y436,2 +1 Y436,3 +1 Y436,4 +1 Y436,5 +1 Y436,6 +1 Y437,0
  +1 Y437,1 +1 Y437,2 +1 Y437,3 +1 Y437,4 +1 Y437,5 +1 Y437,6 +1 Y442,0 +1 Y442,1 +1 Y442,2 +1 Y442,3
  +1 Y442,4 +1 Y442,5 +1 Y442,6 +1 Y443,0 +1 Y443,1 +1 Y443,2 +1 Y443,3 +1 Y443,4 +1 Y443,5 +1 Y443,6
  +1 Y444,0 +1 Y444,1 +1 Y444,2 +1 Y444,3 +1 Y444,4 +1 Y444,5 +1 Y444,6 +1 Y445,0 +1 Y445,1 +1 Y445,2
  +1 Y445,3 +1 Y445,4 +1 Y445,5 +1 Y445,6 +1 Y447,0 +1 Y447,1 +1 Y447,2 +1 Y447,3 +1 Y447,4 +1 Y447,5
  +1 Y447,6 +1 Y448,0 +1 Y448,1 +1 Y448,2 +1 Y448,3 +1 Y448,4 +1 Y448,5 +1 Y448,6 +1 Y449,0 +1 Y449,1
  +1 Y449,2 +1 Y449,3 +1 Y449,4 +1 Y449,5 +1 Y449,6 +1 Y450,0 +1 Y450,1 +1 Y450,2 +1 Y450,3 +1 Y450,4
  +1 Y450,5 +1 Y450,6 +1 Y451,0 +1 Y451,1 +1 Y451,2 +1 Y451,3 +1 Y451,4 +1 Y451,5 +1 Y451,6 +1 Y452,0
  +1 Y452,1 +1 Y452,2 +1 Y452,3 +1 Y452,4 +1 Y452,5 +1 Y452,6 +1 Y457,0 +1 Y457,1 +1 Y457,2 +1 Y457,3
  +1 Y457,4 +1 Y457,5 +1 Y457,6 +1 Y458,0 +1 Y458,1 +1 Y458,2 +1 Y458,3 +1 Y458,4 +1 Y458,5 +1 Y458,6
  +1 Y459,0 +1 Y459,1 +1 Y459,2 +1 Y459,3 +1 Y459,4 +1 Y459,5 +1 Y459,6 +1 Y460,0 +1 Y460,1 +1 Y460,2
  +1 Y460,3 +1 Y460,4 +1 Y460,5 +1 Y460,6 +1 Y462,0 +1 Y462,1 +1 Y462,2 +1 Y462,3 +1 Y462,4 +1 Y462,5
  +1 Y462,6 +1 Y463,0 +1 Y463,1 +1 Y463,2 +1 Y463,3 +1 Y463,4 +1 Y463,5 +1 Y463,6 +1 Y464,0 +1 Y464,1
  +1 Y464,2 +1 Y464,3 +1 Y464,4 +1 Y464,5 +1 Y464,6 +1 Y465,0 +1 Y465,1 +1 Y465,2 +1 Y465,3 +1 Y465,4
  +1 Y465,5 +1 Y465,6 +1 Y467,0 +1 Y467,1 +1 Y467,2 +1 Y467,3 +1 Y467,4 +1 Y467,5 +1 Y467,6 +1 Y468,0
  +1 Y468,1 +1 Y468,2 +1 Y468,3 +1 Y468,4 +1 Y468,5 +1 Y468,6 +1 Y469,0 +1 Y469,1 +1 Y469,2 +1 Y469,3
  +1 Y469,4 +1 Y469,5 +1 Y469,6 +1 Y470,0 +1 Y470,1 +1 Y470,2 +1 Y470,3 +1 Y470,4 +1 Y470,5 +1 Y470,6
  +1 Y471,0 +1 Y471,1 +1 Y471,2 +1 Y471,3 +1 Y471,4 +1 Y471,5 +1 Y471,6 +1 Y473,0 +1 Y473,1 +1 Y473,2
  +1 Y473,3 +1 Y473,4 +1 Y473,5 +1 Y473,6 +1 Y474,0 +1 Y474,1 +1 Y474,2 +1 Y474,3 +1 Y474,4 +1 Y474,5
  +1 Y474,6 +1 Y475,0 +1 Y475,1 +1 Y475,2 +1 Y475,3 +1 Y475,4 +1 Y475,5 +1 Y475,6 = +1
 c9: +1 Y352,0 +1 Y352,1 +1 Y352,2 +1 Y352,3 +1 Y352,4 +1 Y352,5 +1 Y352,6 +1 Y358,0 +1 Y358,1 +1 Y358,2
  +1 Y358,3 +1 Y358,4 +1 Y358,5 +1 Y358,6 +1 Y363,0 +1 Y363,1 +1 Y363,2 +1 Y363,3 +1 Y363,4 +1 Y363,5
  +1 Y363,6 +1 Y367,0 +1 Y367,1 +1 Y367,2 +1 Y367,3 +1 Y367,4 +1 Y367,5 +1 Y367,6 +1 Y371,0 +1 Y371,1
  +1 Y371,2 +1 Y371,3 +1 Y371,4 +1 Y371,5 +1 Y371,6 +1 Y372,0 +1 Y372,1 +1 Y372,2 +1 Y372,3 +1 Y372,4
  +1 Y372,5 +1 Y372,6 +1 Y373,0 +1 Y373,1 +1 Y373,2 +1 Y373,3 +1 Y373,4 +1 Y373,5 +1 Y373,6 +1 Y378,0
  +1 Y378,1 +1 Y378,2 +1 Y378,3 +1 Y378,4 +1 Y378,5 +1 Y378,6 +1 Y382,0 +1 Y382,1 +1 Y382,2 +1 Y382,3
  +1 Y382,4 +1 Y382,5 +1 Y382,6 +1 Y386,0 +1 Y386,1 +1 Y386,2 +1 Y386,3 +1 Y386,4 +1 Y386,5 +1 Y386,6
  +1 Y387,0 +1 Y387,1 +1 Y387,2 +1 Y387,3 +1 Y387,4 +1 Y387,5 +1 Y387,6 +1 Y388,0 +1 Y388,1 +1 Y388,2
  +1 Y388,3 +1 Y388,4 +1 Y388,5 +1 Y388,6 +1 Y392,0 +1 Y392,1 +1 Y392,2 +1 Y392,3 +1 Y392,4 +1 Y392,5
  +1 Y392,6 +1 Y396,0 +1 Y396,1 +1 Y396,2 +1 Y396,3 +1 Y396,4 +1 Y396,5 +1 Y396,6 +1 Y397,0 +1 Y397,1
  +1 Y397,2 +1 Y397,3 +1 Y397,4 +1 Y397,5 +1 Y397,6 +1 Y398,0 +1 Y398,1 +1 Y398,2 +1 Y398,3 +1 Y398,4
  +1 Y398,5 +1 Y398,6 +1 Y402,0 +1 Y402,1 +1 Y402,2 +1 Y402,3 +1 Y402,4 +1 Y402,5 +1 Y402,6 +1 Y403,0
  +1 Y403,1 +1 Y403,2 +1 Y403,3 +1 Y403,4 +1 Y403,5 +1 Y403,6 +1 Y404,0 +1 Y404,1 +1 Y404,2 +1 Y404,3
  +1 Y404,4 +1 Y404,5 +1 Y404,6 +1 Y408,0 +1 Y408,1 +1 Y408,2 +1 Y408,3 +1 Y408,4 +1 Y408,5 +1 Y408,6
  +1 Y409,0 +1 Y409,1 +1 Y409,2 +1 Y409,3 +1 Y409,4 +1 Y409,5 +1 Y409,6 +1 Y410,0 +1 Y410,1 +1 Y410,2
  +1 Y410,3 +1 Y410,4 +1 Y410,5 +1 Y410,6 +1 Y412,0 +1 Y412,1 +1 Y412,2 +1 Y412,3 +1 Y412,4 +1 Y412,5
  +1 Y412,6 +1 Y416,0 +1 Y416,1 +1 Y416,2 +1 Y416,3 +1 Y416,4 +1 Y416,5 +1 Y416,6 +1 Y417,0 +1 Y417,1
  +1 Y417,2 +1 Y417,3 +1 Y417,4 +1 Y417,5 +1 Y417,6 +1 Y418,0 +1 Y418,1 +1 Y418,2 +1 Y418,3 +1 Y418,4
  +1 Y418,5 +1 Y418,6 +1 Y422,0 +1 Y422,1 +1 Y422,2 +1 Y422,3 +1 Y422,4 +1 Y422,5 +1 Y422,6 +1 Y423,0
  +1 Y423,1 +1 Y423,2 +1 Y423,3 +1 Y423,4 +1 Y423,5 +1 Y423,6 +1 Y424,0 +1 Y424,1 +1 Y424,2 +1 Y424,3
  +1 Y424,4 +1 Y424,5 +1 Y424,6 +1 Y428,0 +1 Y428,1 +1 Y428,2 +1 Y428,3 +1 Y428,4 +1 Y428,5 +1 Y428,6
  +1 Y429,0 +1 Y429,1 +1 Y429,2 +1 Y429,3 +1 Y429,4 +1 Y429,5 +1 Y429,6 +1 Y430,0 +1 Y430,1 +1 Y430,2
  +1 Y430,3 +1 Y430,4 +1 Y430,5 +1 Y430,6 +1 Y432,0 +1 Y432,1 +1 Y432,2 +1 Y432,3 +1 Y432,4 +1 Y432,5
  +1 Y432,6 +1 Y433,0 +1 Y433,1 +1 Y433,2 +1 Y433,3 +1 Y433,4 +1 Y433,5 +1 Y433,6 +1 Y434,0 +1 Y434,1
  +1 Y434,2 +1 Y434,3 +1 Y434,4 +1 Y434,5 +1 Y434,6 +1 Y438,0 +1 Y438,1 +1 Y438,2 +1 Y438,3 +1 Y438,4
  +1 Y438,5 +1 Y438,6 +1 Y439,0 +1 Y439,1 +1 Y439,2 +1 Y439,3 +1 Y439,4 +1 Y439,5 +1 Y439,6 +1 Y440,0
  +1 Y440,1 +1 Y440,2 +1 Y440,3 +1 Y440,4 +1 Y440,5 +1 Y440,6 +1 Y442,0 +1 Y442,1 +1 Y442,2 +1 Y442,3
  +1 Y442,4 +1 Y442,5 +1 Y442,6 +1 Y443,0 +1 Y443,1 +1 Y443,2 +1 Y443,3 +1 Y443,4 +1 Y443,5 +1 Y443,6
  +1 Y444,0 +1 Y444,1 +1 Y444,2 +1 Y444,3 +1 Y444,4 +1 Y444,5 +1 Y444,6 +1 Y446,0 +1 Y446,1 +1 Y446,2
  +1 Y446,3 +1 Y446,4 +1 Y446,5 +1 Y446,6 +1 Y447,0 +1 Y447,1 +1 Y447,2 +1 Y447,3 +1 Y447,4 +1 Y447,5
  +1 Y447,6 +1 Y448,0 +1 Y448,1 +1 Y448,2 +1 Y448,3 +1 Y448,4 +1 Y448,5 +1 Y448,6 +1 Y449,0 +1 Y449,1
  +1 Y449,2 +1 Y449,3 +1 Y449,4 +1 Y449,5 +1 Y449,6 +1 Y453,0 +1 Y453,1 +1 Y453,2 +1 Y453,3 +1 Y453,4
  +1 Y453,5 +1 Y453,6 +1 Y454,0 +1 Y454,1 +1 Y454,2 +1 Y454,3 +1 Y454,4 +1 Y454,5 +1 Y454,6 +1 Y455,0
  +1 Y455,1 +1 Y455,2 +1 Y455,3 +1 Y455,4 +1 Y455,5 +1 Y455,6 +1 Y457,0 +1 Y457,1 +1 Y457,2 +1 Y457,3
  +1 Y457,4 +1 Y457,5 +1 Y457,6 +1 Y458,0 +1 Y458,1 +1 Y458,2 +1 Y458,3 +1 Y458,4 +1 Y458,5 +1 Y458,6
  +1 Y459,0 +1 Y459,1 +1 Y459,2 +1 Y459,3 +1 Y459,4 +1 Y459,5 +1 Y459,6 +1 Y461,0 +1 Y461,1 +1 Y461,2
  +1 Y461,3 +1 Y461,4 +1 Y461,5 +1 Y461,6 +1 Y462,0 +1 Y462,1 +1 Y462,2 +1 Y462,3 +1 Y462,4 +1 Y462,5
  +1 Y462,6 +1 Y463,0 +1 Y463,1 +1 Y463,2 +1 Y463,3 +1 Y463,4 +1 Y463,5 +1 Y463,6 +1 Y464,0 +1 Y464,1
  +1 Y464,2 +1 Y464,3 +1 Y464,4 +1 Y464,5 +1 Y464,6 +1 Y466,0 +1 Y466,1 +1 Y466,2 +1 Y466,3 +1 Y466,4
  +1 Y466,5 +1 Y466,6 +1 Y467,0 +1 Y467,1 +1 Y467,2 +1 Y467,3 +1 Y467,4 +1 Y467,5 +1 Y467,6 +1 Y468,0
  +1 Y468,1 +1 Y468,2 +1 Y468,3 +1 Y468,4 +1 Y468,5 +1 Y468,6 +1 Y469,0 +1 Y469,1 +1 Y469,2 +1 Y469,3
  +1 Y469,4 +1 Y469,5 +1 Y469,6 +1 Y470,0 +1 Y470,1 +1 Y470,2 +1 Y470,3 +1 Y470,4 +1 Y470,5 +1 Y470,6
  +1 Y472,0 +1 Y472,1 +1 Y472,2 +1 Y472,3 +1 Y472,4 +1 Y472,5 +1 Y472,6 +1 Y473,0 +1 Y473,1 +1 Y473,2
  +1 Y473,3 +1 Y473,4 +1 Y473,5 +1 Y473,6 +1 Y474,0 +1 Y474,1 +1 Y474,2 +1 Y474,3 +1 Y474,4 +1 Y474,5
  +1 Y474,6 +1 Y475,0 +1 Y475,1 +1 Y475,2 +1 Y475,3 +1 Y475,4 +1 Y475,5 +1 Y475,6 = +1
 c10: +1 Y539,0 +1 Y539,1 +1 Y539,2 +1 Y539,3 +1 Y539,4 +1 Y539,5 +1 Y539,6 +1 Y543,0 +1 Y543,1 +1 Y543,2
  +1 Y543,3 +1 Y543,4 +1 Y543,5 +1 Y543,6 +1 Y544,0 +1 Y544,1 +1 Y544,2 +1 Y544,3 +1 Y544,4 +1 Y544,5
  +1 Y544,6 +1 Y545,0 +1 Y545,1 +1 Y545,2 +1 Y545,3 +1 Y545,4 +1 Y545,5 +1 Y545,6 +1 Y549,0 +1 Y549,1
  +1 Y549,2 +1 Y549,3 +1 Y549,4 +1 Y549,5 +1 Y549,6 +1 Y550,0 +1 Y550,1 +1 Y550,2 +1 Y550,3 +1 Y550,4
  +1 Y550,5 +1 Y550,6 +1 Y551,0 +1 Y551,1 +1 Y551,2 +1 Y551,3 +1 Y551,4 +1 Y551,5 +1 Y551,6 +1 Y553,0
  +1 Y553,1 +1 Y553,2 +1 Y553,3 +1 Y553,4 +1 Y553,5 +1 Y553,6 = +1
 c11: +1 Y1,0 +1 Y1,1 +1 Y1,2 +1 Y1,3 +1 Y1,4 +1 Y1,5 +1 Y1,6 +1 Y5,0 +1 Y5,1 +1 Y5,2 +1 Y5,3 +1 Y5,4
  +1 Y5,5 +1 Y5,6 +1 Y9,0 +1 Y9,1 +1 Y9,2 +1 Y9,3 +1 Y9,4 +1 Y9,5 +1 Y9,6 +1 Y10,0 +1 Y10,1 +1 Y10,2 +1 Y10,3
  +1 Y10,4 +1 Y10,5 +1 Y10,6 +1 Y11,0 +1 Y11,1 +1 Y11,2 +1 Y11,3 +1 Y11,4 +1 Y11,5 +1 Y11,6 +1 Y15,0 +1 Y15,1
  +1 Y15,2 +1 Y15,3 +1 Y15,4 +1 Y15,5 +1 Y15,6 +1 Y16,0 +1 Y16,1 +1 Y16,2 +1 Y16,3 +1 Y16,4 +1 Y16,5 +1 Y16,6
  +1 Y17,0 +1 Y17,1 +1 Y17,2 +1 Y17,3 +1 Y17,4 +1 Y17,5 +1 Y17,6 +1 Y21,0 +1 Y21,1 +1 Y21,2 +1 Y21,3 +1 Y21,4
  +1 Y21,5 +1 Y21,6 +1 Y22,0 +1 Y22,1 +1 Y22,2 +1 Y22,3 +1 Y22,4 +1 Y22,5 +1 Y22,6 +1 Y23,0 +1 Y23,1 +1 Y23,2
  +1 Y23,3 +1 Y23,4 +1 Y23,5 +1 Y23,6 +1 Y25,0 +1 Y25,1 +1 Y25,2 +1 Y25,3 +1 Y25,4 +1 Y25,5 +1 Y25,6 +1 Y26,0
  +1 Y26,1 +1 Y26,2 +1 Y26,3 +1 Y26,4 +1 Y26,5 +1 Y26,6 +1 Y27,0 +1 Y27,1 +1 Y27,2 +1 Y27,3 +1 Y27,4 +1 Y27,5
  +1 Y27,6 +1 Y29,0 +1 Y29,1 +1 Y29,2 +1 Y29,3 +1 Y29,4 +1 Y29,5 +1 Y29,6 +1 Y30,0 +1 Y30,1 +1 Y30,2 +1 Y30,3
  +1 Y30,4 +1 Y30,5 +1 Y30,6 = +1
 c12: +1 Y554,0 +1 Y554,1 +1 Y554,2 +1 Y554,3 +1 Y554,4 +1 Y554,5 +1 Y554,6 +1 Y559,0 +1 Y559,1 +1 Y559,2
  +1 Y559,3 +1 Y559,4 +1 Y559,5 +1 Y559,6 +1 Y560,0 +1 Y560,1 +1 Y560,2 +1 Y560,3 +1 Y560,4 +1 Y560,5
  +1 Y560,6 +1 Y561,0 +1 Y561,1 +1 Y561,2 +1 Y561,3 +1 Y561,4 +1 Y561,5 +1 Y561,6 +1 Y562,0 +1 Y562,1
  +1 Y562,2 +1 Y562,3 +1 Y562,4 +1 Y562,5 +1 Y562,6 +1 Y569,0 +1 Y569,1 +1 Y569,2 +1 Y569,3 +1 Y569,4
  +1 Y569,5 +1 Y569,6 +1 Y570,0 +1 Y570,1 +1 Y570,2 +1 Y570,3 +1 Y570,4 +1 Y570,5 +1 Y570,6 +1 Y571,0
  +1 Y571,1 +1 Y571,2 +1 Y571,3 +1 Y571,4 +1 Y571,5 +1 Y571,6 +1 Y572,0 +1 Y572,1 +1 Y572,2 +1 Y572,3
  +1 Y572,4 +1 Y572,5 +1 Y572,6 +1 Y573,0 +1 Y573,1 +1 Y573,2 +1 Y573,3 +1 Y573,4 +1 Y573,5 +1 Y573,6
  +1 Y574,0 +1 Y574,1 +1 Y574,2 +1 Y574,3 +1 Y574,4 +1 Y574,5 +1 Y574,6 +1 Y579,0 +1 Y579,1 +1 Y579,2
  +1 Y579,3 +1 Y579,4 +1 Y579,5 +1 Y579,6 +1 Y580,0 +1 Y580,1 +1 Y580,2 +1 Y580,3 +1 Y580,4 +1 Y580,5
  +1 Y580,6 +1 Y581,0 +1 Y581,1 +1 Y581,2 +1 Y581,3 +1 Y581,4 +1 Y581,5 +1 Y581,6 +1 Y582,0 +1 Y582,1
  +1 Y582,2 +1 Y582,3 +1 Y582,4 +1 Y582,5 +1 Y582,6 +1 Y584,0 +1 Y584,1 +1 Y584,2 +1 Y584,3 +1 Y584,4
  +1 Y584,5 +1 Y584,6 = +1
 c13: +1 Y585,0 +1 Y585,1 +1 Y585,2 +1 Y585,3 +1 Y585,4 +1 Y585,5 +1 Y585,6 +1 Y593,0 +1 Y593,1 +1 Y593,2
  +1 Y593,3 +1 Y593,4 +1 Y593,5 +1 Y593,6 +1 Y594,0 +1 Y594,1 +1 Y594,2 +1 Y594,3 +1 Y594,4 +1 Y594,5
  +1 Y594,6 +1 Y595,0 +1 Y595,1 +1 Y595,2 +1 Y595,3 +1 Y595,4 +1 Y595,5 +1 Y595,6 +1 Y596,0 +1 Y596,1
  +1 Y596,2 +1 Y596,3 +1 Y596,4 +1 Y596,5 +1 Y596,6 +1 Y597,0 +1 Y597,1 +1 Y597,2 +1 Y597,3 +1 Y597,4
  +1 Y597,5 +1 Y597,6 +1 Y598,0 +1 Y598,1 +1 Y598,2 +1 Y598,3 +1 Y598,4 +1 Y598,5 +1 Y598,6 +1 Y599,0
  +1 Y599,1 +1 Y599,2 +1 Y599,3 +1 Y599,4 +1 Y599,5 +1 Y599,6 +1 Y621,0 +1 Y621,1 +1 Y621,2 +1 Y621,3
  +1 Y621,4 +1 Y621,5 +1 Y621,6 +1 Y622,0 +1 Y622,1 +1 Y622,2 +1 Y622,3 +1 Y622,4 +1 Y622,5 +1 Y622,6
  +1 Y623,0 +1 Y623,1 +1 Y623,2 +1 Y623,3 +1 Y623,4 +1 Y623,5 +1 Y623,6 +1 Y624,0 +1 Y624,1 +1 Y624,2
  +1 Y624,3 +1 Y624,4 +1 Y624,5 +1 Y624,6 +1 Y625,0 +1 Y625,1 +1 Y625,2 +1 Y625,3 +1 Y625,4 +1 Y625,5
  +1 Y625,6 +1 Y626,0 +1 Y626,1 +1 Y626,2 +1 Y626,3 +1 Y626,4 +1 Y626,5 +1 Y626,6 +1 Y627,0 +1 Y627,1
  +1 Y627,2 +1 Y627,3 +1 Y627,4 +1 Y627,5 +1 Y627,6 +1 Y628,0 +1 Y628,1 +1 Y628,2 +1 Y628,3 +1 Y628,4
  +1 Y628,5 +1 Y628,6 +1 Y629,0 +1 Y629,1 +1 Y629,2 +1 Y629,3 +1 Y629,4 +1 Y629,5 +1 Y629,6 +1 Y630,0
  +1 Y630,1 +1 Y630,2 +1 Y630,3 +1 Y630,4 +1 Y630,5 +1 Y630,6 +1 Y631,0 +1 Y631,1 +1 Y631,2 +1 Y631,3
  +1 Y631,4 +1 Y631,5 +1 Y631,6 +1 Y632,0 +1 Y632,1 +1 Y632,2 +1 Y632,3 +1 Y632,4 +1 Y632,5 +1 Y632,6
  +1 Y633,0 +1 Y633,1 +1 Y633,2 +1 Y633,3 +1 Y633,4 +1 Y633,5 +1 Y633,6 +1 Y634,0 +1 Y634,1 +1 Y634,2
  +1 Y634,3 +1 Y634,4 +1 Y634,5 +1 Y634,6 +1 Y635,0 +1 Y635,1 +1 Y635,2 +1 Y635,3 +1 Y635,4 +1 Y635,5
  +1 Y635,6 +1 Y636,0 +1 Y636,1 +1 Y636,2 +1 Y636,3 +1 Y636,4 +1 Y636,5 +1 Y636,6 +1 Y637,0 +1 Y637,1
  +1 Y637,2 +1 Y637,3 +1 Y637,4 +1 Y637,5 +1 Y637,6 +1 Y638,0 +1 Y638,1 +1 Y638,2 +1 Y638,3 +1 Y638,4
  +1 Y638,5 +1 Y638,6 +1 Y639,0 +1 Y639,1 +1 Y639,2 +1 Y639,3 +1 Y639,4 +1 Y639,5 +1 Y639,6 +1 Y640,0
  +1 Y640,1 +1 Y640,2 +1 Y640,3 +1 Y640,4 +1 Y640,5 +1 Y640,6 +1 Y641,0 +1 Y641,1 +1 Y641,2 +1 Y641,3
  +1 Y641,4 +1 Y641,5 +1 Y641,6 +1 Y677,0 +1 Y677,1 +1 Y677,2 +1 Y677,3 +1 Y677,4 +1 Y677,5 +1 Y677,6
  +1 Y678,0 +1 Y678,1 +1 Y678,2 +1 Y678,3 +1 Y678,4 +1 Y678,5 +1 Y678,6 +1 Y679,0 +1 Y679,1 +1 Y679,2
  +1 Y679,3 +1 Y679,4 +1 Y679,5 +1 Y679,6 +1 Y680,0 +1 Y680,1 +1 Y680,2 +1 Y680,3 +1 Y680,4 +1 Y680,5
  +1 Y680,6 +1 Y681,0 +1 Y681,1 +1 Y681,2 +1 Y681,3 +1 Y681,4 +1 Y681,5 +1 Y681,6 +1 Y682,0 +1 Y682,1
  +1 Y682,2 +1 Y682,3 +1 Y682,4 +1 Y682,5 +1 Y682,6 +1 Y683,0 +1 Y683,1 +1 Y683,2 +1 Y683,3 +1 Y683,4
  +1 Y683,5 +1 Y683,6 +1 Y684,0 +1 Y684,1 +1 Y684,2 +1 Y684,3 +1 Y684,4 +1 Y684,5 +1 Y684,6 +1 Y685,0
  +1 Y685,1 +1 Y685,2 +1 Y685,3 +1 Y685,4 +1 Y685,5 +1 Y685,6 +1 Y686,0 +1 Y686,1 +1 Y686,2 +1 Y686,3
  +1 Y686,4 +1 Y686,5 +1 Y686,6 +1 Y687,0 +1 Y687,1 +1 Y687,2 +1 Y687,3 +1 Y687,4 +1 Y687,5 +1 Y687,6
  +1 Y688,0 +1 Y688,1 +1 Y688,2 +1 Y688,3 +1 Y688,4 +1 Y688,5 +1 Y688,6 +1 Y689,0 +1 Y689,1 +1 Y689,2
  +1 Y689,3 +1 Y689,4 +1 Y689,5 +1 Y689,6 +1 Y690,0 +1 Y690,1 +1 Y690,2 +1 Y690,3 +1 Y690,4 +1 Y690,5
  +1 Y690,6 +1 Y691,0 +1 Y691,1 +1 Y691,2 +1 Y691,3 +1 Y691,4 +1 Y691,5 +1 Y691,6 +1 Y692,0 +1 Y692,1
  +1 Y692,2 +1 Y692,3 +1 Y692,4 +1 Y692,5 +1 Y692,6 +1 Y693,0 +1 Y693,1 +1 Y693,2 +1 Y693,3 +1 Y693,4
  +1 Y693,5 +1 Y693,6 +1 Y694,0 +1 Y694,1 +1 Y694,2 +1 Y694,3 +1 Y694,4 +1 Y694,5 +1 Y694,6 +1 Y695,0
  +1 Y695,1 +1 Y695,2 +1 Y695,3 +1 Y695,4 +1 Y695,5 +1 Y695,6 +1 Y696,0 +1 Y696,1 +1 Y696,2 +1 Y696,3
  +1 Y696,4 +1 Y696,5 +1 Y696,6 +1 Y697,0 +1 Y697,1 +1 Y697,2 +1 Y697,3 +1 Y697,4 +1 Y697,5 +1 Y697,6
  +1 Y698,0 +1 Y698,1 +1 Y698,2 +1 Y698,3 +1 Y698,4 +1 Y698,5 +1 Y698,6 +1 Y699,0 +1 Y699,1 +1 Y699,2
  +1 Y699,3 +1 Y699,4 +1 Y699,5 +1 Y699,6 +1 Y700,0 +1 Y700,1 +1 Y700,2 +1 Y700,3 +1 Y700,4 +1 Y700,5
  +1 Y700,6 +1 Y701,0 +1 Y701,1 +1 Y701,2 +1 Y701,3 +1 Y701,4 +1 Y701,5 +1 Y701,6 +1 Y702,0 +1 Y702,1
  +1 Y702,2 +1 Y702,3 +1 Y702,4 +1 Y702,5 +1 Y702,6 +1 Y703,0 +1 Y703,1 +1 Y703,2 +1 Y703,3 +1 Y703,4
  +1 Y703,5 +1 Y703,6 +1 Y704,0 +1 Y704,1 +1 Y704,2 +1 Y704,3 +1 Y704,4 +1 Y704,5 +1 Y704,6 +1 Y705,0
  +1 Y705,1 +1 Y705,2 +1 Y705,3 +1 Y705,4 +1 Y705,5 +1 Y705,6 +1 Y706,0 +1 Y706,1 +1 Y706,2 +1 Y706,3
  +1 Y706,4 +1 Y706,5 +1 Y706,6 +1 Y707,0 +1 Y707,1 +1 Y707,2 +1 Y707,3 +1 Y707,4 +1 Y707,5 +1 Y707,6
  +1 Y708,0 +1 Y708,1 +1 Y708,2 +1 Y708,3 +1 Y708,4 +1 Y708,5 +1 Y708,6 +1 Y709,0 +1 Y709,1 +1 Y709,2
  +1 Y709,3 +1 Y709,4 +1 Y709,5 +1 Y709,6 +1 Y710,0 +1 Y710,1 +1 Y710,2 +1 Y710,3 +1 Y710,4 +1 Y710,5
  +1 Y710,6 +1 Y711,0 +1 Y711,1 +1 Y711,2 +1 Y711,3 +1 Y711,4 +1 Y711,5 +1 Y711,6 +1 Y747,0 +1 Y747,1
  +1 Y747,2 +1 Y747,3 +1 Y747,4 +1 Y747,5 +1 Y747,6 +1 Y748,0 +1 Y748,1 +1 Y748,2 +1 Y748,3 +1 Y748,4
  +1 Y748,5 +1 Y748,6 +1 Y749,0 +1 Y749,1 +1 Y749,2 +1 Y749,3 +1 Y749,4 +1 Y749,5 +1 Y749,6 +1 Y750,0
  +1 Y750,1 +1 Y750,2 +1 Y750,3 +1 Y750,4 +1 Y750,5 +1 Y750,6 +1 Y751,0 +1 Y751,1 +1 Y751,2 +1 Y751,3
  +1 Y751,4 +1 Y751,5 +1 Y751,6 +1 Y752,0 +1 Y752,1 +1 Y752,2 +1 Y752,3 +1 Y752,4 +1 Y752,5 +1 Y752,6
  +1 Y753,0 +1 Y753,1 +1 Y753,2 +1 Y753,3 +1 Y753,4 +1 Y753,5 +1 Y753,6 +1 Y754,0 +1 Y754,1 +1 Y754,2
  +1 Y754,3 +1 Y754,4 +1 Y754,5 +1 Y754,6 +1 Y755,0 +1 Y755,1 +1 Y755,2 +1 Y755,3 +1 Y755,4 +1 Y755,5
  +1 Y755,6 +1 Y756,0 +1 Y756,1 +1 Y756,2 +1 Y756,3 +1 Y756,4 +1 Y756,5 +1 Y756,6 +1 Y757,0 +1 Y757,1
  +1 Y757,2 +1 Y757,3 +1 Y757,4 +1 Y757,5 +1 Y757,6 +1 Y758,0 +1 Y758,1 +1 Y758,2 +1 Y758,3 +1 Y758,4
  +1 Y758,5 +1 Y758,6 +1 Y759,0 +1 Y759,1 +1 Y759,2 +1 Y759,3 +1 Y759,4 +1 Y759,5 +1 Y759,6 +1 Y760,0
  +1 Y760,1 +1 Y760,2 +1 Y760,3 +1 Y760,4 +1 Y760,5 +1 Y760,6 +1 Y761,0 +1 Y761,1 +1 Y761,2 +1 Y761,3
  +1 Y761,4 +1 Y761,5 +1 Y761,6 +1 Y762,0 +1 Y762,1 +1 Y762,2 +1 Y762,3 +1 Y762,4 +1 Y762,5 +1 Y762,6
  +1 Y763,0 +1 Y763,1 +1 Y763,2 +1 Y763,3 +1 Y763,4 +1 Y763,5 +1 Y763,6 +1 Y764,0 +1 Y764,1 +1 Y764,2
  +1 Y764,3 +1 Y764,4 +1 Y764,5 +1 Y764,6 +1 Y765,0 +1 Y765,1 +1 Y765,2 +1 Y765,3 +1 Y765,4 +1 Y765,5
  +1 Y765,6 +1 Y766,0 +1 Y766,1 +1 Y766,2 +1 Y766,3 +1 Y766,4 +1 Y766,5 +1 Y766,6 +1 Y767,0 +1 Y767,1
  +1 Y767,2 +1 Y767,3 +1 Y767,4 +1 Y767,5 +1 Y767,6 +1 Y768,0 +1 Y768,1 +1 Y768,2 +1 Y768,3 +1 Y768,4
  +1 Y768,5 +1 Y768,6 +1 Y769,0 +1 Y769,1 +1 Y769,2 +1 Y769,3 +1 Y769,4 +1 Y769,5 +1 Y769,6 +1 Y770,0
  +1 Y770,1 +1 Y770,2 +1 Y770,3 +1 Y770,4 +1 Y770,5 +1 Y770,6 +1 Y771,0 +1 Y771,1 +1 Y771,2 +1 Y771,3
  +1 Y771,4 +1 Y771,5 +1 Y771,6 +1 Y772,0 +1 Y772,1 +1 Y772,2 +1 Y772,3 +1 Y772,4 +1 Y772,5 +1 Y772,6
  +1 Y773,0 +1 Y773,1 +1 Y773,2 +1 Y773,3 +1 Y773,4 +1 Y773,5 +1 Y773,6 +1 Y774,0 +1 Y774,1 +1 Y774,2
  +1 Y774,3 +1 Y774,4 +1 Y774,5 +1 Y774,6 +1 Y775,0 +1 Y775,1 +1 Y775,2 +1 Y775,3 +1 Y775,4 +1 Y775,5
  +1 Y775,6 +1 Y776,0 +1 Y776,1 +1 Y776,2 +1 Y776,3 +1 Y776,4 +1 Y776,5 +1 Y776,6 +1 Y777,0 +1 Y777,1
  +1 Y777,2 +1 Y777,3 +1 Y777,4 +1 Y777,5 +1 Y777,6 +1 Y778,0 +1 Y778,1 +1 Y778,2 +1 Y778,3 +1 Y778,4
  +1 Y778,5 +1 Y778,6 +1 Y779,0 +1 Y779,1 +1 Y779,2 +1 Y779,3 +1 Y779,4 +1 Y779,5 +1 Y779,6 +1 Y780,0
  +1 Y780,1 +1 Y780,2 +1 Y780,3 +1 Y780,4 +1 Y780,5 +1 Y780,6 +1 Y781,0 +1 Y781,1 +1 Y781,2 +1 Y781,3
  +1 Y781,4 +1 Y781,5 +1 Y781,6 +1 Y803,0 +1 Y803,1 +1 Y803,2 +1 Y803,3 +1 Y803,4 +1 Y803,5 +1 Y803,6
  +1 Y804,0 +1 Y804,1 +1 Y804,2 +1 Y804,3 +1 Y804,4 +1 Y804,5 +1 Y804,6 +1 Y805,0 +1 Y805,1 +1 Y805,2
  +1 Y805,3 +1 Y805,4 +1 Y805,5 +1 Y805,6 +1 Y806,0 +1 Y806,1 +1 Y806,2 +1 Y806,3 +1 Y806,4 +1 Y806,5
  +1 Y806,6 +1 Y807,0 +1 Y807,1 +1 Y807,2 +1 Y807,3 +1 Y807,4 +1 Y807,5 +1 Y807,6 +1 Y808,0 +1 Y808,1
  +1 Y808,2 +1 Y808,3 +1 Y808,4 +1 Y808,5 +1 Y808,6 +1 Y809,0 +1 Y809,1 +1 Y809,2 +1 Y809,3 +1 Y809,4
  +1 Y809,5 +1 Y809,6 +1 Y810,0 +1 Y810,1 +1 Y810,2 +1 Y810,3 +1 Y810,4 +1 Y810,5 +1 Y810,6 +1 Y811,0
  +1 Y811,1 +1 Y811,2 +1 Y811,3 +1 Y811,4 +1 Y811,5 +1 Y811,6 +1 Y812,0 +1 Y812,1 +1 Y812,2 +1 Y812,3
  +1 Y812,4 +1 Y812,5 +1 Y812,6 +1 Y813,0 +1 Y813,1 +1 Y813,2 +1 Y813,3 +1 Y813,4 +1 Y813,5 +1 Y813,6
  +1 Y814,0 +1 Y814,1 +1 Y814,2 +1 Y814,3 +1 Y814,4 +1 Y814,5 +1 Y814,6 +1 Y815,0 +1 Y815,1 +1 Y815,2
  +1 Y815,3 +1 Y815,4 +1 Y815,5 +1 Y815,6 +1 Y816,0 +1 Y816,1 +1 Y816,2 +1 Y816,3 +1 Y816,4 +1 Y816,5
  +1 Y816,6 +1 Y817,0 +1 Y817,1 +1 Y817,2 +1 Y817,3 +1 Y817,4 +1 Y817,5 +1 Y817,6 +1 Y818,0 +1 Y818,1
  +1 Y818,2 +1 Y818,3 +1 Y818,4 +1 Y818,5 +1 Y818,6 +1 Y819,0 +1 Y819,1 +1 Y819,2 +1 Y819,3 +1 Y819,4
  +1 Y819,5 +1 Y819,6 +1 Y820,0 +1 Y820,1 +1 Y820,2 +1 Y820,3 +1 Y820,4 +1 Y820,5 +1 Y820,6 +1 Y821,0
  +1 Y821,1 +1 Y821,2 +1 Y821,3 +1 Y821,4 +1 Y821,5 +1 Y821,6 +1 Y822,0 +1 Y822,1 +1 Y822,2 +1 Y822,3
  +1 Y822,4 +1 Y822,5 +1 Y822,6 +1 Y823,0 +1 Y823,1 +1 Y823,2 +1 Y823,3 +1 Y823,4 +1 Y823,5 +1 Y823,6
  +1 Y831,0 +1 Y831,1 +1 Y831,2 +1 Y831,3 +1 Y831,4 +1 Y831,5 +1 Y831,6 +1 Y832,0 +1 Y832,1 +1 Y832,2
  +1 Y832,3 +1 Y832,4 +1 Y832,5 +1 Y832,6 +1 Y833,0 +1 Y833,1 +1 Y833,2 +1 Y833,3 +1 Y833,4 +1 Y833,5
  +1 Y833,6 +1 Y834,0 +1 Y834,1 +1 Y834,2 +1 Y834,3 +1 Y834,4 +1 Y834,5 +1 Y834,6 +1 Y835,0 +1 Y835,1
  +1 Y835,2 +1 Y835,3 +1 Y835,4 +1 Y835,5 +1 Y835,6 +1 Y836,0 +1 Y836,1 +1 Y836,2 +1 Y836,3 +1 Y836,4
  +1 Y836,5 +1 Y836,6 +1 Y837,0 +1 Y837,1 +1 Y837,2 +1 Y837,3 +1 Y837,4 +1 Y837,5 +1 Y837,6 +1 Y839,0
  +1 Y839,1 +1 Y839,2 +1 Y839,3 +1 Y839,4 +1 Y839,5 +1 Y839,6 = +1
 c14: +1 Y32,0 +1 Y32,1 +1 Y32,2 +1 Y32,3 +1 Y32,4 +1 Y32,5 +1 Y32,6 +1 Y37,0 +1 Y37,1 +1 Y37,2 +1 Y37,3
  +1 Y37,4 +1 Y37,5 +1 Y37,6 +1 Y42,0 +1 Y42,1 +1 Y42,2 +1 Y42,3 +1 Y42,4 +1 Y42,5 +1 Y42,6 +1 Y43,0 +1 Y43,1
  +1 Y43,2 +1 Y43,3 +1 Y43,4 +1 Y43,5 +1 Y43,6 +1 Y44,0 +1 Y44,1 +1 Y44,2 +1 Y44,3 +1 Y44,4 +1 Y44,5 +1 Y44,6
  +1 Y45,0 +1 Y45,1 +1 Y45,2 +1 Y45,3 +1 Y45,4 +1 Y45,5 +1 Y45,6 +1 Y52,0 +1 Y52,1 +1 Y52,2 +1 Y52,3 +1 Y52,4
  +1 Y52,5 +1 Y52,6 +1 Y53,0 +1 Y53,1 +1 Y53,2 +1 Y53,3 +1 Y53,4 +1 Y53,5 +1 Y53,6 +1 Y54,0 +1 Y54,1 +1 Y54,2
  +1 Y54,3 +1 Y54,4 +1 Y54,5 +1 Y54,6 +1 Y55,0 +1 Y55,1 +1 Y55,2 +1 Y55,3 +1 Y55,4 +1 Y55,5 +1 Y55,6 +1 Y62,0
  +1 Y62,1 +1 Y62,2 +1 Y62,3 +1 Y62,4 +1 Y62,5 +1 Y62,6 +1 Y63,0 +1 Y63,1 +1 Y63,2 +1 Y63,3 +1 Y63,4 +1 Y63,5
  +1 Y63,6 +1 Y64,0 +1 Y64,1 +1 Y64,2 +1 Y64,3 +1 Y64,4 +1 Y64,5 +1 Y64,6 +1 Y65,0 +1 Y65,1 +1 Y65,2 +1 Y65,3
  +1 Y65,4 +1 Y65,5 +1 Y65,6 +1 Y66,0 +1 Y66,1 +1 Y66,2 +1 Y66,3 +1 Y66,4 +1 Y66,5 +1 Y66,6 +1 Y67,0 +1 Y67,1
  +1 Y67,2 +1 Y67,3 +1 Y67,4 +1 Y67,5 +1 Y67,6 +1 Y72,0 +1 Y72,1 +1 Y72,2 +1 Y72,3 +1 Y72,4 +1 Y72,5 +1 Y72,6
  +1 Y73,0 +1 Y73,1 +1 Y73,2 +1 Y73,3 +1 Y73,4 +1 Y73,5 +1 Y73,6 +1 Y74,0 +1 Y74,1 +1 Y74,2 +1 Y74,3 +1 Y74,4
  +1 Y74,5 +1 Y74,6 +1 Y75,0 +1 Y75,1 +1 Y75,2 +1 Y75,3 +1 Y75,4 +1 Y75,5 +1 Y75,6 +1 Y76,0 +1 Y76,1 +1 Y76,2
  +1 Y76,3 +1 Y76,4 +1 Y76,5 +1 Y76,6 +1 Y77,0 +1 Y77,1 +1 Y77,2 +1 Y77,3 +1 Y77,4 +1 Y77,5 +1 Y77,6 +1 Y82,0
  +1 Y82,1 +1 Y82,2 +1 Y82,3 +1 Y82,4 +1 Y82,5 +1 Y82,6 +1 Y83,0 +1 Y83,1 +1 Y83,2 +1 Y83,3 +1 Y83,4 +1 Y83,5
  +1 Y83,6 +1 Y84,0 +1 Y84,1 +1 Y84,2 +1 Y84,3 +1 Y84,4 +1 Y84,5 +1 Y84,6 +1 Y85,0 +1 Y85,1 +1 Y85,2 +1 Y85,3
  +1 Y85,4 +1 Y85,5 +1 Y85,6 +1 Y87,0 +1 Y87,1 +1 Y87,2 +1 Y87,3 +1 Y87,4 +1 Y87,5 +1 Y87,6 +1 Y88,0 +1 Y88,1
  +1 Y88,2 +1 Y88,3 +1 Y88,4 +1 Y88,5 +1 Y88,6 +1 Y89,0 +1 Y89,1 +1 Y89,2 +1 Y89,3 +1 Y89,4 +1 Y89,5 +1 Y89,6
  +1 Y90,0 +1 Y90,1 +1 Y90,2 +1 Y90,3 +1 Y90,4 +1 Y90,5 +1 Y90,6 +1 Y92,0 +1 Y92,1 +1 Y92,2 +1 Y92,3 +1 Y92,4
  +1 Y92,5 +1 Y92,6 +1 Y93,0 +1 Y93,1 +1 Y93,2 +1 Y93,3 +1 Y93,4 +1 Y93,5 +1 Y93,6 = +1
 c15: +1 Y586,0 +1 Y586,1 +1 Y586,2 +1 Y586,3 +1 Y586,4 +1 Y586,5 +1 Y586,6 +1 Y593,0 +1 Y593,1 +1 Y593,2
  +1 Y593,3 +1 Y593,4 +1 Y593,5 +1 Y593,6 +1 Y600,0 +1 Y600,1 +1 Y600,2 +1 Y600,3 +1 Y600,4 +1 Y600,5
  +1 Y600,6 +1 Y601,0 +1 Y601,1 +1 Y601,2 +1 Y601,3 +1 Y601,4 +1 Y601,5 +1 Y601,6 +1 Y602,0 +1 Y602,1
  +1 Y602,2 +1 Y602,3 +1 Y602,4 +1 Y602,5 +1 Y602,6 +1 Y603,0 +1 Y603,1 +1 Y603,2 +1 Y603,3 +1 Y603,4
  +1 Y603,5 +1 Y603,6 +1 Y604,0 +1 Y604,1 +1 Y604,2 +1 Y604,3 +1 Y604,4 +1 Y604,5 +1 Y604,6 +1 Y605,0
  +1 Y605,1 +1 Y605,2 +1 Y605,3 +1 Y605,4 +1 Y605,5 +1 Y605,6 +1 Y621,0 +1 Y621,1 +1 Y621,2 +1 Y621,3
  +1 Y621,4 +1 Y621,5 +1 Y621,6 +1 Y622,0 +1 Y622,1 +1 Y622,2 +1 Y622,3 +1 Y622,4 +1 Y622,5 +1 Y622,6
  +1 Y623,0 +1 Y623,1 +1 Y623,2 +1 Y623,3 +1 Y623,4 +1 Y623,5 +1 Y623,6 +1 Y624,0 +1 Y624,1 +1 Y624,2
  +1 Y624,3 +1 Y624,4 +1 Y624,5 +1 Y624,6 +1 Y625,0 +1 Y625,1 +1 Y625,2 +1 Y625,3 +1 Y625,4 +1 Y625,5
  +1 Y625,6 +1 Y626,0 +1 Y626,1 +1 Y626,2 +1 Y626,3 +1 Y626,4 +1 Y626,5 +1 Y626,6 +1 Y642,0 +1 Y642,1
  +1 Y642,2 +1 Y642,3 +1 Y642,4 +1 Y642,5 +1 Y642,6 +1 Y643,0 +1 Y643,1 +1 Y643,2 +1 Y643,3 +1 Y643,4
  +1 Y643,5 +1 Y643,6 +1 Y644,0 +1 Y644,1 +1 Y644,2 +1 Y644,3 +1 Y644,4 +1 Y644,5 +1 Y644,6 +1 Y645,0
  +1 Y645,1 +1 Y645,2 +1 Y645,3 +1 Y645,4 +1 Y645,5 +1 Y645,6 +1 Y646,0 +1 Y646,1 +1 Y646,2 +1 Y646,3
  +1 Y646,4 +1 Y646,5 +1 Y646,6 +1 Y647,0 +1 Y647,1 +1 Y647,2 +1 Y647,3 +1 Y647,4 +1 Y647,5 +1 Y647,6
  +1 Y648,0 +1 Y648,1 +1 Y648,2 +1 Y648,3 +1 Y648,4 +1 Y648,5 +1 Y648,6 +1 Y649,0 +1 Y649,1 +1 Y649,2
  +1 Y649,3 +1 Y649,4 +1 Y649,5 +1 Y649,6 +1 Y650,0 +1 Y650,1 +1 Y650,2 +1 Y650,3 +1 Y650,4 +1 Y650,5
  +1 Y650,6 +1 Y651,0 +1 Y651,1 +1 Y651,2 +1 Y651,3 +1 Y651,4 +1 Y651,5 +1 Y651,6 +1 Y652,0 +1 Y652,1
  +1 Y652,2 +1 Y652,3 +1 Y652,4 +1 Y652,5 +1 Y652,6 +1 Y653,0 +1 Y653,1 +1 Y653,2 +1 Y653,3 +1 Y653,4
  +1 Y653,5 +1 Y653,6 +1 Y654,0 +1 Y654,1 +1 Y654,2 +1 Y654,3 +1 Y654,4 +1 Y654,5 +1 Y654,6 +1 Y655,0
  +1 Y655,1 +1 Y655,2 +1 Y655,3 +1 Y655,4 +1 Y655,5 +1 Y655,6 +1 Y656,0 +1 Y656,1 +1 Y656,2 +1 Y656,3
  +1 Y656,4 +1 Y656,5 +1 Y656,6 +1 Y677,0 +1 Y677,1 +1 Y677,2 +1 Y677,3 +1 Y677,4 +1 Y677,5 +1 Y677,6
  +1 Y678,0 +1 Y678,1 +1 Y678,2 +1 Y678,3 +1 Y678,4 +1 Y678,5 +1 Y678,6 +1 Y679,0 +1 Y679,1 +1 Y679,2
  +1 Y679,3 +1 Y679,4 +1 Y679,5 +1 Y679,6 +1 Y680,0 +1 Y680,1 +1 Y680,2 +1 Y680,3 +1 Y680,4 +1 Y680,5
  +1 Y680,6 +1 Y681,0 +1 Y681,1 +1 Y681,2 +1 Y681,3 +1 Y681,4 +1 Y681,5 +1 Y681,6 +1 Y682,0 +1 Y682,1
  +1 Y682,2 +1 Y682,3 +1 Y682,4 +1 Y682,5 +1 Y682,6 +1 Y683,0 +1 Y683,1 +1 Y683,2 +1 Y683,3 +1 Y683,4
  +1 Y683,5 +1 Y683,6 +1 Y684,0 +1 Y684,1 +1 Y684,2 +1 Y684,3 +1 Y684,4 +1 Y684,5 +1 Y684,6 +1 Y685,0
  +1 Y685,1 +1 Y685,2 +1 Y685,3 +1 Y685,4 +1 Y685,5 +1 Y685,6 +1 Y686,0 +1 Y686,1 +1 Y686,2 +1 Y686,3
  +1 Y686,4 +1 Y686,5 +1 Y686,6 +1 Y687,0 +1 Y687,1 +1 Y687,2 +1 Y687,3 +1 Y687,4 +1 Y687,5 +1 Y687,6
  +1 Y688,0 +1 Y688,1 +1 Y688,2 +1 Y688,3 +1 Y688,4 +1 Y688,5 +1 Y688,6 +1 Y689,0 +1 Y689,1 +1 Y689,2
  +1 Y689,3 +1 Y689,4 +1 Y689,5 +1 Y689,6 +1 Y690,0 +1 Y690,1 +1 Y690,2 +1 Y690,3 +1 Y690,4 +1 Y690,5
  +1 Y690,6 +1 Y691,0 +1 Y691,1 +1 Y691,2 +1 Y691,3 +1 Y691,4 +1 Y691,5 +1 Y691,6 +1 Y712,0 +1 Y712,1
  +1 Y712,2 +1 Y712,3 +1 Y712,4 +1 Y712,5 +1 Y712,6 +1 Y713,0 +1 Y713,1 +1 Y713,2 +1 Y713,3 +1 Y713,4
  +1 Y713,5 +1 Y713,6 +1 Y714,0 +1 Y714,1 +1 Y714,2 +1 Y714,3 +1 Y714,4 +1 Y714,5 +1 Y714,6 +1 Y715,0
  +1 Y715,1 +1 Y715,2 +1 Y715,3 +1 Y715,4 +1 Y715,5 +1 Y715,6 +1 Y716,0 +1 Y716,1 +1 Y716,2 +1 Y716,3
  +1 Y716,4 +1 Y716,5 +1 Y716,6 +1 Y717,0 +1 Y717,1 +1 Y717,2 +1 Y717,3 +1 Y717,4 +1 Y717,5 +1 Y717,6
  +1 Y718,0 +1 Y718,1 +1 Y718,2 +1 Y718,3 +1 Y718,4 +1 Y718,5 +1 Y718,6 +1 Y719,0 +1 Y719,1 +1 Y719,2
  +1 Y719,3 +1 Y719,4 +1 Y719,5 +1 Y719,6 +1 Y720,0 +1 Y720,1 +1 Y720,2 +1 Y720,3 +1 Y720,4 +1 Y720,5
  +1 Y720,6 +1 Y721,0 +1 Y721,1 +1 Y721,2 +1 Y721,3 +1 Y721,4 +1 Y721,5 +1 Y721,6 +1 Y722,0 +1 Y722,1
  +1 Y722,2 +1 Y722,3 +1 Y722,4 +1 Y722,5 +1 Y722,6 +1 Y723,0 +1 Y723,1 +1 Y723,2 +1 Y723,3 +1 Y723,4
  +1 Y723,5 +1 Y723,6 +1 Y724,0 +1 Y724,1 +1 Y724,2 +1 Y724,3 +1 Y724,4 +1 Y724,5 +1 Y724,6 +1 Y725,0
  +1 Y725,1 +1 Y725,2 +1 Y725,3 +1 Y725,4 +1 Y725,5 +1 Y725,6 +1 Y726,0 +1 Y726,1 +1 Y726,2 +1 Y726,3
  +1 Y726,4 +1 Y726,5 +1 Y726,6 +1 Y727,0 +1 Y727,1 +1 Y727,2 +1 Y727,3 +1 Y727,4 +1 Y727,5 +1 Y727,6
  +1 Y728,0 +1 Y728,1 +1 Y728,2 +1 Y728,3 +1 Y728,4 +1 Y728,5 +1 Y728,6 +1 Y729,0 +1 Y729,1 +1 Y729,2
  +1 Y729,3 +1 Y729,4 +1 Y729,5 +1 Y729,6 +1 Y730,0 +1 Y730,1 +1 Y730,2 +1 Y730,3 +1 Y730,4 +1 Y730,5
  +1 Y730,6 +1 Y731,0 +1 Y731,1 +1 Y731,2 +1 Y731,3 +1 Y731,4 +1 Y731,5 +1 Y731,6 +1 Y747,0 +1 Y747,1
  +1 Y747,2 +1 Y747,3 +1 Y747,4 +1 Y747,5 +1 Y747,6 +1 Y748,0 +1 Y748,1 +1 Y748,2 +1 Y748,3 +1 Y748,4
  +1 Y748,5 +1 Y748,6 +1 Y749,0 +1 Y749,1 +1 Y749,2 +1 Y749,3 +1 Y749,4 +1 Y749,5 +1 Y749,6 +1 Y750,0
  +1 Y750,1 +1 Y750,2 +1 Y750,3 +1 Y750,4 +1 Y750,5 +1 Y750,6 +1 Y751,0 +1 Y751,1 +1 Y751,2 +1 Y751,3
  +1 Y751,4 +1 Y751,5 +1 Y751,6 +1 Y752,0 +1 Y752,1 +1 Y752,2 +1 Y752,3 +1 Y752,4 +1 Y752,5 +1 Y752,6
  +1 Y753,0 +1 Y753,1 +1 Y753,2 +1 Y753,3 +1 Y753,4 +1 Y753,5 +1 Y753,6 +1 Y754,0 +1 Y754,1 +1 Y754,2
  +1 Y754,3 +1 Y754,4 +1 Y754,5 +1 Y754,6 +1 Y755,0 +1 Y755,1 +1 Y755,2 +1 Y755,3 +1 Y755,4 +1 Y755,5
  +1 Y755,6 +1 Y756,0 +1 Y756,1 +1 Y756,2 +1 Y756,3 +1 Y756,4 +1 Y756,5 +1 Y756,6 +1 Y757,0 +1 Y757,1
  +1 Y757,2 +1 Y757,3 +1 Y757,4 +1 Y757,5 +1 Y757,6 +1 Y758,0 +1 Y758,1 +1 Y758,2 +1 Y758,3 +1 Y758,4
  +1 Y758,5 +1 Y758,6 +1 Y759,0 +1 Y759,1 +1 Y759,2 +1 Y759,3 +1 Y759,4 +1 Y759,5 +1 Y759,6 +1 Y760,0
  +1 Y760,1 +1 Y760,2 +1 Y760,3 +1 Y760,4 +1 Y760,5 +1 Y760,6 +1 Y761,0 +1 Y761,1 +1 Y761,2 +1 Y761,3
  +1 Y761,4 +1 Y761,5 +1 Y761,6 +1 Y762,0 +1 Y762,1 +1 Y762,2 +1 Y762,3 +1 Y762,4 +1 Y762,5 +1 Y762,6
  +1 Y763,0 +1 Y763,1 +1 Y763,2 +1 Y763,3 +1 Y763,4 +1 Y763,5 +1 Y763,6 +1 Y764,0 +1 Y764,1 +1 Y764,2
  +1 Y764,3 +1 Y764,4 +1 Y764,5 +1 Y764,6 +1 Y765,0 +1 Y765,1 +1 Y765,2 +1 Y765,3 +1 Y765,4 +1 Y765,5
  +1 Y765,6 +1 Y766,0 +1 Y766,1 +1 Y766,2 +1 Y766,3 +1 Y766,4 +1 Y766,5 +1 Y766,6 +1 Y782,0 +1 Y782,1
  +1 Y782,2 +1 Y782,3 +1 Y782,4 +1 Y782,5 +1 Y782,6 +1 Y783,0 +1 Y783,1 +1 Y783,2 +1 Y783,3 +1 Y783,4
  +1 Y783,5 +1 Y783,6 +1 Y784,0 +1 Y784,1 +1 Y784,2 +1 Y784,3 +1 Y784,4 +1 Y784,5 +1 Y784,6 +1 Y785,0
  +1 Y785,1 +1 Y785,2 +1 Y785,3 +1 Y785,4 +1 Y785,5 +1 Y785,6 +1 Y786,0 +1 Y786,1 +1 Y786,2 +1 Y786,3
  +1 Y786,4 +1 Y786,5 +1 Y786,6 +1 Y787,0 +1 Y787,1 +1 Y787,2 +1 Y787,3 +1 Y787,4 +1 Y787,5 +1 Y787,6
  +1 Y788,0 +1 Y788,1 +1 Y788,2 +1 Y788,3 +1 Y788,4 +1 Y788,5 +1 Y788,6 +1 Y789,0 +1 Y789,1 +1 Y789,2
  +1 Y789,3 +1 Y789,4 +1 Y789,5 +1 Y789,6 +1 Y790,0 +1 Y790,1 +1 Y790,2 +1 Y790,3 +1 Y790,4 +1 Y790,5
  +1 Y790,6 +1 Y791,0 +1 Y791,1 +1 Y791,2 +1 Y791,3 +1 Y791,4 +1 Y791,5 +1 Y791,6 +1 Y792,0 +1 Y792,1
  +1 Y792,2 +1 Y792,3 +1 Y792,4 +1 Y792,5 +1 Y792,6 +1 Y793,0 +1 Y793,1 +1 Y793,2 +1 Y793,3 +1 Y793,4
  +1 Y793,5 +1 Y793,6 +1 Y794,0 +1 Y794,1 +1 Y794,2 +1 Y794,3 +1 Y794,4 +1 Y794,5 +1 Y794,6 +1 Y795,0
  +1 Y795,1 +1 Y795,2 +1 Y795,3 +1 Y795,4 +1 Y795,5 +1 Y795,6 +1 Y796,0 +1 Y796,1 +1 Y796,2 +1 Y796,3
  +1 Y796,4 +1 Y796,5 +1 Y796,6 +1 Y803,0 +1 Y803,1 +1 Y803,2 +1 Y803,3 +1 Y803,4 +1 Y803,5 +1 Y803,6
  +1 Y804,0 +1 Y804,1 +1 Y804,2 +1 Y804,3 +1 Y804,4 +1 Y804,5 +1 Y804,6 +1 Y805,0 +1 Y805,1 +1 Y805,2
  +1 Y805,3 +1 Y805,4 +1 Y805,5 +1 Y805,6 +1 Y806,0 +1 Y806,1 +1 Y806,2 +1 Y806,3 +1 Y806,4 +1 Y806,5
  +1 Y806,6 +1 Y807,0 +1 Y807,1 +1 Y807,2 +1 Y807,3 +1 Y807,4 +1 Y807,5 +1 Y807,6 +1 Y808,0 +1 Y808,1
  +1 Y808,2 +1 Y808,3 +1 Y808,4 +1 Y808,5 +1 Y808,6 +1 Y809,0 +1 Y809,1 +1 Y809,2 +1 Y809,3 +1 Y809,4
  +1 Y809,5 +1 Y809,6 +1 Y810,0 +1 Y810,1 +1 Y810,2 +1 Y810,3 +1 Y810,4 +1 Y810,5 +1 Y810,6 +1 Y811,0
  +1 Y811,1 +1 Y811,2 +1 Y811,3 +1 Y811,4 +1 Y811,5 +1 Y811,6 +1 Y812,0 +1 Y812,1 +1 Y812,2 +1 Y812,3
  +1 Y812,4 +1 Y812,5 +1 Y812,6 +1 Y813,0 +1 Y813,1 +1 Y813,2 +1 Y813,3 +1 Y813,4 +1 Y813,5 +1 Y813,6
  +1 Y814,0 +1 Y814,1 +1 Y814,2 +1 Y814,3 +1 Y814,4 +1 Y814,5 +1 Y814,6 +1 Y815,0 +1 Y815,1 +1 Y815,2
  +1 Y815,3 +1 Y815,4 +1 Y815,5 +1 Y815,6 +1 Y816,0 +1 Y816,1 +1 Y816,2 +1 Y816,3 +1 Y816,4 +1 Y816,5
  +1 Y816,6 +1 Y817,0 +1 Y817,1 +1 Y817,2 +1 Y817,3 +1 Y817,4 +1 Y817,5 +1 Y817,6 +1 Y824,0 +1 Y824,1
  +1 Y824,2 +1 Y824,3 +1 Y824,4 +1 Y824,5 +1 Y824,6 +1 Y825,0 +1 Y825,1 +1 Y825,2 +1 Y825,3 +1 Y825,4
  +1 Y825,5 +1 Y825,6 +1 Y826,0 +1 Y826,1 +1 Y826,2 +1 Y826,3 +1 Y826,4 +1 Y826,5 +1 Y826,6 +1 Y827,0
  +1 Y827,1 +1 Y827,2 +1 Y827,3 +1 Y827,4 +1 Y827,5 +1 Y827,6 +1 Y828,0 +1 Y828,1 +1 Y828,2 +1 Y828,3
  +1 Y828,4 +1 Y828,5 +1 Y828,6 +1 Y829,0 +1 Y829,1 +1 Y829,2 +1 Y829,3 +1 Y829,4 +1 Y829,5 +1 Y829,6
  +1 Y831,0 +1 Y831,1 +1 Y831,2 +1 Y831,3 +1 Y831,4 +1 Y831,5 +1 Y831,6 +1 Y832,0 +1 Y832,1 +1 Y832,2
  +1 Y832,3 +1 Y832,4 +1 Y832,5 +1 Y832,6 +1 Y833,0 +1 Y833,1 +1 Y833,2 +1 Y833,3 +1 Y833,4 +1 Y833,5
  +1 Y833,6 +1 Y834,0 +1 Y834,1 +1 Y834,2 +1 Y834,3 +1 Y834,4 +1 Y834,5 +1 Y834,6 +1 Y835,0 +1 Y835,1
  +1 Y835,2 +1 Y835,3 +1 Y835,4 +1 Y835,5 +1 Y835,6 +1 Y836,0 +1 Y836,1 +1 Y836,2 +1 Y836,3 +1 Y836,4
  +1 Y836,5 +1 Y836,6 +1 Y838,0 +1 Y838,1 +1 Y838,2 +1 Y838,3 +1 Y838,4 +1 Y838,5 +1 Y838,6 +1 Y839,0
  +1 Y839,1 +1 Y839,2 +1 Y839,3 +1 Y839,4 +1 Y839,5 +1 Y839,6 = +1
 c16: +1 Y477,0 +1 Y477,1 +1 Y477,2 +1 Y477,3 +1 Y477,4 +1 Y477,5 +1 Y477,6 +1 Y482,0 +1 Y482,1 +1 Y482,2
  +1 Y482,3 +1 Y482,4 +1 Y482,5 +1 Y482,6 +1 Y487,0 +1 Y487,1 +1 Y487,2 +1 Y487,3 +1 Y487,4 +1 Y487,5
  +1 Y487,6 +1 Y488,0 +1 Y488,1 +1 Y488,2 +1 Y488,3 +1 Y488,4 +1 Y488,5 +1 Y488,6 +1 Y489,0 +1 Y489,1
  +1 Y489,2 +1 Y489,3 +1 Y489,4 +1 Y489,5 +1 Y489,6 +1 Y490,0 +1 Y490,1 +1 Y490,2 +1 Y490,3 +1 Y490,4
  +1 Y490,5 +1 Y490,6 +1 Y497,0 +1 Y497,1 +1 Y497,2 +1 Y497,3 +1 Y497,4 +1 Y497,5 +1 Y497,6 +1 Y498,0
  +1 Y498,1 +1 Y498,2 +1 Y498,3 +1 Y498,4 +1 Y498,5 +1 Y498,6 +1 Y499,0 +1 Y499,1 +1 Y499,2 +1 Y499,3
  +1 Y499,4 +1 Y499,5 +1 Y499,6 +1 Y500,0 +1 Y500,1 +1 Y500,2 +1 Y500,3 +1 Y500,4 +1 Y500,5 +1 Y500,6
  +1 Y507,0 +1 Y507,1 +1 Y507,2 +1 Y507,3 +1 Y507,4 +1 Y507,5 +1 Y507,6 +1 Y508,0 +1 Y508,1 +1 Y508,2
  +1 Y508,3 +1 Y508,4 +1 Y508,5 +1 Y508,6 +1 Y509,0 +1 Y509,1 +1 Y509,2 +1 Y509,3 +1 Y509,4 +1 Y509,5
  +1 Y509,6 +1 Y510,0 +1 Y510,1 +1 Y510,2 +1 Y510,3 +1 Y510,4 +1 Y510,5 +1 Y510,6 +1 Y511,0 +1 Y511,1
  +1 Y511,2 +1 Y511,3 +1 Y511,4 +1 Y511,5 +1 Y511,6 +1 Y512,0 +1 Y512,1 +1 Y512,2 +1 Y512,3 +1 Y512,4
  +1 Y512,5 +1 Y512,6 +1 Y517,0 +1 Y517,1 +1 Y517,2 +1 Y517,3 +1 Y517,4 +1 Y517,5 +1 Y517,6 +1 Y518,0
  +1 Y518,1 +1 Y518,2 +1 Y518,3 +1 Y518,4 +1 Y518,5 +1 Y518,6 +1 Y519,0 +1 Y519,1 +1 Y519,2 +1 Y519,3
  +1 Y519,4 +1 Y519,5 +1 Y519,6 +1 Y520,0 +1 Y520,1 +1 Y520,2 +1 Y520,3 +1 Y520,4 +1 Y520,5 +1 Y520,6
  +1 Y521,0 +1 Y521,1 +1 Y521,2 +1 Y521,3 +1 Y521,4 +1 Y521,5 +1 Y521,6 +1 Y522,0 +1 Y522,1 +1 Y522,2
  +1 Y522,3 +1 Y522,4 +1 Y522,5 +1 Y522,6 +1 Y527,0 +1 Y527,1 +1 Y527,2 +1 Y527,3 +1 Y527,4 +1 Y527,5
  +1 Y527,6 +1 Y528,0 +1 Y528,1 +1 Y528,2 +1 Y528,3 +1 Y528,4 +1 Y528,5 +1 Y528,6 +1 Y529,0 +1 Y529,1
  +1 Y529,2 +1 Y529,3 +1 Y529,4 +1 Y529,5 +1 Y529,6 +1 Y530,0 +1 Y530,1 +1 Y530,2 +1 Y530,3 +1 Y530,4
  +1 Y530,5 +1 Y530,6 +1 Y532,0 +1 Y532,1 +1 Y532,2 +1 Y532,3 +1 Y532,4 +1 Y532,5 +1 Y532,6 +1 Y533,0
  +1 Y533,1 +1 Y533,2 +1 Y533,3 +1 Y533,4 +1 Y533,5 +1 Y533,6 +1 Y534,0 +1 Y534,1 +1 Y534,2 +1 Y534,3
  +1 Y534,4 +1 Y534,5 +1 Y534,6 +1 Y535,0 +1 Y535,1 +1 Y535,2 +1 Y535,3 +1 Y535,4 +1 Y535,5 +1 Y535,6
  +1 Y537,0 +1 Y537,1 +1 Y537,2 +1 Y537,3 +1 Y537,4 +1 Y537,5 +1 Y537,6 +1 Y538,0 +1 Y538,1 +1 Y538,2
  +1 Y538,3 +1 Y538,4 +1 Y538,5 +1 Y538,6 = +1
 c17: +1 Y587,0 +1 Y587,1 +1 Y587,2 +1 Y587,3 +1 Y587,4 +1 Y587,5 +1 Y587,6 +1 Y594,0 +1 Y594,1 +1 Y594,2
  +1 Y594,3 +1 Y594,4 +1 Y594,5 +1 Y594,6 +1 Y600,0 +1 Y600,1 +1 Y600,2 +1 Y600,3 +1 Y600,4 +1 Y600,5
  +1 Y600,6 +1 Y606,0 +1 Y606,1 +1 Y606,2 +1 Y606,3 +1 Y606,4 +1 Y606,5 +1 Y606,6 +1 Y607,0 +1 Y607,1
  +1 Y607,2 +1 Y607,3 +1 Y607,4 +1 Y607,5 +1 Y607,6 +1 Y608,0 +1 Y608,1 +1 Y608,2 +1 Y608,3 +1 Y608,4
  +1 Y608,5 +1 Y608,6 +1 Y609,0 +1 Y609,1 +1 Y609,2 +1 Y609,3 +1 Y609,4 +1 Y609,5 +1 Y609,6 +1 Y610,0
  +1 Y610,1 +1 Y610,2 +1 Y610,3 +1 Y610,4 +1 Y610,5 +1 Y610,6 +1 Y621,0 +1 Y621,1 +1 Y621,2 +1 Y621,3
  +1 Y621,4 +1 Y621,5 +1 Y621,6 +1 Y627,0 +1 Y627,1 +1 Y627,2 +1 Y627,3 +1 Y627,4 +1 Y627,5 +1 Y627,6
  +1 Y628,0 +1 Y628,1 +1 Y628,2 +1 Y628,3 +1 Y628,4 +1 Y628,5 +1 Y628,6 +1 Y629,0 +1 Y629,1 +1 Y629,2
  +1 Y629,3 +1 Y629,4 +1 Y629,5 +1 Y629,6 +1 Y630,0 +1 Y630,1 +1 Y630,2 +1 Y630,3 +1 Y630,4 +1 Y630,5
  +1 Y630,6 +1 Y631,0 +1 Y631,1 +1 Y631,2 +1 Y631,3 +1 Y631,4 +1 Y631,5 +1 Y631,6 +1 Y642,0 +1 Y642,1
  +1 Y642,2 +1 Y642,3 +1 Y642,4 +1 Y642,5 +1 Y642,6 +1 Y643,0 +1 Y643,1 +1 Y643,2 +1 Y643,3 +1 Y643,4
  +1 Y643,5 +1 Y643,6 +1 Y644,0 +1 Y644,1 +1 Y644,2 +1 Y644,3 +1 Y644,4 +1 Y644,5 +1 Y644,6 +1 Y645,0
  +1 Y645,1 +1 Y645,2 +1 Y645,3 +1 Y645,4 +1 Y645,5 +1 Y645,6 +1 Y646,0 +1 Y646,1 +1 Y646,2 +1 Y646,3
  +1 Y646,4 +1 Y646,5 +1 Y646,6 +1 Y657,0 +1 Y657,1 +1 Y657,2 +1 Y657,3 +1 Y657,4 +1 Y657,5 +1 Y657,6
  +1 Y658,0 +1 Y658,1 +1 Y658,2 +1 Y658,3 +1 Y658,4 +1 Y658,5 +1 Y658,6 +1 Y659,0 +1 Y659,1 +1 Y659,2
  +1 Y659,3 +1 Y659,4 +1 Y659,5 +1 Y659,6 +1 Y660,0 +1 Y660,1 +1 Y660,2 +1 Y660,3 +1 Y660,4 +1 Y660,5
  +1 Y660,6 +1 Y661,0 +1 Y661,1 +1 Y661,2 +1 Y661,3 +1 Y661,4 +1 Y661,5 +1 Y661,6 +1 Y662,0 +1 Y662,1
  +1 Y662,2 +1 Y662,3 +1 Y662,4 +1 Y662,5 +1 Y662,6 +1 Y663,0 +1 Y663,1 +1 Y663,2 +1 Y663,3 +1 Y663,4
  +1 Y663,5 +1 Y663,6 +1 Y664,0 +1 Y664,1 +1 Y664,2 +1 Y664,3 +1 Y664,4 +1 Y664,5 +1 Y664,6 +1 Y665,0
  +1 Y665,1 +1 Y665,2 +1 Y665,3 +1 Y665,4 +1 Y665,5 +1 Y665,6 +1 Y666,0 +1 Y666,1 +1 Y666,2 +1 Y666,3
  +1 Y666,4 +1 Y666,5 +1 Y666,6 +1 Y677,0 +1 Y677,1 +1 Y677,2 +1 Y677,3 +1 Y677,4 +1 Y677,5 +1 Y677,6
  +1 Y678,0 +1 Y678,1 +1 Y678,2 +1 Y678,3 +1 Y678,4 +1 Y678,5 +1 Y678,6 +1 Y679,0 +1 Y679,1 +1 Y679,2
  +1 Y679,3 +1 Y679,4 +1 Y679,5 +1 Y679,6 +1 Y680,0 +1 Y680,1 +1 Y680,2 +1 Y680,3 +1 Y680,4 +1 Y680,5
  +1 Y680,6 +1 Y681,0 +1 Y681,1 +1 Y681,2 +1 Y681,3 +1 Y681,4 +1 Y681,5 +1 Y681,6 +1 Y692,0 +1 Y692,1
  +1 Y692,2 +1 Y692,3 +1 Y692,4 +1 Y692,5 +1 Y692,6 +1 Y693,0 +1 Y693,1 +1 Y693,2 +1 Y693,3 +1 Y693,4
  +1 Y693,5 +1 Y693,6 +1 Y694,0 +1 Y694,1 +1 Y694,2 +1 Y694,3 +1 Y694,4 +1 Y694,5 +1 Y694,6 +1 Y695,0
  +1 Y695,1 +1 Y695,2 +1 Y695,3 +1 Y695,4 +1 Y695,5 +1 Y695,6 +1 Y696,0 +1 Y696,1 +1 Y696,2 +1 Y696,3
  +1 Y696,4 +1 Y696,5 +1 Y696,6 +1 Y697,0 +1 Y697,1 +1 Y697,2 +1 Y697,3 +1 Y697,4 +1 Y697,5 +1 Y697,6
  +1 Y698,0 +1 Y698,1 +1 Y698,2 +1 Y698,3 +1 Y698,4 +1 Y698,5 +1 Y698,6 +1 Y699,0 +1 Y699,1 +1 Y699,2
  +1 Y699,3 +1 Y699,4 +1 Y699,5 +1 Y699,6 +1 Y700,0 +1 Y700,1 +1 Y700,2 +1 Y700,3 +1 Y700,4 +1 Y700,5
  +1 Y700,6 +1 Y701,0 +1 Y701,1 +1 Y701,2 +1 Y701,3 +1 Y701,4 +1 Y701,5 +1 Y701,6 +1 Y712,0 +1 Y712,1
  +1 Y712,2 +1 Y712,3 +1 Y712,4 +1 Y712,5 +1 Y712,6 +1 Y713,0 +1 Y713,1 +1 Y713,2 +1 Y713,3 +1 Y713,4
  +1 Y713,5 +1 Y713,6 +1 Y714,0 +1 Y714,1 +1 Y714,2 +1 Y714,3 +1 Y714,4 +1 Y714,5 +1 Y714,6 +1 Y715,0
  +1 Y715,1 +1 Y715,2 +1 Y715,3 +1 Y715,4 +1 Y715,5 +1 Y715,6 +1 Y716,0 +1 Y716,1 +1 Y716,2 +1 Y716,3
  +1 Y716,4 +1 Y716,5 +1 Y716,6 +1 Y717,0 +1 Y717,1 +1 Y717,2 +1 Y717,3 +1 Y717,4 +1 Y717,5 +1 Y717,6
  +1 Y718,0 +1 Y718,1 +1 Y718,2 +1 Y718,3 +1 Y718,4 +1 Y718,5 +1 Y718,6 +1 Y719,0 +1 Y719,1 +1 Y719,2
  +1 Y719,3 +1 Y719,4 +1 Y719,5 +1 Y719,6 +1 Y720,0 +1 Y720,1 +1 Y720,2 +1 Y720,3 +1 Y720,4 +1 Y720,5
  +1 Y720,6 +1 Y721,0 +1 Y721,1 +1 Y721,2 +1 Y721,3 +1 Y721,4 +1 Y721,5 +1 Y721,6 +1 Y732,0 +1 Y732,1
  +1 Y732,2 +1 Y732,3 +1 Y732,4 +1 Y732,5 +1 Y732,6 +1 Y733,0 +1 Y733,1 +1 Y733,2 +1 Y733,3 +1 Y733,4
  +1 Y733,5 +1 Y733,6 +1 Y734,0 +1 Y734,1 +1 Y734,2 +1 Y734,3 +1 Y734,4 +1 Y734,5 +1 Y734,6 +1 Y735,0
  +1 Y735,1 +1 Y735,2 +1 Y735,3 +1 Y735,4 +1 Y735,5 +1 Y735,6 +1 Y736,0 +1 Y736,1 +1 Y736,2 +1 Y736,3
  +1 Y736,4 +1 Y736,5 +1 Y736,6 +1 Y737,0 +1 Y737,1 +1 Y737,2 +1 Y737,3 +1 Y737,4 +1 Y737,5 +1 Y737,6
  +1 Y738,0 +1 Y738,1 +1 Y738,2 +1 Y738,3 +1 Y738,4 +1 Y738,5 +1 Y738,6 +1 Y739,0 +1 Y739,1 +1 Y739,2
  +1 Y739,3 +1 Y739,4 +1 Y739,5 +1 Y739,6 +1 Y740,0 +1 Y740,1 +1 Y740,2 +1 Y740,3 +1 Y740,4 +1 Y740,5
  +1 Y740,6 +1 Y741,0 +1 Y741,1 +1 Y741,2 +1 Y741,3 +1 Y741,4 +1 Y741,5 +1 Y741,6 +1 Y747,0 +1 Y747,1
  +1 Y747,2 +1 Y747,3 +1 Y747,4 +1 Y747,5 +1 Y747,6 +1 Y748,0 +1 Y748,1 +1 Y748,2 +1 Y748,3 +1 Y748,4
  +1 Y748,5 +1 Y748,6 +1 Y749,0 +1 Y749,1 +1 Y749,2 +1 Y749,3 +1 Y749,4 +1 Y749,5 +1 Y749,6 +1 Y750,0
  +1 Y750,1 +1 Y750,2 +1 Y750,3 +1 Y750,4 +1 Y750,5 +1 Y750,6 +1 Y751,0 +1 Y751,1 +1 Y751,2 +1 Y751,3
  +1 Y751,4 +1 Y751,5 +1 Y751,6 +1 Y752,0 +1 Y752,1 +1 Y752,2 +1 Y752,3 +1 Y752,4 +1 Y752,5 +1 Y752,6
  +1 Y753,0 +1 Y753,1 +1 Y753,2 +1 Y753,3 +1 Y753,4 +1 Y753,5 +1 Y753,6 +1 Y754,0 +1 Y754,1 +1 Y754,2
  +1 Y754,3 +1 Y754,4 +1 Y754,5 +1 Y754,6 +1 Y755,0 +1 Y755,1 +1 Y755,2 +1 Y755,3 +1 Y755,4 +1 Y755,5
  +1 Y755,6 +1 Y756,0 +1 Y756,1 +1 Y756,2 +1 Y756,3 +1 Y756,4 +1 Y756,5 +1 Y756,6 +1 Y767,0 +1 Y767,1
  +1 Y767,2 +1 Y767,3 +1 Y767,4 +1 Y767,5 +1 Y767,6 +1 Y768,0 +1 Y768,1 +1 Y768,2 +1 Y768,3 +1 Y768,4
  +1 Y768,5 +1 Y768,6 +1 Y769,0 +1 Y769,1 +1 Y769,2 +1 Y769,3 +1 Y769,4 +1 Y769,5 +1 Y769,6 +1 Y770,0
  +1 Y770,1 +1 Y770,2 +1 Y770,3 +1 Y770,4 +1 Y770,5 +1 Y770,6 +1 Y771,0 +1 Y771,1 +1 Y771,2 +1 Y771,3
  +1 Y771,4 +1 Y771,5 +1 Y771,6 +1 Y772,0 +1 Y772,1 +1 Y772,2 +1 Y772,3 +1 Y772,4 +1 Y772,5 +1 Y772,6
  +1 Y773,0 +1 Y773,1 +1 Y773,2 +1 Y773,3 +1 Y773,4 +1 Y773,5 +1 Y773,6 +1 Y774,0 +1 Y774,1 +1 Y774,2
  +1 Y774,3 +1 Y774,4 +1 Y774,5 +1 Y774,6 +1 Y775,0 +1 Y775,1 +1 Y775,2 +1 Y775,3 +1 Y775,4 +1 Y775,5
  +1 Y775,6 +1 Y776,0 +1 Y776,1 +1 Y776,2 +1 Y776,3 +1 Y776,4 +1 Y776,5 +1 Y776,6 +1 Y782,0 +1 Y782,1
  +1 Y782,2 +1 Y782,3 +1 Y782,4 +1 Y782,5 +1 Y782,6 +1 Y783,0 +1 Y783,1 +1 Y783,2 +1 Y783,3 +1 Y783,4
  +1 Y783,5 +1 Y783,6 +1 Y784,0 +1 Y784,1 +1 Y784,2 +1 Y784,3 +1 Y784,4 +1 Y784,5 +1 Y784,6 +1 Y785,0
  +1 Y785,1 +1 Y785,2 +1 Y785,3 +1 Y785,4 +1 Y785,5 +1 Y785,6 +1 Y786,0 +1 Y786,1 +1 Y786,2 +1 Y786,3
  +1 Y786,4 +1 Y786,5 +1 Y786,6 +1 Y787,0 +1 Y787,1 +1 Y787,2 +1 Y787,3 +1 Y787,4 +1 Y787,5 +1 Y787,6
  +1 Y788,0 +1 Y788,1 +1 Y788,2 +1 Y788,3 +1 Y788,4 +1 Y788,5 +1 Y788,6 +1 Y789,0 +1 Y789,1 +1 Y789,2
  +1 Y789,3 +1 Y789,4 +1 Y789,5 +1 Y789,6 +1 Y790,0 +1 Y790,1 +1 Y790,2 +1 Y790,3 +1 Y790,4 +1 Y790,5
  +1 Y790,6 +1 Y791,0 +1 Y791,1 +1 Y791,2 +1 Y791,3 +1 Y791,4 +1 Y791,5 +1 Y791,6 +1 Y797,0 +1 Y797,1
  +1 Y797,2 +1 Y797,3 +1 Y797,4 +1 Y797,5 +1 Y797,6 +1 Y798,0 +1 Y798,1 +1 Y798,2 +1 Y798,3 +1 Y798,4
  +1 Y798,5 +1 Y798,6 +1 Y799,0 +1 Y799,1 +1 Y799,2 +1 Y799,3 +1 Y799,4 +1 Y799,5 +1 Y799,6 +1 Y800,0
  +1 Y800,1 +1 Y800,2 +1 Y800,3 +1 Y800,4 +1 Y800,5 +1 Y800,6 +1 Y801,0 +1 Y801,1 +1 Y801,2 +1 Y801,3
  +1 Y801,4 +1 Y801,5 +1 Y801,6 +1 Y803,0 +1 Y803,1 +1 Y803,2 +1 Y803,3 +1 Y803,4 +1 Y803,5 +1 Y803,6
  +1 Y804,0 +1 Y804,1 +1 Y804,2 +1 Y804,3 +1 Y804,4 +1 Y804,5 +1 Y804,6 +1 Y805,0 +1 Y805,1 +1 Y805,2
  +1 Y805,3 +1 Y805,4 +1 Y805,5 +1 Y805,6 +1 Y806,0 +1 Y806,1 +1 Y806,2 +1 Y806,3 +1 Y806,4 +1 Y806,5
  +1 Y806,6 +1 Y807,0 +1 Y807,1 +1 Y807,2 +1 Y807,3 +1 Y807,4 +1 Y807,5 +1 Y807,6 +1 Y808,0 +1 Y808,1
  +1 Y808,2 +1 Y808,3 +1 Y808,4 +1 Y808,5 +1 Y808,6 +1 Y809,0 +1 Y809,1 +1 Y809,2 +1 Y809,3 +1 Y809,4
  +1 Y809,5 +1 Y809,6 +1 Y810,0 +1 Y810,1 +1 Y810,2 +1 Y810,3 +1 Y810,4 +1 Y810,5 +1 Y810,6 +1 Y811,0
  +1 Y811,1 +1 Y811,2 +1 Y811,3 +1 Y811,4 +1 Y811,5 +1 Y811,6 +1 Y812,0 +1 Y812,1 +1 Y812,2 +1 Y812,3
  +1 Y812,4 +1 Y812,5 +1 Y812,6 +1 Y818,0 +1 Y818,1 +1 Y818,2 +1 Y818,3 +1 Y818,4 +1 Y818,5 +1 Y818,6
  +1 Y819,0 +1 Y819,1 +1 Y819,2 +1 Y819,3 +1 Y819,4 +1 Y819,5 +1 Y819,6 +1 Y820,0 +1 Y820,1 +1 Y820,2
  +1 Y820,3 +1 Y820,4 +1 Y820,5 +1 Y820,6 +1 Y821,0 +1 Y821,1 +1 Y821,2 +1 Y821,3 +1 Y821,4 +1 Y821,5
  +1 Y821,6 +1 Y822,0 +1 Y822,1 +1 Y822,2 +1 Y822,3 +1 Y822,4 +1 Y822,5 +1 Y822,6 +1 Y824,0 +1 Y824,1
  +1 Y824,2 +1 Y824,3 +1 Y824,4 +1 Y824,5 +1 Y824,6 +1 Y825,0 +1 Y825,1 +1 Y825,2 +1 Y825,3 +1 Y825,4
  +1 Y825,5 +1 Y825,6 +1 Y826,0 +1 Y826,1 +1 Y826,2 +1 Y826,3 +1 Y826,4 +1 Y826,5 +1 Y826,6 +1 Y827,0
  +1 Y827,1 +1 Y827,2 +1 Y827,3 +1 Y827,4 +1 Y827,5 +1 Y827,6 +1 Y828,0 +1 Y828,1 +1 Y828,2 +1 Y828,3
  +1 Y828,4 +1 Y828,5 +1 Y828,6 +1 Y830,0 +1 Y830,1 +1 Y830,2 +1 Y830,3 +1 Y830,4 +1 Y830,5 +1 Y830,6
  +1 Y831,0 +1 Y831,1 +1 Y831,2 +1 Y831,3 +1 Y831,4 +1 Y831,5 +1 Y831,6 +1 Y832,0 +1 Y832,1 +1 Y832,2
  +1 Y832,3 +1 Y832,4 +1 Y832,5 +1 Y832,6 +1 Y833,0 +1 Y833,1 +1 Y833,2 +1 Y833,3 +1 Y833,4 +1 Y833,5
  +1 Y833,6 +1 Y834,0 +1 Y834,1 +1 Y834,2 +1 Y834,3 +1 Y834,4 +1 Y834,5 +1 Y834,6 +1 Y835,0 +1 Y835,1
  +1 Y835,2 +1 Y835,3 +1 Y835,4 +1 Y835,5 +1 Y835,6 +1 Y837,0 +1 Y837,1 +1 Y837,2 +1 Y837,3 +1 Y837,4
  +1 Y837,5 +1 Y837,6 +1 Y838,0 +1 Y838,1 +1 Y838,2 +1 Y838,3 +1 Y838,4 +1 Y838,5 +1 Y838,6 +1 Y839,0
  +1 Y839,1 +1 Y839,2 +1 Y839,3 +1 Y839,4 +1 Y839,5 +1 Y839,6 = +1
 c18: +1 Y2,0 +1 Y2,1 +1 Y2,2 +1 Y2,3 +1 Y2,4 +1 Y2,5 +1 Y2,6 +1 Y6,0 +1 Y6,1 +1 Y6,2 +1 Y6,3 +1 Y6,4
  +1 Y6,5 +1 Y6,6 +1 Y9,0 +1 Y9,1 +1 Y9,2 +1 Y9,3 +1 Y9,4 +1 Y9,5 +1 Y9,6 +1 Y12,0 +1 Y12,1 +1 Y12,2 +1 Y12,3
  +1 Y12,4 +1 Y12,5 +1 Y12,6 +1 Y13,0 +1 Y13,1 +1 Y13,2 +1 Y13,3 +1 Y13,4 +1 Y13,5 +1 Y13,6 +1 Y15,0 +1 Y15,1
  +1 Y15,2 +1 Y15,3 +1 Y15,4 +1 Y15,5 +1 Y15,6 +1 Y18,0 +1 Y18,1 +1 Y18,2 +1 Y18,3 +1 Y18,4 +1 Y18,5 +1 Y18,6
  +1 Y19,0 +1 Y19,1 +1 Y19,2 +1 Y19,3 +1 Y19,4 +1 Y19,5 +1 Y19,6 +1 Y21,0 +1 Y21,1 +1 Y21,2 +1 Y21,3 +1 Y21,4
  +1 Y21,5 +1 Y21,6 +1 Y22,0 +1 Y22,1 +1 Y22,2 +1 Y22,3 +1 Y22,4 +1 Y22,5 +1 Y22,6 +1 Y24,0 +1 Y24,1 +1 Y24,2
  +1 Y24,3 +1 Y24,4 +1 Y24,5 +1 Y24,6 +1 Y25,0 +1 Y25,1 +1 Y25,2 +1 Y25,3 +1 Y25,4 +1 Y25,5 +1 Y25,6 +1 Y26,0
  +1 Y26,1 +1 Y26,2 +1 Y26,3 +1 Y26,4 +1 Y26,5 +1 Y26,6 +1 Y28,0 +1 Y28,1 +1 Y28,2 +1 Y28,3 +1 Y28,4 +1 Y28,5
  +1 Y28,6 +1 Y29,0 +1 Y29,1 +1 Y29,2 +1 Y29,3 +1 Y29,4 +1 Y29,5 +1 Y29,6 +1 Y30,0 +1 Y30,1 +1 Y30,2 +1 Y30,3
  +1 Y30,4 +1 Y30,5 +1 Y30,6 = +1
 c19: +1 Y353,0 +1 Y353,1 +1 Y353,2 +1 Y353,3 +1 Y353,4 +1 Y353,5 +1 Y353,6 +1 Y359,0 +1 Y359,1 +1 Y359,2
  +1 Y359,3 +1 Y359,4 +1 Y359,5 +1 Y359,6 +1 Y364,0 +1 Y364,1 +1 Y364,2 +1 Y364,3 +1 Y364,4 +1 Y364,5
  +1 Y364,6 +1 Y368,0 +1 Y368,1 +1 Y368,2 +1 Y368,3 +1 Y368,4 +1 Y368,5 +1 Y368,6 +1 Y371,0 +1 Y371,1
  +1 Y371,2 +1 Y371,3 +1 Y371,4 +1 Y371,5 +1 Y371,6 +1 Y374,0 +1 Y374,1 +1 Y374,2 +1 Y374,3 +1 Y374,4
  +1 Y374,5 +1 Y374,6 +1 Y375,0 +1 Y375,1 +1 Y375,2 +1 Y375,3 +1 Y375,4 +1 Y375,5 +1 Y375,6 +1 Y379,0
  +1 Y379,1 +1 Y379,2 +1 Y379,3 +1 Y379,4 +1 Y379,5 +1 Y379,6 +1 Y383,0 +1 Y383,1 +1 Y383,2 +1 Y383,3
  +1 Y383,4 +1 Y383,5 +1 Y383,6 +1 Y386,0 +1 Y386,1 +1 Y386,2 +1 Y386,3 +1 Y386,4 +1 Y386,5 +1 Y386,6
  +1 Y389,0 +1 Y389,1 +1 Y389,2 +1 Y389,3 +1 Y389,4 +1 Y389,5 +1 Y389,6 +1 Y390,0 +1 Y390,1 +1 Y390,2
  +1 Y390,3 +1 Y390,4 +1 Y390,5 +1 Y390,6 +1 Y393,0 +1 Y393,1 +1 Y393,2 +1 Y393,3 +1 Y393,4 +1 Y393,5
  +1 Y393,6 +1 Y396,0 +1 Y396,1 +1 Y396,2 +1 Y396,3 +1 Y396,4 +1 Y396,5 +1 Y396,6 +1 Y399,0 +1 Y399,1
  +1 Y399,2 +1 Y399,3 +1 Y399,4 +1 Y399,5 +1 Y399,6 +1 Y400,0 +1 Y400,1 +1 Y400,2 +1 Y400,3 +1 Y400,4
  +1 Y400,5 +1 Y400,6 +1 Y402,0 +1 Y402,1 +1 Y402,2 +1 Y402,3 +1 Y402,4 +1 Y402,5 +1 Y402,6 +1 Y405,0
  +1 Y405,1 +1 Y405,2 +1 Y405,3 +1 Y405,4 +1 Y405,5 +1 Y405,6 +1 Y406,0 +1 Y406,1 +1 Y406,2 +1 Y406,3
  +1 Y406,4 +1 Y406,5 +1 Y406,6 +1 Y408,0 +1 Y408,1 +1 Y408,2 +1 Y408,3 +1 Y408,4 +1 Y408,5 +1 Y408,6
  +1 Y409,0 +1 Y409,1 +1 Y409,2 +1 Y409,3 +1 Y409,4 +1 Y409,5 +1 Y409,6 +1 Y411,0 +1 Y411,1 +1 Y411,2
  +1 Y411,3 +1 Y411,4 +1 Y411,5 +1 Y411,6 +1 Y413,0 +1 Y413,1 +1 Y413,2 +1 Y413,3 +1 Y413,4 +1 Y413,5
  +1 Y413,6 +1 Y416,0 +1 Y416,1 +1 Y416,2 +1 Y416,3 +1 Y416,4 +1 Y416,5 +1 Y416,6 +1 Y419,0 +1 Y419,1
  +1 Y419,2 +1 Y419,3 +1 Y419,4 +1 Y419,5 +1 Y419,6 +1 Y420,0 +1 Y420,1 +1 Y420,2 +1 Y420,3 +1 Y420,4
  +1 Y420,5 +1 Y420,6 +1 Y422,0 +1 Y422,1 +1 Y422,2 +1 Y422,3 +1 Y422,4 +1 Y422,5 +1 Y422,6 +1 Y425,0
  +1 Y425,1 +1 Y425,2 +1 Y425,3 +1 Y425,4 +1 Y425,5 +1 Y425,6 +1 Y426,0 +1 Y426,1 +1 Y426,2 +1 Y426,3
  +1 Y426,4 +1 Y426,5 +1 Y426,6 +1 Y428,0 +1 Y428,1 +1 Y428,2 +1 Y428,3 +1 Y428,4 +1 Y428,5 +1 Y428,6
  +1 Y429,0 +1 Y429,1 +1 Y429,2 +1 Y429,3 +1 Y429,4 +1 Y429,5 +1 Y429,6 +1 Y431,0 +1 Y431,1 +1 Y431,2
  +1 Y431,3 +1 Y431,4 +1 Y431,5 +1 Y431,6 +1 Y432,0 +1 Y432,1 +1 Y432,2 +1 Y432,3 +1 Y432,4 +1 Y432,5
  +1 Y432,6 +1 Y435,0 +1 Y435,1 +1 Y435,2 +1 Y435,3 +1 Y435,4 +1 Y435,5 +1 Y435,6 +1 Y436,0 +1 Y436,1
  +1 Y436,2 +1 Y436,3 +1 Y436,4 +1 Y436,5 +1 Y436,6 +1 Y438,0 +1 Y438,1 +1 Y438,2 +1 Y438,3 +1 Y438,4
  +1 Y438,5 +1 Y438,6 +1 Y439,0 +1 Y439,1 +1 Y439,2 +1 Y439,3 +1 Y439,4 +1 Y439,5 +1 Y439,6 +1 Y441,0
  +1 Y441,1 +1 Y441,2 +1 Y441,3 +1 Y441,4 +1 Y441,5 +1 Y441,6 +1 Y442,0 +1 Y442,1 +1 Y442,2 +1 Y442,3
  +1 Y442,4 +1 Y442,5 +1 Y442,6 +1 Y443,0 +1 Y443,1 +1 Y443,2 +1 Y443,3 +1 Y443,4 +1 Y443,5 +1 Y443,6
  +1 Y445,0 +1 Y445,1 +1 Y445,2 +1 Y445,3 +1 Y445,4 +1 Y445,5 +1 Y445,6 +1 Y446,0 +1 Y446,1 +1 Y446,2
  +1 Y446,3 +1 Y446,4 +1 Y446,5 +1 Y446,6 +1 Y447,0 +1 Y447,1 +1 Y447,2 +1 Y447,3 +1 Y447,4 +1 Y447,5
  +1 Y447,6 +1 Y450,0 +1 Y450,1 +1 Y450,2 +1 Y450,3 +1 Y450,4 +1 Y450,5 +1 Y450,6 +1 Y451,0 +1 Y451,1
  +1 Y451,2 +1 Y451,3 +1 Y451,4 +1 Y451,5 +1 Y451,6 +1 Y453,0 +1 Y453,1 +1 Y453,2 +1 Y453,3 +1 Y453,4
  +1 Y453,5 +1 Y453,6 +1 Y454,0 +1 Y454,1 +1 Y454,2 +1 Y454,3 +1 Y454,4 +1 Y454,5 +1 Y454,6 +1 Y456,0
  +1 Y456,1 +1 Y456,2 +1 Y456,3 +1 Y456,4 +1 Y456,5 +1 Y456,6 +1 Y457,0 +1 Y457,1 +1 Y457,2 +1 Y457,3
  +1 Y457,4 +1 Y457,5 +1 Y457,6 +1 Y458,0 +1 Y458,1 +1 Y458,2 +1 Y458,3 +1 Y458,4 +1 Y458,5 +1 Y458,6
  +1 Y460,0 +1 Y460,1 +1 Y460,2 +1 Y460,3 +1 Y460,4 +1 Y460,5 +1 Y460,6 +1 Y461,0 +1 Y461,1 +1 Y461,2
  +1 Y461,3 +1 Y461,4 +1 Y461,5 +1 Y461,6 +1 Y462,0 +1 Y462,1 +1 Y462,2 +1 Y462,3 +1 Y462,4 +1 Y462,5
  +1 Y462,6 +1 Y463,0 +1 Y463,1 +1 Y463,2 +1 Y463,3 +1 Y463,4 +1 Y463,5 +1 Y463,6 +1 Y465,0 +1 Y465,1
  +1 Y465,2 +1 Y465,3 +1 Y465,4 +1 Y465,5 +1 Y465,6 +1 Y466,0 +1 Y466,1 +1 Y466,2 +1 Y466,3 +1 Y466,4
  +1 Y466,5 +1 Y466,6 +1 Y467,0 +1 Y467,1 +1 Y467,2 +1 Y467,3 +1 Y467,4 +1 Y467,5 +1 Y467,6 +1 Y468,0
  +1 Y468,1 +1 Y468,2 +1 Y468,3 +1 Y468,4 +1 Y468,5 +1 Y468,6 +1 Y469,0 +1 Y469,1 +1 Y469,2 +1 Y469,3
  +1 Y469,4 +1 Y469,5 +1 Y469,6 +1 Y471,0 +1 Y471,1 +1 Y471,2 +1 Y471,3 +1 Y471,4 +1 Y471,5 +1 Y471,6
  +1 Y472,0 +1 Y472,1 +1 Y472,2 +1 Y472,3 +1 Y472,4 +1 Y472,5 +1 Y472,6 +1 Y473,0 +1 Y473,1 +1 Y473,2
  +1 Y473,3 +1 Y473,4 +1 Y473,5 +1 Y473,6 +1 Y474,0 +1 Y474,1 +1 Y474,2 +1 Y474,3 +1 Y474,4 +1 Y474,5
  +1 Y474,6 +1 Y475,0 +1 Y475,1 +1 Y475,2 +1 Y475,3 +1 Y475,4 +1 Y475,5 +1 Y475,6 = +1
 c20: +1 Y478,0 +1 Y478,1 +1 Y478,2 +1 Y478,3 +1 Y478,4 +1 Y478,5 +1 Y478,6 +1 Y483,0 +1 Y483,1 +1 Y483,2
  +1 Y483,3 +1 Y483,4 +1 Y483,5 +1 Y483,6 +1 Y487,0 +1 Y487,1 +1 Y487,2 +1 Y487,3 +1 Y487,4 +1 Y487,5
  +1 Y487,6 +1 Y491,0 +1 Y491,1 +1 Y491,2 +1 Y491,3 +1 Y491,4 +1 Y491,5 +1 Y491,6 +1 Y492,0 +1 Y492,1
  +1 Y492,2 +1 Y492,3 +1 Y492,4 +1 Y492,5 +1 Y492,6 +1 Y493,0 +1 Y493,1 +1 Y493,2 +1 Y493,3 +1 Y493,4
  +1 Y493,5 +1 Y493,6 +1 Y497,0 +1 Y497,1 +1 Y497,2 +1 Y497,3 +1 Y497,4 +1 Y497,5 +1 Y497,6 +1 Y501,0
  +1 Y501,1 +1 Y501,2 +1 Y501,3 +1 Y501,4 +1 Y501,5 +1 Y501,6 +1 Y502,0 +1 Y502,1 +1 Y502,2 +1 Y502,3
  +1 Y502,4 +1 Y502,5 +1 Y502,6 +1 Y503,0 +1 Y503,1 +1 Y503,2 +1 Y503,3 +1 Y503,4 +1 Y503,5 +1 Y503,6
  +1 Y507,0 +1 Y507,1 +1 Y507,2 +1 Y507,3 +1 Y507,4 +1 Y507,5 +1 Y507,6 +1 Y508,0 +1 Y508,1 +1 Y508,2
  +1 Y508,3 +1 Y508,4 +1 Y508,5 +1 Y508,6 +1 Y509,0 +1 Y509,1 +1 Y509,2 +1 Y509,3 +1 Y509,4 +1 Y509,5
  +1 Y509,6 +1 Y513,0 +1 Y513,1 +1 Y513,2 +1 Y513,3 +1 Y513,4 +1 Y513,5 +1 Y513,6 +1 Y514,0 +1 Y514,1
  +1 Y514,2 +1 Y514,3 +1 Y514,4 +1 Y514,5 +1 Y514,6 +1 Y515,0 +1 Y515,1 +1 Y515,2 +1 Y515,3 +1 Y515,4
  +1 Y515,5 +1 Y515,6 +1 Y517,0 +1 Y517,1 +1 Y517,2 +1 Y517,3 +1 Y517,4 +1 Y517,5 +1 Y517,6 +1 Y518,0
  +1 Y518,1 +1 Y518,2 +1 Y518,3 +1 Y518,4 +1 Y518,5 +1 Y518,6 +1 Y519,0 +1 Y519,1 +1 Y519,2 +1 Y519,3
  +1 Y519,4 +1 Y519,5 +1 Y519,6 +1 Y523,0 +1 Y523,1 +1 Y523,2 +1 Y523,3 +1 Y523,4 +1 Y523,5 +1 Y523,6
  +1 Y524,0 +1 Y524,1 +1 Y524,2 +1 Y524,3 +1 Y524,4 +1 Y524,5 +1 Y524,6 +1 Y525,0 +1 Y525,1 +1 Y525,2
  +1 Y525,3 +1 Y525,4 +1 Y525,5 +1 Y525,6 +1 Y527,0 +1 Y527,1 +1 Y527,2 +1 Y527,3 +1 Y527,4 +1 Y527,5
  +1 Y527,6 +1 Y528,0 +1 Y528,1 +1 Y528,2 +1 Y528,3 +1 Y528,4 +1 Y528,5 +1 Y528,6 +1 Y529,0 +1 Y529,1
  +1 Y529,2 +1 Y529,3 +1 Y529,4 +1 Y529,5 +1 Y529,6 +1 Y531,0 +1 Y531,1 +1 Y531,2 +1 Y531,3 +1 Y531,4
  +1 Y531,5 +1 Y531,6 +1 Y532,0 +1 Y532,1 +1 Y532,2 +1 Y532,3 +1 Y532,4 +1 Y532,5 +1 Y532,6 +1 Y533,0
  +1 Y533,1 +1 Y533,2 +1 Y533,3 +1 Y533,4 +1 Y533,5 +1 Y533,6 +1 Y534,0 +1 Y534,1 +1 Y534,2 +1 Y534,3
  +1 Y534,4 +1 Y534,5 +1 Y534,6 +1 Y536,0 +1 Y536,1 +1 Y536,2 +1 Y536,3 +1 Y536,4 +1 Y536,5 +1 Y536,6
  +1 Y537,0 +1 Y537,1 +1 Y537,2 +1 Y537,3 +1 Y537,4 +1 Y537,5 +1 Y537,6 +1 Y538,0 +1 Y538,1 +1 Y538,2
  +1 Y538,3 +1 Y538,4 +1 Y538,5 +1 Y538,6 = +1
 c21: +1 Y840,0 +1 Y840,1 +1 Y840,2 +1 Y840,3 +1 Y840,4 +1 Y840,5 +1 Y840,6 +1 Y842,0 +1 Y842,1 +1 Y842,2
  +1 Y842,3 +1 Y842,4 +1 Y842,5 +1 Y842,6 = +1
 c22: +1 Y843,0 +1 Y843,1 +1 Y843,2 +1 Y843,3 +1 Y843,4 +1 Y843,5 +1 Y843,6 +1 Y847,0 +1 Y847,1 +1 Y847,2
  +1 Y847,3 +1 Y847,4 +1 Y847,5 +1 Y847,6 +1 Y848,0 +1 Y848,1 +1 Y848,2 +1 Y848,3 +1 Y848,4 +1 Y848,5
  +1 Y848,6 +1 Y849,0 +1 Y849,1 +1 Y849,2 +1 Y849,3 +1 Y849,4 +1 Y849,5 +1 Y849,6 +1 Y853,0 +1 Y853,1
  +1 Y853,2 +1 Y853,3 +1 Y853,4 +1 Y853,5 +1 Y853,6 +1 Y854,0 +1 Y854,1 +1 Y854,2 +1 Y854,3 +1 Y854,4
  +1 Y854,5 +1 Y854,6 +1 Y855,0 +1 Y855,1 +1 Y855,2 +1 Y855,3 +1 Y855,4 +1 Y855,5 +1 Y855,6 +1 Y857,0
  +1 Y857,1 +1 Y857,2 +1 Y857,3 +1 Y857,4 +1 Y857,5 +1 Y857,6 = +1
 c23: +1 Y588,0 +1 Y588,1 +1 Y588,2 +1 Y588,3 +1 Y588,4 +1 Y588,5 +1 Y588,6 +1 Y595,0 +1 Y595,1 +1 Y595,2
  +1 Y595,3 +1 Y595,4 +1 Y595,5 +1 Y595,6 +1 Y601,0 +1 Y601,1 +1 Y601,2 +1 Y601,3 +1 Y601,4 +1 Y601,5
  +1 Y601,6 +1 Y606,0 +1 Y606,1 +1 Y606,2 +1 Y606,3 +1 Y606,4 +1 Y606,5 +1 Y606,6 +1 Y611,0 +1 Y611,1
  +1 Y611,2 +1 Y611,3 +1 Y611,4 +1 Y611,5 +1 Y611,6 +1 Y612,0 +1 Y612,1 +1 Y612,2 +1 Y612,3 +1 Y612,4
  +1 Y612,5 +1 Y612,6 +1 Y613,0 +1 Y613,1 +1 Y613,2 +1 Y613,3 +1 Y613,4 +1 Y613,5 +1 Y613,6 +1 Y614,0
  +1 Y614,1 +1 Y614,2 +1 Y614,3 +1 Y614,4 +1 Y614,5 +1 Y614,6 +1 Y622,0 +1 Y622,1 +1 Y622,2 +1 Y622,3
  +1 Y622,4 +1 Y622,5 +1 Y622,6 +1 Y627,0 +1 Y627,1 +1 Y627,2 +1 Y627,3 +1 Y627,4 +1 Y627,5 +1 Y627,6
  +1 Y632,0 +1 Y632,1 +1 Y632,2 +1 Y632,3 +1 Y632,4 +1 Y632,5 +1 Y632,6 +1 Y633,0 +1 Y633,1 +1 Y633,2
  +1 Y633,3 +1 Y633,4 +1 Y633,5 +1 Y633,6 +1 Y634,0 +1 Y634,1 +1 Y634,2 +1 Y634,3 +1 Y634,4 +1 Y634,5
  +1 Y634,6 +1 Y635,0 +1 Y635,1 +1 Y635,2 +1 Y635,3 +1 Y635,4 +1 Y635,5 +1 Y635,6 +1 Y642,0 +1 Y642,1
  +1 Y642,2 +1 Y642,3 +1 Y642,4 +1 Y642,5 +1 Y642,6 +1 Y647,0 +1 Y647,1 +1 Y647,2 +1 Y647,3 +1 Y647,4
  +1 Y647,5 +1 Y647,6 +1 Y648,0 +1 Y648,1 +1 Y648,2 +1 Y648,3 +1 Y648,4 +1 Y648,5 +1 Y648,6 +1 Y649,0
  +1 Y649,1 +1 Y649,2 +1 Y649,3 +1 Y649,4 +1 Y649,5 +1 Y649,6 +1 Y650,0 +1 Y650,1 +1 Y650,2 +1 Y650,3
  +1 Y650,4 +1 Y650,5 +1 Y650,6 +1 Y657,0 +1 Y657,1 +1 Y657,2 +1 Y657,3 +1 Y657,4 +1 Y657,5 +1 Y657,6
  +1 Y658,0 +1 Y658,1 +1 Y658,2 +1 Y658,3 +1 Y658,4 +1 Y658,5 +1 Y658,6 +1 Y659,0 +1 Y659,1 +1 Y659,2
  +1 Y659,3 +1 Y659,4 +1 Y659,5 +1 Y659,6 +1 Y660,0 +1 Y660,1 +1 Y660,2 +1 Y660,3 +1 Y660,4 +1 Y660,5
  +1 Y660,6 +1 Y667,0 +1 Y667,1 +1 Y667,2 +1 Y667,3 +1 Y667,4 +1 Y667,5 +1 Y667,6 +1 Y668,0 +1 Y668,1
  +1 Y668,2 +1 Y668,3 +1 Y668,4 +1 Y668,5 +1 Y668,6 +1 Y669,0 +1 Y669,1 +1 Y669,2 +1 Y669,3 +1 Y669,4
  +1 Y669,5 +1 Y669,6 +1 Y670,0 +1 Y670,1 +1 Y670,2 +1 Y670,3 +1 Y670,4 +1 Y670,5 +1 Y670,6 +1 Y671,0
  +1 Y671,1 +1 Y671,2 +1 Y671,3 +1 Y671,4 +1 Y671,5 +1 Y671,6 +1 Y672,0 +1 Y672,1 +1 Y672,2 +1 Y672,3
  +1 Y672,4 +1 Y672,5 +1 Y672,6 +1 Y677,0 +1 Y677,1 +1 Y677,2 +1 Y677,3 +1 Y677,4 +1 Y677,5 +1 Y677,6
  +1 Y682,0 +1 Y682,1 +1 Y682,2 +1 Y682,3 +1 Y682,4 +1 Y682,5 +1 Y682,6 +1 Y683,0 +1 Y683,1 +1 Y683,2
  +1 Y683,3 +1 Y683,4 +1 Y683,5 +1 Y683,6 +1 Y684,0 +1 Y684,1 +1 Y684,2 +1 Y684,3 +1 Y684,4 +1 Y684,5
  +1 Y684,6 +1 Y685,0 +1 Y685,1 +1 Y685,2 +1 Y685,3 +1 Y685,4 +1 Y685,5 +1 Y685,6 +1 Y692,0 +1 Y692,1
  +1 Y692,2 +1 Y692,3 +1 Y692,4 +1 Y692,5 +1 Y692,6 +1 Y693,0 +1 Y693,1 +1 Y693,2 +1 Y693,3 +1 Y693,4
  +1 Y693,5 +1 Y693,6 +1 Y694,0 +1 Y694,1 +1 Y694,2 +1 Y694,3 +1 Y694,4 +1 Y694,5 +1 Y694,6 +1 Y695,0
  +1 Y695,1 +1 Y695,2 +1 Y695,3 +1 Y695,4 +1 Y695,5 +1 Y695,6 +1 Y702,0 +1 Y702,1 +1 Y702,2 +1 Y702,3
  +1 Y702,4 +1 Y702,5 +1 Y702,6 +1 Y703,0 +1 Y703,1 +1 Y703,2 +1 Y703,3 +1 Y703,4 +1 Y703,5 +1 Y703,6
  +1 Y704,0 +1 Y704,1 +1 Y704,2 +1 Y704,3 +1 Y704,4 +1 Y704,5 +1 Y704,6 +1 Y705,0 +1 Y705,1 +1 Y705,2
  +1 Y705,3 +1 Y705,4 +1 Y705,5 +1 Y705,6 +1 Y706,0 +1 Y706,1 +1 Y706,2 +1 Y706,3 +1 Y706,4 +1 Y706,5
  +1 Y706,6 +1 Y707,0 +1 Y707,1 +1 Y707,2 +1 Y707,3 +1 Y707,4 +1 Y707,5 +1 Y707,6 +1 Y712,0 +1 Y712,1
  +1 Y712,2 +1 Y712,3 +1 Y712,4 +1 Y712,5 +1 Y712,6 +1 Y713,0 +1 Y713,1 +1 Y713,2 +1 Y713,3 +1 Y713,4
  +1 Y713,5 +1 Y713,6 +1 Y714,0 +1 Y714,1 +1 Y714,2 +1 Y714,3 +1 Y714,4 +1 Y714,5 +1 Y714,6 +1 Y715,0
  +1 Y715,1 +1 Y715,2 +1 Y715,3 +1 Y715,4 +1 Y715,5 +1 Y715,6 +1 Y722,0 +1 Y722,1 +1 Y722,2 +1 Y722,3
  +1 Y722,4 +1 Y722,5 +1 Y722,6 +1 Y723,0 +1 Y723,1 +1 Y723,2 +1 Y723,3 +1 Y723,4 +1 Y723,5 +1 Y723,6
  +1 Y724,0 +1 Y724,1 +1 Y724,2 +1 Y724,3 +1 Y724,4 +1 Y724,5 +1 Y724,6 +1 Y725,0 +1 Y725,1 +1 Y725,2
  +1 Y725,3 +1 Y725,4 +1 Y725,5 +1 Y725,6 +1 Y726,0 +1 Y726,1 +1 Y726,2 +1 Y726,3 +1 Y726,4 +1 Y726,5
  +1 Y726,6 +1 Y727,0 +1 Y727,1 +1 Y727,2 +1 Y727,3 +1 Y727,4 +1 Y727,5 +1 Y727,6 +1 Y732,0 +1 Y732,1
  +1 Y732,2 +1 Y732,3 +1 Y732,4 +1 Y732,5 +1 Y732,6 +1 Y733,0 +1 Y733,1 +1 Y733,2 +1 Y733,3 +1 Y733,4
  +1 Y733,5 +1 Y733,6 +1 Y734,0 +1 Y734,1 +1 Y734,2 +1 Y734,3 +1 Y734,4 +1 Y734,5 +1 Y734,6 +1 Y735,0
  +1 Y735,1 +1 Y735,2 +1 Y735,3 +1 Y735,4 +1 Y735,5 +1 Y735,6 +1 Y736,0 +1 Y736,1 +1 Y736,2 +1 Y736,3
  +1 Y736,4 +1 Y736,5 +1 Y736,6 +1 Y737,0 +1 Y737,1 +1 Y737,2 +1 Y737,3 +1 Y737,4 +1 Y737,5 +1 Y737,6
  +1 Y742,0 +1 Y742,1 +1 Y742,2 +1 Y742,3 +1 Y742,4 +1 Y742,5 +1 Y742,6 +1 Y743,0 +1 Y743,1 +1 Y743,2
  +1 Y743,3 +1 Y743,4 +1 Y743,5 +1 Y743,6 +1 Y744,0 +1 Y744,1 +1 Y744,2 +1 Y744,3 +1 Y744,4 +1 Y744,5
  +1 Y744,6 +1 Y745,0 +1 Y745,1 +1 Y745,2 +1 Y745,3 +1 Y745,4 +1 Y745,5 +1 Y745,6 +1 Y747,0 +1 Y747,1
  +1 Y747,2 +1 Y747,3 +1 Y747,4 +1 Y747,5 +1 Y747,6 +1 Y748,0 +1 Y748,1 +1 Y748,2 +1 Y748,3 +1 Y748,4
  +1 Y748,5 +1 Y748,6 +1 Y749,0 +1 Y749,1 +1 Y749,2 +1 Y749,3 +1 Y749,4 +1 Y749,5 +1 Y749,6 +1 Y750,0
  +1 Y750,1 +1 Y750,2 +1 Y750,3 +1 Y750,4 +1 Y750,5 +1 Y750,6 +1 Y757,0 +1 Y757,1 +1 Y757,2 +1 Y757,3
  +1 Y757,4 +1 Y757,5 +1 Y757,6 +1 Y758,0 +1 Y758,1 +1 Y758,2 +1 Y758,3 +1 Y758,4 +1 Y758,5 +1 Y758,6
  +1 Y759,0 +1 Y759,1 +1 Y759,2 +1 Y759,3 +1 Y759,4 +1 Y759,5 +1 Y759,6 +1 Y760,0 +1 Y760,1 +1 Y760,2
  +1 Y760,3 +1 Y760,4 +1 Y760,5 +1 Y760,6 +1 Y761,0 +1 Y761,1 +1 Y761,2 +1 Y761,3 +1 Y761,4 +1 Y761,5
  +1 Y761,6 +1 Y762,0 +1 Y762,1 +1 Y762,2 +1 Y762,3 +1 Y762,4 +1 Y762,5 +1 Y762,6 +1 Y767,0 +1 Y767,1
  +1 Y767,2 +1 Y767,3 +1 Y767,4 +1 Y767,5 +1 Y767,6 +1 Y768,0 +1 Y768,1 +1 Y768,2 +1 Y768,3 +1 Y768,4
  +1 Y768,5 +1 Y768,6 +1 Y769,0 +1 Y769,1 +1 Y769,2 +1 Y769,3 +1 Y769,4 +1 Y769,5 +1 Y769,6 +1 Y770,0
  +1 Y770,1 +1 Y770,2 +1 Y770,3 +1 Y770,4 +1 Y770,5 +1 Y770,6 +1 Y771,0 +1 Y771,1 +1 Y771,2 +1 Y771,3
  +1 Y771,4 +1 Y771,5 +1 Y771,6 +1 Y772,0 +1 Y772,1 +1 Y772,2 +1 Y772,3 +1 Y772,4 +1 Y772,5 +1 Y772,6
  +1 Y777,0 +1 Y777,1 +1 Y777,2 +1 Y777,3 +1 Y777,4 +1 Y777,5 +1 Y777,6 +1 Y778,0 +1 Y778,1 +1 Y778,2
  +1 Y778,3 +1 Y778,4 +1 Y778,5 +1 Y778,6 +1 Y779,0 +1 Y779,1 +1 Y779,2 +1 Y779,3 +1 Y779,4 +1 Y779,5
  +1 Y779,6 +1 Y780,0 +1 Y780,1 +1 Y780,2 +1 Y780,3 +1 Y780,4 +1 Y780,5 +1 Y780,6 +1 Y782,0 +1 Y782,1
  +1 Y782,2 +1 Y782,3 +1 Y782,4 +1 Y782,5 +1 Y782,6 +1 Y783,0 +1 Y783,1 +1 Y783,2 +1 Y783,3 +1 Y783,4
  +1 Y783,5 +1 Y783,6 +1 Y784,0 +1 Y784,1 +1 Y784,2 +1 Y784,3 +1 Y784,4 +1 Y784,5 +1 Y784,6 +1 Y785,0
  +1 Y785,1 +1 Y785,2 +1 Y785,3 +1 Y785,4 +1 Y785,5 +1 Y785,6 +1 Y786,0 +1 Y786,1 +1 Y786,2 +1 Y786,3
  +1 Y786,4 +1 Y786,5 +1 Y786,6 +1 Y787,0 +1 Y787,1 +1 Y787,2 +1 Y787,3 +1 Y787,4 +1 Y787,5 +1 Y787,6
  +1 Y792,0 +1 Y792,1 +1 Y792,2 +1 Y792,3 +1 Y792,4 +1 Y792,5 +1 Y792,6 +1 Y793,0 +1 Y793,1 +1 Y793,2
  +1 Y793,3 +1 Y793,4 +1 Y793,5 +1 Y793,6 +1 Y794,0 +1 Y794,1 +1 Y794,2 +1 Y794,3 +1 Y794,4 +1 Y794,5
  +1 Y794,6 +1 Y795,0 +1 Y795,1 +1 Y795,2 +1 Y795,3 +1 Y795,4 +1 Y795,5 +1 Y795,6 +1 Y797,0 +1 Y797,1
  +1 Y797,2 +1 Y797,3 +1 Y797,4 +1 Y797,5 +1 Y797,6 +1 Y798,0 +1 Y798,1 +1 Y798,2 +1 Y798,3 +1 Y798,4
  +1 Y798,5 +1 Y798,6 +1 Y799,0 +1 Y799,1 +1 Y799,2 +1 Y799,3 +1 Y799,4 +1 Y799,5 +1 Y799,6 +1 Y800,0
  +1 Y800,1 +1 Y800,2 +1 Y800,3 +1 Y800,4 +1 Y800,5 +1 Y800,6 +1 Y802,0 +1 Y802,1 +1 Y802,2 +1 Y802,3
  +1 Y802,4 +1 Y802,5 +1 Y802,6 +1 Y803,0 +1 Y803,1 +1 Y803,2 +1 Y803,3 +1 Y803,4 +1 Y803,5 +1 Y803,6
  +1 Y804,0 +1 Y804,1 +1 Y804,2 +1 Y804,3 +1 Y804,4 +1 Y804,5 +1 Y804,6 +1 Y805,0 +1 Y805,1 +1 Y805,2
  +1 Y805,3 +1 Y805,4 +1 Y805,5 +1 Y805,6 +1 Y806,0 +1 Y806,1 +1 Y806,2 +1 Y806,3 +1 Y806,4 +1 Y806,5
  +1 Y806,6 +1 Y807,0 +1 Y807,1 +1 Y807,2 +1 Y807,3 +1 Y807,4 +1 Y807,5 +1 Y807,6 +1 Y808,0 +1 Y808,1
  +1 Y808,2 +1 Y808,3 +1 Y808,4 +1 Y808,5 +1 Y808,6 +1 Y813,0 +1 Y813,1 +1 Y813,2 +1 Y813,3 +1 Y813,4
  +1 Y813,5 +1 Y813,6 +1 Y814,0 +1 Y814,1 +1 Y814,2 +1 Y814,3 +1 Y814,4 +1 Y814,5 +1 Y814,6 +1 Y815,0
  +1 Y815,1 +1 Y815,2 +1 Y815,3 +1 Y815,4 +1 Y815,5 +1 Y815,6 +1 Y816,0 +1 Y816,1 +1 Y816,2 +1 Y816,3
  +1 Y816,4 +1 Y816,5 +1 Y816,6 +1 Y818,0 +1 Y818,1 +1 Y818,2 +1 Y818,3 +1 Y818,4 +1 Y818,5 +1 Y818,6
  +1 Y819,0 +1 Y819,1 +1 Y819,2 +1 Y819,3 +1 Y819,4 +1 Y819,5 +1 Y819,6 +1 Y820,0 +1 Y820,1 +1 Y820,2
  +1 Y820,3 +1 Y820,4 +1 Y820,5 +1 Y820,6 +1 Y821,0 +1 Y821,1 +1 Y821,2 +1 Y821,3 +1 Y821,4 +1 Y821,5
  +1 Y821,6 +1 Y823,0 +1 Y823,1 +1 Y823,2 +1 Y823,3 +1 Y823,4 +1 Y823,5 +1 Y823,6 +1 Y824,0 +1 Y824,1
  +1 Y824,2 +1 Y824,3 +1 Y824,4 +1 Y824,5 +1 Y824,6 +1 Y825,0 +1 Y825,1 +1 Y825,2 +1 Y825,3 +1 Y825,4
  +1 Y825,5 +1 Y825,6 +1 Y826,0 +1 Y826,1 +1 Y826,2 +1 Y826,3 +1 Y826,4 +1 Y826,5 +1 Y826,6 +1 Y827,0
  +1 Y827,1 +1 Y827,2 +1 Y827,3 +1 Y827,4 +1 Y827,5 +1 Y827,6 +1 Y829,0 +1 Y829,1 +1 Y829,2 +1 Y829,3
  +1 Y829,4 +1 Y829,5 +1 Y829,6 +1 Y830,0 +1 Y830,1 +1 Y830,2 +1 Y830,3 +1 Y830,4 +1 Y830,5 +1 Y830,6
  +1 Y831,0 +1 Y831,1 +1 Y831,2 +1 Y831,3 +1 Y831,4 +1 Y831,5 +1 Y831,6 +1 Y832,0 +1 Y832,1 +1 Y832,2
  +1 Y832,3 +1 Y832,4 +1 Y832,5 +1 Y832,6 +1 Y833,0 +1 Y833,1 +1 Y833,2 +1 Y833,3 +1 Y833,4 +1 Y833,5
  +1 Y833,6 +1 Y834,0 +1 Y834,1 +1 Y834,2 +1 Y834,3 +1 Y834,4 +1 Y834,5 +1 Y834,6 +1 Y836,0 +1 Y836,1
  +1 Y836,2 +1 Y836,3 +1 Y836,4 +1 Y836,5 +1 Y836,6 +1 Y837,0 +1 Y837,1 +1 Y837,2 +1 Y837,3 +1 Y837,4
  +1 Y837,5 +1 Y837,6 +1 Y838,0 +1 Y838,1 +1 Y838,2 +1 Y838,3 +1 Y838,4 +1 Y838,5 +1 Y838,6 +1 Y839,0
  +1 Y839,1 +1 Y839,2 +1 Y839,3 +1 Y839,4 +1 Y839,5 +1 Y839,6 = +1
 c24: +1 Y96,0 +1 Y96,1 +1 Y96,2 +1 Y96,3 +1 Y96,4 +1 Y96,5 +1 Y96,6 +1 Y103,0 +1 Y103,1 +1 Y103,2 +1 Y103,3
  +1 Y103,4 +1 Y103,5 +1 Y103,6 +1 Y109,0 +1 Y109,1 +1 Y109,2 +1 Y109,3 +1 Y109,4 +1 Y109,5 +1 Y109,6
  +1 Y115,0 +1 Y115,1 +1 Y115,2 +1 Y115,3 +1 Y115,4 +1 Y115,5 +1 Y115,6 +1 Y116,0 +1 Y116,1 +1 Y116,2
  +1 Y116,3 +1 Y116,4 +1 Y116,5 +1 Y116,6 +1 Y117,0 +1 Y117,1 +1 Y117,2 +1 Y117,3 +1 Y117,4 +1 Y117,5
  +1 Y117,6 +1 Y118,0 +1 Y118,1 +1 Y118,2 +1 Y118,3 +1 Y118,4 +1 Y118,5 +1 Y118,6 +1 Y119,0 +1 Y119,1
  +1 Y119,2 +1 Y119,3 +1 Y119,4 +1 Y119,5 +1 Y119,6 +1 Y130,0 +1 Y130,1 +1 Y130,2 +1 Y130,3 +1 Y130,4
  +1 Y130,5 +1 Y130,6 +1 Y136,0 +1 Y136,1 +1 Y136,2 +1 Y136,3 +1 Y136,4 +1 Y136,5 +1 Y136,6 +1 Y137,0
  +1 Y137,1 +1 Y137,2 +1 Y137,3 +1 Y137,4 +1 Y137,5 +1 Y137,6 +1 Y138,0 +1 Y138,1 +1 Y138,2 +1 Y138,3
  +1 Y138,4 +1 Y138,5 +1 Y138,6 +1 Y139,0 +1 Y139,1 +1 Y139,2 +1 Y139,3 +1 Y139,4 +1 Y139,5 +1 Y139,6
  +1 Y140,0 +1 Y140,1 +1 Y140,2 +1 Y140,3 +1 Y140,4 +1 Y140,5 +1 Y140,6 +1 Y151,0 +1 Y151,1 +1 Y151,2
  +1 Y151,3 +1 Y151,4 +1 Y151,5 +1 Y151,6 +1 Y152,0 +1 Y152,1 +1 Y152,2 +1 Y152,3 +1 Y152,4 +1 Y152,5
  +1 Y152,6 +1 Y153,0 +1 Y153,1 +1 Y153,2 +1 Y153,3 +1 Y153,4 +1 Y153,5 +1 Y153,6 +1 Y154,0 +1 Y154,1
  +1 Y154,2 +1 Y154,3 +1 Y154,4 +1 Y154,5 +1 Y154,6 +1 Y155,0 +1 Y155,1 +1 Y155,2 +1 Y155,3 +1 Y155,4
  +1 Y155,5 +1 Y155,6 +1 Y166,0 +1 Y166,1 +1 Y166,2 +1 Y166,3 +1 Y166,4 +1 Y166,5 +1 Y166,6 +1 Y167,0
  +1 Y167,1 +1 Y167,2 +1 Y167,3 +1 Y167,4 +1 Y167,5 +1 Y167,6 +1 Y168,0 +1 Y168,1 +1 Y168,2 +1 Y168,3
  +1 Y168,4 +1 Y168,5 +1 Y168,6 +1 Y169,0 +1 Y169,1 +1 Y169,2 +1 Y169,3 +1 Y169,4 +1 Y169,5 +1 Y169,6
  +1 Y170,0 +1 Y170,1 +1 Y170,2 +1 Y170,3 +1 Y170,4 +1 Y170,5 +1 Y170,6 +1 Y171,0 +1 Y171,1 +1 Y171,2
  +1 Y171,3 +1 Y171,4 +1 Y171,5 +1 Y171,6 +1 Y172,0 +1 Y172,1 +1 Y172,2 +1 Y172,3 +1 Y172,4 +1 Y172,5
  +1 Y172,6 +1 Y173,0 +1 Y173,1 +1 Y173,2 +1 Y173,3 +1 Y173,4 +1 Y173,5 +1 Y173,6 +1 Y174,0 +1 Y174,1
  +1 Y174,2 +1 Y174,3 +1 Y174,4 +1 Y174,5 +1 Y174,6 +1 Y175,0 +1 Y175,1 +1 Y175,2 +1 Y175,3 +1 Y175,4
  +1 Y175,5 +1 Y175,6 +1 Y186,0 +1 Y186,1 +1 Y186,2 +1 Y186,3 +1 Y186,4 +1 Y186,5 +1 Y186,6 +1 Y187,0
  +1 Y187,1 +1 Y187,2 +1 Y187,3 +1 Y187,4 +1 Y187,5 +1 Y187,6 +1 Y188,0 +1 Y188,1 +1 Y188,2 +1 Y188,3
  +1 Y188,4 +1 Y188,5 +1 Y188,6 +1 Y189,0 +1 Y189,1 +1 Y189,2 +1 Y189,3 +1 Y189,4 +1 Y189,5 +1 Y189,6
  +1 Y190,0 +1 Y190,1 +1 Y190,2 +1 Y190,3 +1 Y190,4 +1 Y190,5 +1 Y190,6 +1 Y201,0 +1 Y201,1 +1 Y201,2
  +1 Y201,3 +1 Y201,4 +1 Y201,5 +1 Y201,6 +1 Y202,0 +1 Y202,1 +1 Y202,2 +1 Y202,3 +1 Y202,4 +1 Y202,5
  +1 Y202,6 +1 Y203,0 +1 Y203,1 +1 Y203,2 +1 Y203,3 +1 Y203,4 +1 Y203,5 +1 Y203,6 +1 Y204,0 +1 Y204,1
  +1 Y204,2 +1 Y204,3 +1 Y204,4 +1 Y204,5 +1 Y204,6 +1 Y205,0 +1 Y205,1 +1 Y205,2 +1 Y205,3 +1 Y205,4
  +1 Y205,5 +1 Y205,6 +1 Y206,0 +1 Y206,1 +1 Y206,2 +1 Y206,3 +1 Y206,4 +1 Y206,5 +1 Y206,6 +1 Y207,0
  +1 Y207,1 +1 Y207,2 +1 Y207,3 +1 Y207,4 +1 Y207,5 +1 Y207,6 +1 Y208,0 +1 Y208,1 +1 Y208,2 +1 Y208,3
  +1 Y208,4 +1 Y208,5 +1 Y208,6 +1 Y209,0 +1 Y209,1 +1 Y209,2 +1 Y209,3 +1 Y209,4 +1 Y209,5 +1 Y209,6
  +1 Y210,0 +1 Y210,1 +1 Y210,2 +1 Y210,3 +1 Y210,4 +1 Y210,5 +1 Y210,6 +1 Y221,0 +1 Y221,1 +1 Y221,2
  +1 Y221,3 +1 Y221,4 +1 Y221,5 +1 Y221,6 +1 Y222,0 +1 Y222,1 +1 Y222,2 +1 Y222,3 +1 Y222,4 +1 Y222,5
  +1 Y222,6 +1 Y223,0 +1 Y223,1 +1 Y223,2 +1 Y223,3 +1 Y223,4 +1 Y223,5 +1 Y223,6 +1 Y224,0 +1 Y224,1
  +1 Y224,2 +1 Y224,3 +1 Y224,4 +1 Y224,5 +1 Y224,6 +1 Y225,0 +1 Y225,1 +1 Y225,2 +1 Y225,3 +1 Y225,4
  +1 Y225,5 +1 Y225,6 +1 Y226,0 +1 Y226,1 +1 Y226,2 +1 Y226,3 +1 Y226,4 +1 Y226,5 +1 Y226,6 +1 Y227,0
  +1 Y227,1 +1 Y227,2 +1 Y227,3 +1 Y227,4 +1 Y227,5 +1 Y227,6 +1 Y228,0 +1 Y228,1 +1 Y228,2 +1 Y228,3
  +1 Y228,4 +1 Y228,5 +1 Y228,6 +1 Y229,0 +1 Y229,1 +1 Y229,2 +1 Y229,3 +1 Y229,4 +1 Y229,5 +1 Y229,6
  +1 Y230,0 +1 Y230,1 +1 Y230,2 +1 Y230,3 +1 Y230,4 +1 Y230,5 +1 Y230,6 +1 Y241,0 +1 Y241,1 +1 Y241,2
  +1 Y241,3 +1 Y241,4 +1 Y241,5 +1 Y241,6 +1 Y242,0 +1 Y242,1 +1 Y242,2 +1 Y242,3 +1 Y242,4 +1 Y242,5
  +1 Y242,6 +1 Y243,0 +1 Y243,1 +1 Y243,2 +1 Y243,3 +1 Y243,4 +1 Y243,5 +1 Y243,6 +1 Y244,0 +1 Y244,1
  +1 Y244,2 +1 Y244,3 +1 Y244,4 +1 Y244,5 +1 Y244,6 +1 Y245,0 +1 Y245,1 +1 Y245,2 +1 Y245,3 +1 Y245,4
  +1 Y245,5 +1 Y245,6 +1 Y246,0 +1 Y246,1 +1 Y246,2 +1 Y246,3 +1 Y246,4 +1 Y246,5 +1 Y246,6 +1 Y247,0
  +1 Y247,1 +1 Y247,2 +1 Y247,3 +1 Y247,4 +1 Y247,5 +1 Y247,6 +1 Y248,0 +1 Y248,1 +1 Y248,2 +1 Y248,3
  +1 Y248,4 +1 Y248,5 +1 Y248,6 +1 Y249,0 +1 Y249,1 +1 Y249,2 +1 Y249,3 +1 Y249,4 +1 Y249,5 +1 Y249,6
  +1 Y250,0 +1 Y250,1 +1 Y250,2 +1 Y250,3 +1 Y250,4 +1 Y250,5 +1 Y250,6 +1 Y256,0 +1 Y256,1 +1 Y256,2
  +1 Y256,3 +1 Y256,4 +1 Y256,5 +1 Y256,6 +1 Y257,0 +1 Y257,1 +1 Y257,2 +1 Y257,3 +1 Y257,4 +1 Y257,5
  +1 Y257,6 +1 Y258,0 +1 Y258,1 +1 Y258,2 +1 Y258,3 +1 Y258,4 +1 Y258,5 +1 Y258,6 +1 Y259,0 +1 Y259,1
  +1 Y259,2 +1 Y259,3 +1 Y259,4 +1 Y259,5 +1 Y259,6 +1 Y260,0 +1 Y260,1 +1 Y260,2 +1 Y260,3 +1 Y260,4
  +1 Y260,5 +1 Y260,6 +1 Y261,0 +1 Y261,1 +1 Y261,2 +1 Y261,3 +1 Y261,4 +1 Y261,5 +1 Y261,6 +1 Y262,0
  +1 Y262,1 +1 Y262,2 +1 Y262,3 +1 Y262,4 +1 Y262,5 +1 Y262,6 +1 Y263,0 +1 Y263,1 +1 Y263,2 +1 Y263,3
  +1 Y263,4 +1 Y263,5 +1 Y263,6 +1 Y264,0 +1 Y264,1 +1 Y264,2 +1 Y264,3 +1 Y264,4 +1 Y264,5 +1 Y264,6
  +1 Y265,0 +1 Y265,1 +1 Y265,2 +1 Y265,3 +1 Y265,4 +1 Y265,5 +1 Y265,6 +1 Y276,0 +1 Y276,1 +1 Y276,2
  +1 Y276,3 +1 Y276,4 +1 Y276,5 +1 Y276,6 +1 Y277,0 +1 Y277,1 +1 Y277,2 +1 Y277,3 +1 Y277,4 +1 Y277,5
  +1 Y277,6 +1 Y278,0 +1 Y278,1 +1 Y278,2 +1 Y278,3 +1 Y278,4 +1 Y278,5 +1 Y278,6 +1 Y279,0 +1 Y279,1
  +1 Y279,2 +1 Y279,3 +1 Y279,4 +1 Y279,5 +1 Y279,6 +1 Y280,0 +1 Y280,1 +1 Y280,2 +1 Y280,3 +1 Y280,4
  +1 Y280,5 +1 Y280,6 +1 Y281,0 +1 Y281,1 +1 Y281,2 +1 Y281,3 +1 Y281,4 +1 Y281,5 +1 Y281,6 +1 Y282,0
  +1 Y282,1 +1 Y282,2 +1 Y282,3 +1 Y282,4 +1 Y282,5 +1 Y282,6 +1 Y283,0 +1 Y283,1 +1 Y283,2 +1 Y283,3
  +1 Y283,4 +1 Y283,5 +1 Y283,6 +1 Y284,0 +1 Y284,1 +1 Y284,2 +1 Y284,3 +1 Y284,4 +1 Y284,5 +1 Y284,6
  +1 Y285,0 +1 Y285,1 +1 Y285,2 +1 Y285,3 +1 Y285,4 +1 Y285,5 +1 Y285,6 +1 Y291,0 +1 Y291,1 +1 Y291,2
  +1 Y291,3 +1 Y291,4 +1 Y291,5 +1 Y291,6 +1 Y292,0 +1 Y292,1 +1 Y292,2 +1 Y292,3 +1 Y292,4 +1 Y292,5
  +1 Y292,6 +1 Y293,0 +1 Y293,1 +1 Y293,2 +1 Y293,3 +1 Y293,4 +1 Y293,5 +1 Y293,6 +1 Y294,0 +1 Y294,1
  +1 Y294,2 +1 Y294,3 +1 Y294,4 +1 Y294,5 +1 Y294,6 +1 Y295,0 +1 Y295,1 +1 Y295,2 +1 Y295,3 +1 Y295,4
  +1 Y295,5 +1 Y295,6 +1 Y296,0 +1 Y296,1 +1 Y296,2 +1 Y296,3 +1 Y296,4 +1 Y296,5 +1 Y296,6 +1 Y297,0
  +1 Y297,1 +1 Y297,2 +1 Y297,3 +1 Y297,4 +1 Y297,5 +1 Y297,6 +1 Y298,0 +1 Y298,1 +1 Y298,2 +1 Y298,3
  +1 Y298,4 +1 Y298,5 +1 Y298,6 +1 Y299,0 +1 Y299,1 +1 Y299,2 +1 Y299,3 +1 Y299,4 +1 Y299,5 +1 Y299,6
  +1 Y300,0 +1 Y300,1 +1 Y300,2 +1 Y300,3 +1 Y300,4 +1 Y300,5 +1 Y300,6 +1 Y306,0 +1 Y306,1 +1 Y306,2
  +1 Y306,3 +1 Y306,4 +1 Y306,5 +1 Y306,6 +1 Y307,0 +1 Y307,1 +1 Y307,2 +1 Y307,3 +1 Y307,4 +1 Y307,5
  +1 Y307,6 +1 Y308,0 +1 Y308,1 +1 Y308,2 +1 Y308,3 +1 Y308,4 +1 Y308,5 +1 Y308,6 +1 Y309,0 +1 Y309,1
  +1 Y309,2 +1 Y309,3 +1 Y309,4 +1 Y309,5 +1 Y309,6 +1 Y310,0 +1 Y310,1 +1 Y310,2 +1 Y310,3 +1 Y310,4
  +1 Y310,5 +1 Y310,6 +1 Y312,0 +1 Y312,1 +1 Y312,2 +1 Y312,3 +1 Y312,4 +1 Y312,5 +1 Y312,6 +1 Y313,0
  +1 Y313,1 +1 Y313,2 +1 Y313,3 +1 Y313,4 +1 Y313,5 +1 Y313,6 +1 Y314,0 +1 Y314,1 +1 Y314,2 +1 Y314,3
  +1 Y314,4 +1 Y314,5 +1 Y314,6 +1 Y315,0 +1 Y315,1 +1 Y315,2 +1 Y315,3 +1 Y315,4 +1 Y315,5 +1 Y315,6
  +1 Y316,0 +1 Y316,1 +1 Y316,2 +1 Y316,3 +1 Y316,4 +1 Y316,5 +1 Y316,6 +1 Y317,0 +1 Y317,1 +1 Y317,2
  +1 Y317,3 +1 Y317,4 +1 Y317,5 +1 Y317,6 +1 Y318,0 +1 Y318,1 +1 Y318,2 +1 Y318,3 +1 Y318,4 +1 Y318,5
  +1 Y318,6 +1 Y319,0 +1 Y319,1 +1 Y319,2 +1 Y319,3 +1 Y319,4 +1 Y319,5 +1 Y319,6 +1 Y320,0 +1 Y320,1
  +1 Y320,2 +1 Y320,3 +1 Y320,4 +1 Y320,5 +1 Y320,6 +1 Y321,0 +1 Y321,1 +1 Y321,2 +1 Y321,3 +1 Y321,4
  +1 Y321,5 +1 Y321,6 +1 Y327,0 +1 Y327,1 +1 Y327,2 +1 Y327,3 +1 Y327,4 +1 Y327,5 +1 Y327,6 +1 Y328,0
  +1 Y328,1 +1 Y328,2 +1 Y328,3 +1 Y328,4 +1 Y328,5 +1 Y328,6 +1 Y329,0 +1 Y329,1 +1 Y329,2 +1 Y329,3
  +1 Y329,4 +1 Y329,5 +1 Y329,6 +1 Y330,0 +1 Y330,1 +1 Y330,2 +1 Y330,3 +1 Y330,4 +1 Y330,5 +1 Y330,6
  +1 Y331,0 +1 Y331,1 +1 Y331,2 +1 Y331,3 +1 Y331,4 +1 Y331,5 +1 Y331,6 +1 Y333,0 +1 Y333,1 +1 Y333,2
  +1 Y333,3 +1 Y333,4 +1 Y333,5 +1 Y333,6 +1 Y334,0 +1 Y334,1 +1 Y334,2 +1 Y334,3 +1 Y334,4 +1 Y334,5
  +1 Y334,6 +1 Y335,0 +1 Y335,1 +1 Y335,2 +1 Y335,3 +1 Y335,4 +1 Y335,5 +1 Y335,6 +1 Y336,0 +1 Y336,1
  +1 Y336,2 +1 Y336,3 +1 Y336,4 +1 Y336,5 +1 Y336,6 +1 Y337,0 +1 Y337,1 +1 Y337,2 +1 Y337,3 +1 Y337,4
  +1 Y337,5 +1 Y337,6 +1 Y339,0 +1 Y339,1 +1 Y339,2 +1 Y339,3 +1 Y339,4 +1 Y339,5 +1 Y339,6 +1 Y340,0
  +1 Y340,1 +1 Y340,2 +1 Y340,3 +1 Y340,4 +1 Y340,5 +1 Y340,6 +1 Y341,0 +1 Y341,1 +1 Y341,2 +1 Y341,3
  +1 Y341,4 +1 Y341,5 +1 Y341,6 +1 Y342,0 +1 Y342,1 +1 Y342,2 +1 Y342,3 +1 Y342,4 +1 Y342,5 +1 Y342,6
  +1 Y343,0 +1 Y343,1 +1 Y343,2 +1 Y343,3 +1 Y343,4 +1 Y343,5 +1 Y343,6 +1 Y344,0 +1 Y344,1 +1 Y344,2
  +1 Y344,3 +1 Y344,4 +1 Y344,5 +1 Y344,6 +1 Y346,0 +1 Y346,1 +1 Y346,2 +1 Y346,3 +1 Y346,4 +1 Y346,5
  +1 Y346,6 +1 Y347,0 +1 Y347,1 +1 Y347,2 +1 Y347,3 +1 Y347,4 +1 Y347,5 +1 Y347,6 +1 Y348,0 +1 Y348,1
  +1 Y348,2 +1 Y348,3 +1 Y348,4 +1 Y348,5 +1 Y348,6 = +1
 c25: +1 Y33,0 +1 Y33,1 +1 Y33,2 +1 Y33,3 +1 Y33,4 +1 Y33,5 +1 Y33,6 +1 Y38,0 +1 Y38,1 +1 Y38,2 +1 Y38,3
  +1 Y38,4 +1 Y38,5 +1 Y38,6 +1 Y42,0 +1 Y42,1 +1 Y42,2 +1 Y42,3 +1 Y42,4 +1 Y42,5 +1 Y42,6 +1 Y46,0 +1 Y46,1
  +1 Y46,2 +1 Y46,3 +1 Y46,4 +1 Y46,5 +1 Y46,6 +1 Y47,0 +1 Y47,1 +1 Y47,2 +1 Y47,3 +1 Y47,4 +1 Y47,5 +1 Y47,6
  +1 Y48,0 +1 Y48,1 +1 Y48,2 +1 Y48,3 +1 Y48,4 +1 Y48,5 +1 Y48,6 +1 Y52,0 +1 Y52,1 +1 Y52,2 +1 Y52,3 +1 Y52,4
  +1 Y52,5 +1 Y52,6 +1 Y56,0 +1 Y56,1 +1 Y56,2 +1 Y56,3 +1 Y56,4 +1 Y56,5 +1 Y56,6 +1 Y57,0 +1 Y57,1 +1 Y57,2
  +1 Y57,3 +1 Y57,4 +1 Y57,5 +1 Y57,6 +1 Y58,0 +1 Y58,1 +1 Y58,2 +1 Y58,3 +1 Y58,4 +1 Y58,5 +1 Y58,6 +1 Y62,0
  +1 Y62,1 +1 Y62,2 +1 Y62,3 +1 Y62,4 +1 Y62,5 +1 Y62,6 +1 Y63,0 +1 Y63,1 +1 Y63,2 +1 Y63,3 +1 Y63,4 +1 Y63,5
  +1 Y63,6 +1 Y64,0 +1 Y64,1 +1 Y64,2 +1 Y64,3 +1 Y64,4 +1 Y64,5 +1 Y64,6 +1 Y68,0 +1 Y68,1 +1 Y68,2 +1 Y68,3
  +1 Y68,4 +1 Y68,5 +1 Y68,6 +1 Y69,0 +1 Y69,1 +1 Y69,2 +1 Y69,3 +1 Y69,4 +1 Y69,5 +1 Y69,6 +1 Y70,0 +1 Y70,1
  +1 Y70,2 +1 Y70,3 +1 Y70,4 +1 Y70,5 +1 Y70,6 +1 Y72,0 +1 Y72,1 +1 Y72,2 +1 Y72,3 +1 Y72,4 +1 Y72,5 +1 Y72,6
  +1 Y73,0 +1 Y73,1 +1 Y73,2 +1 Y73,3 +1 Y73,4 +1 Y73,5 +1 Y73,6 +1 Y74,0 +1 Y74,1 +1 Y74,2 +1 Y74,3 +1 Y74,4
  +1 Y74,5 +1 Y74,6 +1 Y78,0 +1 Y78,1 +1 Y78,2 +1 Y78,3 +1 Y78,4 +1 Y78,5 +1 Y78,6 +1 Y79,0 +1 Y79,1 +1 Y79,2
  +1 Y79,3 +1 Y79,4 +1 Y79,5 +1 Y79,6 +1 Y80,0 +1 Y80,1 +1 Y80,2 +1 Y80,3 +1 Y80,4 +1 Y80,5 +1 Y80,6 +1 Y82,0
  +1 Y82,1 +1 Y82,2 +1 Y82,3 +1 Y82,4 +1 Y82,5 +1 Y82,6 +1 Y83,0 +1 Y83,1 +1 Y83,2 +1 Y83,3 +1 Y83,4 +1 Y83,5
  +1 Y83,6 +1 Y84,0 +1 Y84,1 +1 Y84,2 +1 Y84,3 +1 Y84,4 +1 Y84,5 +1 Y84,6 +1 Y86,0 +1 Y86,1 +1 Y86,2 +1 Y86,3
  +1 Y86,4 +1 Y86,5 +1 Y86,6 +1 Y87,0 +1 Y87,1 +1 Y87,2 +1 Y87,3 +1 Y87,4 +1 Y87,5 +1 Y87,6 +1 Y88,0 +1 Y88,1
  +1 Y88,2 +1 Y88,3 +1 Y88,4 +1 Y88,5 +1 Y88,6 +1 Y89,0 +1 Y89,1 +1 Y89,2 +1 Y89,3 +1 Y89,4 +1 Y89,5 +1 Y89,6
  +1 Y91,0 +1 Y91,1 +1 Y91,2 +1 Y91,3 +1 Y91,4 +1 Y91,5 +1 Y91,6 +1 Y92,0 +1 Y92,1 +1 Y92,2 +1 Y92,3 +1 Y92,4
  +1 Y92,5 +1 Y92,6 +1 Y93,0 +1 Y93,1 +1 Y93,2 +1 Y93,3 +1 Y93,4 +1 Y93,5 +1 Y93,6 = +1
 c26: +1 Y97,0 +1 Y97,1 +1 Y97,2 +1 Y97,3 +1 Y97,4 +1 Y97,5 +1 Y97,6 +1 Y104,0 +1 Y104,1 +1 Y104,2 +1 Y104,3
  +1 Y104,4 +1 Y104,5 +1 Y104,6 +1 Y110,0 +1 Y110,1 +1 Y110,2 +1 Y110,3 +1 Y110,4 +1 Y110,5 +1 Y110,6
  +1 Y115,0 +1 Y115,1 +1 Y115,2 +1 Y115,3 +1 Y115,4 +1 Y115,5 +1 Y115,6 +1 Y120,0 +1 Y120,1 +1 Y120,2
  +1 Y120,3 +1 Y120,4 +1 Y120,5 +1 Y120,6 +1 Y121,0 +1 Y121,1 +1 Y121,2 +1 Y121,3 +1 Y121,4 +1 Y121,5
  +1 Y121,6 +1 Y122,0 +1 Y122,1 +1 Y122,2 +1 Y122,3 +1 Y122,4 +1 Y122,5 +1 Y122,6 +1 Y123,0 +1 Y123,1
  +1 Y123,2 +1 Y123,3 +1 Y123,4 +1 Y123,5 +1 Y123,6 +1 Y131,0 +1 Y131,1 +1 Y131,2 +1 Y131,3 +1 Y131,4
  +1 Y131,5 +1 Y131,6 +1 Y136,0 +1 Y136,1 +1 Y136,2 +1 Y136,3 +1 Y136,4 +1 Y136,5 +1 Y136,6 +1 Y141,0
  +1 Y141,1 +1 Y141,2 +1 Y141,3 +1 Y141,4 +1 Y141,5 +1 Y141,6 +1 Y142,0 +1 Y142,1 +1 Y142,2 +1 Y142,3
  +1 Y142,4 +1 Y142,5 +1 Y142,6 +1 Y143,0 +1 Y143,1 +1 Y143,2 +1 Y143,3 +1 Y143,4 +1 Y143,5 +1 Y143,6
  +1 Y144,0 +1 Y144,1 +1 Y144,2 +1 Y144,3 +1 Y144,4 +1 Y144,5 +1 Y144,6 +1 Y151,0 +1 Y151,1 +1 Y151,2
  +1 Y151,3 +1 Y151,4 +1 Y151,5 +1 Y151,6 +1 Y156,0 +1 Y156,1 +1 Y156,2 +1 Y156,3 +1 Y156,4 +1 Y156,5
  +1 Y156,6 +1 Y157,0 +1 Y157,1 +1 Y157,2 +1 Y157,3 +1 Y157,4 +1 Y157,5 +1 Y157,6 +1 Y158,0 +1 Y158,1
  +1 Y158,2 +1 Y158,3 +1 Y158,4 +1 Y158,5 +1 Y158,6 +1 Y159,0 +1 Y159,1 +1 Y159,2 +1 Y159,3 +1 Y159,4
  +1 Y159,5 +1 Y159,6 +1 Y166,0 +1 Y166,1 +1 Y166,2 +1 Y166,3 +1 Y166,4 +1 Y166,5 +1 Y166,6 +1 Y167,0
  +1 Y167,1 +1 Y167,2 +1 Y167,3 +1 Y167,4 +1 Y167,5 +1 Y167,6 +1 Y168,0 +1 Y168,1 +1 Y168,2 +1 Y168,3
  +1 Y168,4 +1 Y168,5 +1 Y168,6 +1 Y169,0 +1 Y169,1 +1 Y169,2 +1 Y169,3 +1 Y169,4 +1 Y169,5 +1 Y169,6
  +1 Y176,0 +1 Y176,1 +1 Y176,2 +1 Y176,3 +1 Y176,4 +1 Y176,5 +1 Y176,6 +1 Y177,0 +1 Y177,1 +1 Y177,2
  +1 Y177,3 +1 Y177,4 +1 Y177,5 +1 Y177,6 +1 Y178,0 +1 Y178,1 +1 Y178,2 +1 Y178,3 +1 Y178,4 +1 Y178,5
  +1 Y178,6 +1 Y179,0 +1 Y179,1 +1 Y179,2 +1 Y179,3 +1 Y179,4 +1 Y179,5 +1 Y179,6 +1 Y180,0 +1 Y180,1
  +1 Y180,2 +1 Y180,3 +1 Y180,4 +1 Y180,5 +1 Y180,6 +1 Y181,0 +1 Y181,1 +1 Y181,2 +1 Y181,3 +1 Y181,4
  +1 Y181,5 +1 Y181,6 +1 Y186,0 +1 Y186,1 +1 Y186,2 +1 Y186,3 +1 Y186,4 +1 Y186,5 +1 Y186,6 +1 Y191,0
  +1 Y191,1 +1 Y191,2 +1 Y191,3 +1 Y191,4 +1 Y191,5 +1 Y191,6 +1 Y192,0 +1 Y192,1 +1 Y192,2 +1 Y192,3
  +1 Y192,4 +1 Y192,5 +1 Y192,6 +1 Y193,0 +1 Y193,1 +1 Y193,2 +1 Y193,3 +1 Y193,4 +1 Y193,5 +1 Y193,6
  +1 Y194,0 +1 Y194,1 +1 Y194,2 +1 Y194,3 +1 Y194,4 +1 Y194,5 +1 Y194,6 +1 Y201,0 +1 Y201,1 +1 Y201,2
  +1 Y201,3 +1 Y201,4 +1 Y201,5 +1 Y201,6 +1 Y202,0 +1 Y202,1 +1 Y202,2 +1 Y202,3 +1 Y202,4 +1 Y202,5
  +1 Y202,6 +1 Y203,0 +1 Y203,1 +1 Y203,2 +1 Y203,3 +1 Y203,4 +1 Y203,5 +1 Y203,6 +1 Y204,0 +1 Y204,1
  +1 Y204,2 +1 Y204,3 +1 Y204,4 +1 Y204,5 +1 Y204,6 +1 Y211,0 +1 Y211,1 +1 Y211,2 +1 Y211,3 +1 Y211,4
  +1 Y211,5 +1 Y211,6 +1 Y212,0 +1 Y212,1 +1 Y212,2 +1 Y212,3 +1 Y212,4 +1 Y212,5 +1 Y212,6 +1 Y213,0
  +1 Y213,1 +1 Y213,2 +1 Y213,3 +1 Y213,4 +1 Y213,5 +1 Y213,6 +1 Y214,0 +1 Y214,1 +1 Y214,2 +1 Y214,3
  +1 Y214,4 +1 Y214,5 +1 Y214,6 +1 Y215,0 +1 Y215,1 +1 Y215,2 +1 Y215,3 +1 Y215,4 +1 Y215,5 +1 Y215,6
  +1 Y216,0 +1 Y216,1 +1 Y216,2 +1 Y216,3 +1 Y216,4 +1 Y216,5 +1 Y216,6 +1 Y221,0 +1 Y221,1 +1 Y221,2
  +1 Y221,3 +1 Y221,4 +1 Y221,5 +1 Y221,6 +1 Y222,0 +1 Y222,1 +1 Y222,2 +1 Y222,3 +1 Y222,4 +1 Y222,5
  +1 Y222,6 +1 Y223,0 +1 Y223,1 +1 Y223,2 +1 Y223,3 +1 Y223,4 +1 Y223,5 +1 Y223,6 +1 Y224,0 +1 Y224,1
  +1 Y224,2 +1 Y224,3 +1 Y224,4 +1 Y224,5 +1 Y224,6 +1 Y231,0 +1 Y231,1 +1 Y231,2 +1 Y231,3 +1 Y231,4
  +1 Y231,5 +1 Y231,6 +1 Y232,0 +1 Y232,1 +1 Y232,2 +1 Y232,3 +1 Y232,4 +1 Y232,5 +1 Y232,6 +1 Y233,0
  +1 Y233,1 +1 Y233,2 +1 Y233,3 +1 Y233,4 +1 Y233,5 +1 Y233,6 +1 Y234,0 +1 Y234,1 +1 Y234,2 +1 Y234,3
  +1 Y234,4 +1 Y234,5 +1 Y234,6 +1 Y235,0 +1 Y235,1 +1 Y235,2 +1 Y235,3 +1 Y235,4 +1 Y235,5 +1 Y235,6
  +1 Y236,0 +1 Y236,1 +1 Y236,2 +1 Y236,3 +1 Y236,4 +1 Y236,5 +1 Y236,6 +1 Y241,0 +1 Y241,1 +1 Y241,2
  +1 Y241,3 +1 Y241,4 +1 Y241,5 +1 Y241,6 +1 Y242,0 +1 Y242,1 +1 Y242,2 +1 Y242,3 +1 Y242,4 +1 Y242,5
  +1 Y242,6 +1 Y243,0 +1 Y243,1 +1 Y243,2 +1 Y243,3 +1 Y243,4 +1 Y243,5 +1 Y243,6 +1 Y244,0 +1 Y244,1
  +1 Y244,2 +1 Y244,3 +1 Y244,4 +1 Y244,5 +1 Y244,6 +1 Y245,0 +1 Y245,1 +1 Y245,2 +1 Y245,3 +1 Y245,4
  +1 Y245,5 +1 Y245,6 +1 Y246,0 +1 Y246,1 +1 Y246,2 +1 Y246,3 +1 Y246,4 +1 Y246,5 +1 Y246,6 +1 Y251,0
  +1 Y251,1 +1 Y251,2 +1 Y251,3 +1 Y251,4 +1 Y251,5 +1 Y251,6 +1 Y252,0 +1 Y252,1 +1 Y252,2 +1 Y252,3
  +1 Y252,4 +1 Y252,5 +1 Y252,6 +1 Y253,0 +1 Y253,1 +1 Y253,2 +1 Y253,3 +1 Y253,4 +1 Y253,5 +1 Y253,6
  +1 Y254,0 +1 Y254,1 +1 Y254,2 +1 Y254,3 +1 Y254,4 +1 Y254,5 +1 Y254,6 +1 Y256,0 +1 Y256,1 +1 Y256,2
  +1 Y256,3 +1 Y256,4 +1 Y256,5 +1 Y256,6 +1 Y257,0 +1 Y257,1 +1 Y257,2 +1 Y257,3 +1 Y257,4 +1 Y257,5
  +1 Y257,6 +1 Y258,0 +1 Y258,1 +1 Y258,2 +1 Y258,3 +1 Y258,4 +1 Y258,5 +1 Y258,6 +1 Y259,0 +1 Y259,1
  +1 Y259,2 +1 Y259,3 +1 Y259,4 +1 Y259,5 +1 Y259,6 +1 Y266,0 +1 Y266,1 +1 Y266,2 +1 Y266,3 +1 Y266,4
  +1 Y266,5 +1 Y266,6 +1 Y267,0 +1 Y267,1 +1 Y267,2 +1 Y267,3 +1 Y267,4 +1 Y267,5 +1 Y267,6 +1 Y268,0
  +1 Y268,1 +1 Y268,2 +1 Y268,3 +1 Y268,4 +1 Y268,5 +1 Y268,6 +1 Y269,0 +1 Y269,1 +1 Y269,2 +1 Y269,3
  +1 Y269,4 +1 Y269,5 +1 Y269,6 +1 Y270,0 +1 Y270,1 +1 Y270,2 +1 Y270,3 +1 Y270,4 +1 Y270,5 +1 Y270,6
  +1 Y271,0 +1 Y271,1 +1 Y271,2 +1 Y271,3 +1 Y271,4 +1 Y271,5 +1 Y271,6 +1 Y276,0 +1 Y276,1 +1 Y276,2
  +1 Y276,3 +1 Y276,4 +1 Y276,5 +1 Y276,6 +1 Y277,0 +1 Y277,1 +1 Y277,2 +1 Y277,3 +1 Y277,4 +1 Y277,5
  +1 Y277,6 +1 Y278,0 +1 Y278,1 +1 Y278,2 +1 Y278,3 +1 Y278,4 +1 Y278,5 +1 Y278,6 +1 Y279,0 +1 Y279,1
  +1 Y279,2 +1 Y279,3 +1 Y279,4 +1 Y279,5 +1 Y279,6 +1 Y280,0 +1 Y280,1 +1 Y280,2 +1 Y280,3 +1 Y280,4
  +1 Y280,5 +1 Y280,6 +1 Y281,0 +1 Y281,1 +1 Y281,2 +1 Y281,3 +1 Y281,4 +1 Y281,5 +1 Y281,6 +1 Y286,0
  +1 Y286,1 +1 Y286,2 +1 Y286,3 +1 Y286,4 +1 Y286,5 +1 Y286,6 +1 Y287,0 +1 Y287,1 +1 Y287,2 +1 Y287,3
  +1 Y287,4 +1 Y287,5 +1 Y287,6 +1 Y288,0 +1 Y288,1 +1 Y288,2 +1 Y288,3 +1 Y288,4 +1 Y288,5 +1 Y288,6
  +1 Y289,0 +1 Y289,1 +1 Y289,2 +1 Y289,3 +1 Y289,4 +1 Y289,5 +1 Y289,6 +1 Y291,0 +1 Y291,1 +1 Y291,2
  +1 Y291,3 +1 Y291,4 +1 Y291,5 +1 Y291,6 +1 Y292,0 +1 Y292,1 +1 Y292,2 +1 Y292,3 +1 Y292,4 +1 Y292,5
  +1 Y292,6 +1 Y293,0 +1 Y293,1 +1 Y293,2 +1 Y293,3 +1 Y293,4 +1 Y293,5 +1 Y293,6 +1 Y294,0 +1 Y294,1
  +1 Y294,2 +1 Y294,3 +1 Y294,4 +1 Y294,5 +1 Y294,6 +1 Y295,0 +1 Y295,1 +1 Y295,2 +1 Y295,3 +1 Y295,4
  +1 Y295,5 +1 Y295,6 +1 Y296,0 +1 Y296,1 +1 Y296,2 +1 Y296,3 +1 Y296,4 +1 Y296,5 +1 Y296,6 +1 Y301,0
  +1 Y301,1 +1 Y301,2 +1 Y301,3 +1 Y301,4 +1 Y301,5 +1 Y301,6 +1 Y302,0 +1 Y302,1 +1 Y302,2 +1 Y302,3
  +1 Y302,4 +1 Y302,5 +1 Y302,6 +1 Y303,0 +1 Y303,1 +1 Y303,2 +1 Y303,3 +1 Y303,4 +1 Y303,5 +1 Y303,6
  +1 Y304,0 +1 Y304,1 +1 Y304,2 +1 Y304,3 +1 Y304,4 +1 Y304,5 +1 Y304,6 +1 Y306,0 +1 Y306,1 +1 Y306,2
  +1 Y306,3 +1 Y306,4 +1 Y306,5 +1 Y306,6 +1 Y307,0 +1 Y307,1 +1 Y307,2 +1 Y307,3 +1 Y307,4 +1 Y307,5
  +1 Y307,6 +1 Y308,0 +1 Y308,1 +1 Y308,2 +1 Y308,3 +1 Y308,4 +1 Y308,5 +1 Y308,6 +1 Y309,0 +1 Y309,1
  +1 Y309,2 +1 Y309,3 +1 Y309,4 +1 Y309,5 +1 Y309,6 +1 Y311,0 +1 Y311,1 +1 Y311,2 +1 Y311,3 +1 Y311,4
  +1 Y311,5 +1 Y311,6 +1 Y312,0 +1 Y312,1 +1 Y312,2 +1 Y312,3 +1 Y312,4 +1 Y312,5 +1 Y312,6 +1 Y313,0
  +1 Y313,1 +1 Y313,2 +1 Y313,3 +1 Y313,4 +1 Y313,5 +1 Y313,6 +1 Y314,0 +1 Y314,1 +1 Y314,2 +1 Y314,3
  +1 Y314,4 +1 Y314,5 +1 Y314,6 +1 Y315,0 +1 Y315,1 +1 Y315,2 +1 Y315,3 +1 Y315,4 +1 Y315,5 +1 Y315,6
  +1 Y316,0 +1 Y316,1 +1 Y316,2 +1 Y316,3 +1 Y316,4 +1 Y316,5 +1 Y316,6 +1 Y317,0 +1 Y317,1 +1 Y317,2
  +1 Y317,3 +1 Y317,4 +1 Y317,5 +1 Y317,6 +1 Y322,0 +1 Y322,1 +1 Y322,2 +1 Y322,3 +1 Y322,4 +1 Y322,5
  +1 Y322,6 +1 Y323,0 +1 Y323,1 +1 Y323,2 +1 Y323,3 +1 Y323,4 +1 Y323,5 +1 Y323,6 +1 Y324,0 +1 Y324,1
  +1 Y324,2 +1 Y324,3 +1 Y324,4 +1 Y324,5 +1 Y324,6 +1 Y325,0 +1 Y325,1 +1 Y325,2 +1 Y325,3 +1 Y325,4
  +1 Y325,5 +1 Y325,6 +1 Y327,0 +1 Y327,1 +1 Y327,2 +1 Y327,3 +1 Y327,4 +1 Y327,5 +1 Y327,6 +1 Y328,0
  +1 Y328,1 +1 Y328,2 +1 Y328,3 +1 Y328,4 +1 Y328,5 +1 Y328,6 +1 Y329,0 +1 Y329,1 +1 Y329,2 +1 Y329,3
  +1 Y329,4 +1 Y329,5 +1 Y329,6 +1 Y330,0 +1 Y330,1 +1 Y330,2 +1 Y330,3 +1 Y330,4 +1 Y330,5 +1 Y330,6
  +1 Y332,0 +1 Y332,1 +1 Y332,2 +1 Y332,3 +1 Y332,4 +1 Y332,5 +1 Y332,6 +1 Y333,0 +1 Y333,1 +1 Y333,2
  +1 Y333,3 +1 Y333,4 +1 Y333,5 +1 Y333,6 +1 Y334,0 +1 Y334,1 +1 Y334,2 +1 Y334,3 +1 Y334,4 +1 Y334,5
  +1 Y334,6 +1 Y335,0 +1 Y335,1 +1 Y335,2 +1 Y335,3 +1 Y335,4 +1 Y335,5 +1 Y335,6 +1 Y336,0 +1 Y336,1
  +1 Y336,2 +1 Y336,3 +1 Y336,4 +1 Y336,5 +1 Y336,6 +1 Y338,0 +1 Y338,1 +1 Y338,2 +1 Y338,3 +1 Y338,4
  +1 Y338,5 +1 Y338,6 +1 Y339,0 +1 Y339,1 +1 Y339,2 +1 Y339,3 +1 Y339,4 +1 Y339,5 +1 Y339,6 +1 Y340,0
  +1 Y340,1 +1 Y340,2 +1 Y340,3 +1 Y340,4 +1 Y340,5 +1 Y340,6 +1 Y341,0 +1 Y341,1 +1 Y341,2 +1 Y341,3
  +1 Y341,4 +1 Y341,5 +1 Y341,6 +1 Y342,0 +1 Y342,1 +1 Y342,2 +1 Y342,3 +1 Y342,4 +1 Y342,5 +1 Y342,6
  +1 Y343,0 +1 Y343,1 +1 Y343,2 +1 Y343,3 +1 Y343,4 +1 Y343,5 +1 Y343,6 +1 Y345,0 +1 Y345,1 +1 Y345,2
  +1 Y345,3 +1 Y345,4 +1 Y345,5 +1 Y345,6 +1 Y346,0 +1 Y346,1 +1 Y346,2 +1 Y346,3 +1 Y346,4 +1 Y346,5
  +1 Y346,6 +1 Y347,0 +1 Y347,1 +1 Y347,2 +1 Y347,3 +1 Y347,4 +1 Y347,5 +1 Y347,6 +1 Y348,0 +1 Y348,1
  +1 Y348,2 +1 Y348,3 +1 Y348,4 +1 Y348,5 +1 Y348,6 = +1
 c27: +1 Y98,0 +1 Y98,1 +1 Y98,2 +1 Y98,3 +1 Y98,4 +1 Y98,5 +1 Y98,6 +1 Y105,0 +1 Y105,1 +1 Y105,2 +1 Y105,3
  +1 Y105,4 +1 Y105,5 +1 Y105,6 +1 Y111,0 +1 Y111,1 +1 Y111,2 +1 Y111,3 +1 Y111,4 +1 Y111,5 +1 Y111,6
  +1 Y116,0 +1 Y116,1 +1 Y116,2 +1 Y116,3 +1 Y116,4 +1 Y116,5 +1 Y116,6 +1 Y120,0 +1 Y120,1 +1 Y120,2
  +1 Y120,3 +1 Y120,4 +1 Y120,5 +1 Y120,6 +1 Y124,0 +1 Y124,1 +1 Y124,2 +1 Y124,3 +1 Y124,4 +1 Y124,5
  +1 Y124,6 +1 Y125,0 +1 Y125,1 +1 Y125,2 +1 Y125,3 +1 Y125,4 +1 Y125,5 +1 Y125,6 +1 Y126,0 +1 Y126,1
  +1 Y126,2 +1 Y126,3 +1 Y126,4 +1 Y126,5 +1 Y126,6 +1 Y132,0 +1 Y132,1 +1 Y132,2 +1 Y132,3 +1 Y132,4
  +1 Y132,5 +1 Y132,6 +1 Y137,0 +1 Y137,1 +1 Y137,2 +1 Y137,3 +1 Y137,4 +1 Y137,5 +1 Y137,6 +1 Y141,0
  +1 Y141,1 +1 Y141,2 +1 Y141,3 +1 Y141,4 +1 Y141,5 +1 Y141,6 +1 Y145,0 +1 Y145,1 +1 Y145,2 +1 Y145,3
  +1 Y145,4 +1 Y145,5 +1 Y145,6 +1 Y146,0 +1 Y146,1 +1 Y146,2 +1 Y146,3 +1 Y146,4 +1 Y146,5 +1 Y146,6
  +1 Y147,0 +1 Y147,1 +1 Y147,2 +1 Y147,3 +1 Y147,4 +1 Y147,5 +1 Y147,6 +1 Y152,0 +1 Y152,1 +1 Y152,2
  +1 Y152,3 +1 Y152,4 +1 Y152,5 +1 Y152,6 +1 Y156,0 +1 Y156,1 +1 Y156,2 +1 Y156,3 +1 Y156,4 +1 Y156,5
  +1 Y156,6 +1 Y160,0 +1 Y160,1 +1 Y160,2 +1 Y160,3 +1 Y160,4 +1 Y160,5 +1 Y160,6 +1 Y161,0 +1 Y161,1
  +1 Y161,2 +1 Y161,3 +1 Y161,4 +1 Y161,5 +1 Y161,6 +1 Y162,0 +1 Y162,1 +1 Y162,2 +1 Y162,3 +1 Y162,4
  +1 Y162,5 +1 Y162,6 +1 Y166,0 +1 Y166,1 +1 Y166,2 +1 Y166,3 +1 Y166,4 +1 Y166,5 +1 Y166,6 +1 Y170,0
  +1 Y170,1 +1 Y170,2 +1 Y170,3 +1 Y170,4 +1 Y170,5 +1 Y170,6 +1 Y171,0 +1 Y171,1 +1 Y171,2 +1 Y171,3
  +1 Y171,4 +1 Y171,5 +1 Y171,6 +1 Y172,0 +1 Y172,1 +1 Y172,2 +1 Y172,3 +1 Y172,4 +1 Y172,5 +1 Y172,6
  +1 Y176,0 +1 Y176,1 +1 Y176,2 +1 Y176,3 +1 Y176,4 +1 Y176,5 +1 Y176,6 +1 Y177,0 +1 Y177,1 +1 Y177,2
  +1 Y177,3 +1 Y177,4 +1 Y177,5 +1 Y177,6 +1 Y178,0 +1 Y178,1 +1 Y178,2 +1 Y178,3 +1 Y178,4 +1 Y178,5
  +1 Y178,6 +1 Y182,0 +1 Y182,1 +1 Y182,2 +1 Y182,3 +1 Y182,4 +1 Y182,5 +1 Y182,6 +1 Y183,0 +1 Y183,1
  +1 Y183,2 +1 Y183,3 +1 Y183,4 +1 Y183,5 +1 Y183,6 +1 Y184,0 +1 Y184,1 +1 Y184,2 +1 Y184,3 +1 Y184,4
  +1 Y184,5 +1 Y184,6 +1 Y187,0 +1 Y187,1 +1 Y187,2 +1 Y187,3 +1 Y187,4 +1 Y187,5 +1 Y187,6 +1 Y191,0
  +1 Y191,1 +1 Y191,2 +1 Y191,3 +1 Y191,4 +1 Y191,5 +1 Y191,6 +1 Y195,0 +1 Y195,1 +1 Y195,2 +1 Y195,3
  +1 Y195,4 +1 Y195,5 +1 Y195,6 +1 Y196,0 +1 Y196,1 +1 Y196,2 +1 Y196,3 +1 Y196,4 +1 Y196,5 +1 Y196,6
  +1 Y197,0 +1 Y197,1 +1 Y197,2 +1 Y197,3 +1 Y197,4 +1 Y197,5 +1 Y197,6 +1 Y201,0 +1 Y201,1 +1 Y201,2
  +1 Y201,3 +1 Y201,4 +1 Y201,5 +1 Y201,6 +1 Y205,0 +1 Y205,1 +1 Y205,2 +1 Y205,3 +1 Y205,4 +1 Y205,5
  +1 Y205,6 +1 Y206,0 +1 Y206,1 +1 Y206,2 +1 Y206,3 +1 Y206,4 +1 Y206,5 +1 Y206,6 +1 Y207,0 +1 Y207,1
  +1 Y207,2 +1 Y207,3 +1 Y207,4 +1 Y207,5 +1 Y207,6 +1 Y211,0 +1 Y211,1 +1 Y211,2 +1 Y211,3 +1 Y211,4
  +1 Y211,5 +1 Y211,6 +1 Y212,0 +1 Y212,1 +1 Y212,2 +1 Y212,3 +1 Y212,4 +1 Y212,5 +1 Y212,6 +1 Y213,0
  +1 Y213,1 +1 Y213,2 +1 Y213,3 +1 Y213,4 +1 Y213,5 +1 Y213,6 +1 Y217,0 +1 Y217,1 +1 Y217,2 +1 Y217,3
  +1 Y217,4 +1 Y217,5 +1 Y217,6 +1 Y218,0 +1 Y218,1 +1 Y218,2 +1 Y218,3 +1 Y218,4 +1 Y218,5 +1 Y218,6
  +1 Y219,0 +1 Y219,1 +1 Y219,2 +1 Y219,3 +1 Y219,4 +1 Y219,5 +1 Y219,6 +1 Y221,0 +1 Y221,1 +1 Y221,2
  +1 Y221,3 +1 Y221,4 +1 Y221,5 +1 Y221,6 +1 Y225,0 +1 Y225,1 +1 Y225,2 +1 Y225,3 +1 Y225,4 +1 Y225,5
  +1 Y225,6 +1 Y226,0 +1 Y226,1 +1 Y226,2 +1 Y226,3 +1 Y226,4 +1 Y226,5 +1 Y226,6 +1 Y227,0 +1 Y227,1
  +1 Y227,2 +1 Y227,3 +1 Y227,4 +1 Y227,5 +1 Y227,6 +1 Y231,0 +1 Y231,1 +1 Y231,2 +1 Y231,3 +1 Y231,4
  +1 Y231,5 +1 Y231,6 +1 Y232,0 +1 Y232,1 +1 Y232,2 +1 Y232,3 +1 Y232,4 +1 Y232,5 +1 Y232,6 +1 Y233,0
  +1 Y233,1 +1 Y233,2 +1 Y233,3 +1 Y233,4 +1 Y233,5 +1 Y233,6 +1 Y237,0 +1 Y237,1 +1 Y237,2 +1 Y237,3
  +1 Y237,4 +1 Y237,5 +1 Y237,6 +1 Y238,0 +1 Y238,1 +1 Y238,2 +1 Y238,3 +1 Y238,4 +1 Y238,5 +1 Y238,6
  +1 Y239,0 +1 Y239,1 +1 Y239,2 +1 Y239,3 +1 Y239,4 +1 Y239,5 +1 Y239,6 +1 Y241,0 +1 Y241,1 +1 Y241,2
  +1 Y241,3 +1 Y241,4 +1 Y241,5 +1 Y241,6 +1 Y242,0 +1 Y242,1 +1 Y242,2 +1 Y242,3 +1 Y242,4 +1 Y242,5
  +1 Y242,6 +1 Y243,0 +1 Y243,1 +1 Y243,2 +1 Y243,3 +1 Y243,4 +1 Y243,5 +1 Y243,6 +1 Y247,0 +1 Y247,1
  +1 Y247,2 +1 Y247,3 +1 Y247,4 +1 Y247,5 +1 Y247,6 +1 Y248,0 +1 Y248,1 +1 Y248,2 +1 Y248,3 +1 Y248,4
  +1 Y248,5 +1 Y248,6 +1 Y249,0 +1 Y249,1 +1 Y249,2 +1 Y249,3 +1 Y249,4 +1 Y249,5 +1 Y249,6 +1 Y251,0
  +1 Y251,1 +1 Y251,2 +1 Y251,3 +1 Y251,4 +1 Y251,5 +1 Y251,6 +1 Y252,0 +1 Y252,1 +1 Y252,2 +1 Y252,3
  +1 Y252,4 +1 Y252,5 +1 Y252,6 +1 Y253,0 +1 Y253,1 +1 Y253,2 +1 Y253,3 +1 Y253,4 +1 Y253,5 +1 Y253,6
  +1 Y255,0 +1 Y255,1 +1 Y255,2 +1 Y255,3 +1 Y255,4 +1 Y255,5 +1 Y255,6 +1 Y256,0 +1 Y256,1 +1 Y256,2
  +1 Y256,3 +1 Y256,4 +1 Y256,5 +1 Y256,6 +1 Y260,0 +1 Y260,1 +1 Y260,2 +1 Y260,3 +1 Y260,4 +1 Y260,5
  +1 Y260,6 +1 Y261,0 +1 Y261,1 +1 Y261,2 +1 Y261,3 +1 Y261,4 +1 Y261,5 +1 Y261,6 +1 Y262,0 +1 Y262,1
  +1 Y262,2 +1 Y262,3 +1 Y262,4 +1 Y262,5 +1 Y262,6 +1 Y266,0 +1 Y266,1 +1 Y266,2 +1 Y266,3 +1 Y266,4
  +1 Y266,5 +1 Y266,6 +1 Y267,0 +1 Y267,1 +1 Y267,2 +1 Y267,3 +1 Y267,4 +1 Y267,5 +1 Y267,6 +1 Y268,0
  +1 Y268,1 +1 Y268,2 +1 Y268,3 +1 Y268,4 +1 Y268,5 +1 Y268,6 +1 Y272,0 +1 Y272,1 +1 Y272,2 +1 Y272,3
  +1 Y272,4 +1 Y272,5 +1 Y272,6 +1 Y273,0 +1 Y273,1 +1 Y273,2 +1 Y273,3 +1 Y273,4 +1 Y273,5 +1 Y273,6
  +1 Y274,0 +1 Y274,1 +1 Y274,2 +1 Y274,3 +1 Y274,4 +1 Y274,5 +1 Y274,6 +1 Y276,0 +1 Y276,1 +1 Y276,2
  +1 Y276,3 +1 Y276,4 +1 Y276,5 +1 Y276,6 +1 Y277,0 +1 Y277,1 +1 Y277,2 +1 Y277,3 +1 Y277,4 +1 Y277,5
  +1 Y277,6 +1 Y278,0 +1 Y278,1 +1 Y278,2 +1 Y278,3 +1 Y278,4 +1 Y278,5 +1 Y278,6 +1 Y282,0 +1 Y282,1
  +1 Y282,2 +1 Y282,3 +1 Y282,4 +1 Y282,5 +1 Y282,6 +1 Y283,0 +1 Y283,1 +1 Y283,2 +1 Y283,3 +1 Y283,4
  +1 Y283,5 +1 Y283,6 +1 Y284,0 +1 Y284,1 +1 Y284,2 +1 Y284,3 +1 Y284,4 +1 Y284,5 +1 Y284,6 +1 Y286,0
  +1 Y286,1 +1 Y286,2 +1 Y286,3 +1 Y286,4 +1 Y286,5 +1 Y286,6 +1 Y287,0 +1 Y287,1 +1 Y287,2 +1 Y287,3
  +1 Y287,4 +1 Y287,5 +1 Y287,6 +1 Y288,0 +1 Y288,1 +1 Y288,2 +1 Y288,3 +1 Y288,4 +1 Y288,5 +1 Y288,6
  +1 Y290,0 +1 Y290,1 +1 Y290,2 +1 Y290,3 +1 Y290,4 +1 Y290,5 +1 Y290,6 +1 Y291,0 +1 Y291,1 +1 Y291,2
  +1 Y291,3 +1 Y291,4 +1 Y291,5 +1 Y291,6 +1 Y292,0 +1 Y292,1 +1 Y292,2 +1 Y292,3 +1 Y292,4 +1 Y292,5
  +1 Y292,6 +1 Y293,0 +1 Y293,1 +1 Y293,2 +1 Y293,3 +1 Y293,4 +1 Y293,5 +1 Y293,6 +1 Y297,0 +1 Y297,1
  +1 Y297,2 +1 Y297,3 +1 Y297,4 +1 Y297,5 +1 Y297,6 +1 Y298,0 +1 Y298,1 +1 Y298,2 +1 Y298,3 +1 Y298,4
  +1 Y298,5 +1 Y298,6 +1 Y299,0 +1 Y299,1 +1 Y299,2 +1 Y299,3 +1 Y299,4 +1 Y299,5 +1 Y299,6 +1 Y301,0
  +1 Y301,1 +1 Y301,2 +1 Y301,3 +1 Y301,4 +1 Y301,5 +1 Y301,6 +1 Y302,0 +1 Y302,1 +1 Y302,2 +1 Y302,3
  +1 Y302,4 +1 Y302,5 +1 Y302,6 +1 Y303,0 +1 Y303,1 +1 Y303,2 +1 Y303,3 +1 Y303,4 +1 Y303,5 +1 Y303,6
  +1 Y305,0 +1 Y305,1 +1 Y305,2 +1 Y305,3 +1 Y305,4 +1 Y305,5 +1 Y305,6 +1 Y306,0 +1 Y306,1 +1 Y306,2
  +1 Y306,3 +1 Y306,4 +1 Y306,5 +1 Y306,6 +1 Y307,0 +1 Y307,1 +1 Y307,2 +1 Y307,3 +1 Y307,4 +1 Y307,5
  +1 Y307,6 +1 Y308,0 +1 Y308,1 +1 Y308,2 +1 Y308,3 +1 Y308,4 +1 Y308,5 +1 Y308,6 +1 Y310,0 +1 Y310,1
  +1 Y310,2 +1 Y310,3 +1 Y310,4 +1 Y310,5 +1 Y310,6 +1 Y311,0 +1 Y311,1 +1 Y311,2 +1 Y311,3 +1 Y311,4
  +1 Y311,5 +1 Y311,6 +1 Y312,0 +1 Y312,1 +1 Y312,2 +1 Y312,3 +1 Y312,4 +1 Y312,5 +1 Y312,6 +1 Y313,0
  +1 Y313,1 +1 Y313,2 +1 Y313,3 +1 Y313,4 +1 Y313,5 +1 Y313,6 +1 Y314,0 +1 Y314,1 +1 Y314,2 +1 Y314,3
  +1 Y314,4 +1 Y314,5 +1 Y314,6 +1 Y318,0 +1 Y318,1 +1 Y318,2 +1 Y318,3 +1 Y318,4 +1 Y318,5 +1 Y318,6
  +1 Y319,0 +1 Y319,1 +1 Y319,2 +1 Y319,3 +1 Y319,4 +1 Y319,5 +1 Y319,6 +1 Y320,0 +1 Y320,1 +1 Y320,2
  +1 Y320,3 +1 Y320,4 +1 Y320,5 +1 Y320,6 +1 Y322,0 +1 Y322,1 +1 Y322,2 +1 Y322,3 +1 Y322,4 +1 Y322,5
  +1 Y322,6 +1 Y323,0 +1 Y323,1 +1 Y323,2 +1 Y323,3 +1 Y323,4 +1 Y323,5 +1 Y323,6 +1 Y324,0 +1 Y324,1
  +1 Y324,2 +1 Y324,3 +1 Y324,4 +1 Y324,5 +1 Y324,6 +1 Y326,0 +1 Y326,1 +1 Y326,2 +1 Y326,3 +1 Y326,4
  +1 Y326,5 +1 Y326,6 +1 Y327,0 +1 Y327,1 +1 Y327,2 +1 Y327,3 +1 Y327,4 +1 Y327,5 +1 Y327,6 +1 Y328,0
  +1 Y328,1 +1 Y328,2 +1 Y328,3 +1 Y328,4 +1 Y328,5 +1 Y328,6 +1 Y329,0 +1 Y329,1 +1 Y329,2 +1 Y329,3
  +1 Y329,4 +1 Y329,5 +1 Y329,6 +1 Y331,0 +1 Y331,1 +1 Y331,2 +1 Y331,3 +1 Y331,4 +1 Y331,5 +1 Y331,6
  +1 Y332,0 +1 Y332,1 +1 Y332,2 +1 Y332,3 +1 Y332,4 +1 Y332,5 +1 Y332,6 +1 Y333,0 +1 Y333,1 +1 Y333,2
  +1 Y333,3 +1 Y333,4 +1 Y333,5 +1 Y333,6 +1 Y334,0 +1 Y334,1 +1 Y334,2 +1 Y334,3 +1 Y334,4 +1 Y334,5
  +1 Y334,6 +1 Y335,0 +1 Y335,1 +1 Y335,2 +1 Y335,3 +1 Y335,4 +1 Y335,5 +1 Y335,6 +1 Y337,0 +1 Y337,1
  +1 Y337,2 +1 Y337,3 +1 Y337,4 +1 Y337,5 +1 Y337,6 +1 Y338,0 +1 Y338,1 +1 Y338,2 +1 Y338,3 +1 Y338,4
  +1 Y338,5 +1 Y338,6 +1 Y339,0 +1 Y339,1 +1 Y339,2 +1 Y339,3 +1 Y339,4 +1 Y339,5 +1 Y339,6 +1 Y340,0
  +1 Y340,1 +1 Y340,2 +1 Y340,3 +1 Y340,4 +1 Y340,5 +1 Y340,6 +1 Y341,0 +1 Y341,1 +1 Y341,2 +1 Y341,3
  +1 Y341,4 +1 Y341,5 +1 Y341,6 +1 Y342,0 +1 Y342,1 +1 Y342,2 +1 Y342,3 +1 Y342,4 +1 Y342,5 +1 Y342,6
  +1 Y344,0 +1 Y344,1 +1 Y344,2 +1 Y344,3 +1 Y344,4 +1 Y344,5 +1 Y344,6 +1 Y345,0 +1 Y345,1 +1 Y345,2
  +1 Y345,3 +1 Y345,4 +1 Y345,5 +1 Y345,6 +1 Y346,0 +1 Y346,1 +1 Y346,2 +1 Y346,3 +1 Y346,4 +1 Y346,5
  +1 Y346,6 +1 Y347,0 +1 Y347,1 +1 Y347,2 +1 Y347,3 +1 Y347,4 +1 Y347,5 +1 Y347,6 +1 Y348,0 +1 Y348,1
  +1 Y348,2 +1 Y348,3 +1 Y348,4 +1 Y348,5 +1 Y348,6 = +1
 c28: +1 Y540,0 +1 Y540,1 +1 Y540,2 +1 Y540,3 +1 Y540,4 +1 Y540,5 +1 Y540,6 +1 Y543,0 +1 Y543,1 +1 Y543,2
  +1 Y543,3 +1 Y543,4 +1 Y543,5 +1 Y543,6 +1 Y546,0 +1 Y546,1 +1 Y546,2 +1 Y546,3 +1 Y546,4 +1 Y546,5
  +1 Y546,6 +1 Y547,0 +1 Y547,1 +1 Y547,2 +1 Y547,3 +1 Y547,4 +1 Y547,5 +1 Y547,6 +1 Y549,0 +1 Y549,1
  +1 Y549,2 +1 Y549,3 +1 Y549,4 +1 Y549,5 +1 Y549,6 +1 Y550,0 +1 Y550,1 +1 Y550,2 +1 Y550,3 +1 Y550,4
  +1 Y550,5 +1 Y550,6 +1 Y552,0 +1 Y552,1 +1 Y552,2 +1 Y552,3 +1 Y552,4 +1 Y552,5 +1 Y552,6 +1 Y553,0
  +1 Y553,1 +1 Y553,2 +1 Y553,3 +1 Y553,4 +1 Y553,5 +1 Y553,6 = +1
 c29: +1 Y589,0 +1 Y589,1 +1 Y589,2 +1 Y589,3 +1 Y589,4 +1 Y589,5 +1 Y589,6 +1 Y596,0 +1 Y596,1 +1 Y596,2
  +1 Y596,3 +1 Y596,4 +1 Y596,5 +1 Y596,6 +1 Y602,0 +1 Y602,1 +1 Y602,2 +1 Y602,3 +1 Y602,4 +1 Y602,5
  +1 Y602,6 +1 Y607,0 +1 Y607,1 +1 Y607,2 +1 Y607,3 +1 Y607,4 +1 Y607,5 +1 Y607,6 +1 Y611,0 +1 Y611,1
  +1 Y611,2 +1 Y611,3 +1 Y611,4 +1 Y611,5 +1 Y611,6 +1 Y615,0 +1 Y615,1 +1 Y615,2 +1 Y615,3 +1 Y615,4
  +1 Y615,5 +1 Y615,6 +1 Y616,0 +1 Y616,1 +1 Y616,2 +1 Y616,3 +1 Y616,4 +1 Y616,5 +1 Y616,6 +1 Y617,0
  +1 Y617,1 +1 Y617,2 +1 Y617,3 +1 Y617,4 +1 Y617,5 +1 Y617,6 +1 Y623,0 +1 Y623,1 +1 Y623,2 +1 Y623,3
  +1 Y623,4 +1 Y623,5 +1 Y623,6 +1 Y628,0 +1 Y628,1 +1 Y628,2 +1 Y628,3 +1 Y628,4 +1 Y628,5 +1 Y628,6
  +1 Y632,0 +1 Y632,1 +1 Y632,2 +1 Y632,3 +1 Y632,4 +1 Y632,5 +1 Y632,6 +1 Y636,0 +1 Y636,1 +1 Y636,2
  +1 Y636,3 +1 Y636,4 +1 Y636,5 +1 Y636,6 +1 Y637,0 +1 Y637,1 +1 Y637,2 +1 Y637,3 +1 Y637,4 +1 Y637,5
  +1 Y637,6 +1 Y638,0 +1 Y638,1 +1 Y638,2 +1 Y638,3 +1 Y638,4 +1 Y638,5 +1 Y638,6 +1 Y643,0 +1 Y643,1
  +1 Y643,2 +1 Y643,3 +1 Y643,4 +1 Y643,5 +1 Y643,6 +1 Y647,0 +1 Y647,1 +1 Y647,2 +1 Y647,3 +1 Y647,4
  +1 Y647,5 +1 Y647,6 +1 Y651,0 +1 Y651,1 +1 Y651,2 +1 Y651,3 +1 Y651,4 +1 Y651,5 +1 Y651,6 +1 Y652,0
  +1 Y652,1 +1 Y652,2 +1 Y652,3 +1 Y652,4 +1 Y652,5 +1 Y652,6 +1 Y653,0 +1 Y653,1 +1 Y653,2 +1 Y653,3
  +1 Y653,4 +1 Y653,5 +1 Y653,6 +1 Y657,0 +1 Y657,1 +1 Y657,2 +1 Y657,3 +1 Y657,4 +1 Y657,5 +1 Y657,6
  +1 Y661,0 +1 Y661,1 +1 Y661,2 +1 Y661,3 +1 Y661,4 +1 Y661,5 +1 Y661,6 +1 Y662,0 +1 Y662,1 +1 Y662,2
  +1 Y662,3 +1 Y662,4 +1 Y662,5 +1 Y662,6 +1 Y663,0 +1 Y663,1 +1 Y663,2 +1 Y663,3 +1 Y663,4 +1 Y663,5
  +1 Y663,6 +1 Y667,0 +1 Y667,1 +1 Y667,2 +1 Y667,3 +1 Y667,4 +1 Y667,5 +1 Y667,6 +1 Y668,0 +1 Y668,1
  +1 Y668,2 +1 Y668,3 +1 Y668,4 +1 Y668,5 +1 Y668,6 +1 Y669,0 +1 Y669,1 +1 Y669,2 +1 Y669,3 +1 Y669,4
  +1 Y669,5 +1 Y669,6 +1 Y673,0 +1 Y673,1 +1 Y673,2 +1 Y673,3 +1 Y673,4 +1 Y673,5 +1 Y673,6 +1 Y674,0
  +1 Y674,1 +1 Y674,2 +1 Y674,3 +1 Y674,4 +1 Y674,5 +1 Y674,6 +1 Y675,0 +1 Y675,1 +1 Y675,2 +1 Y675,3
  +1 Y675,4 +1 Y675,5 +1 Y675,6 +1 Y678,0 +1 Y678,1 +1 Y678,2 +1 Y678,3 +1 Y678,4 +1 Y678,5 +1 Y678,6
  +1 Y682,0 +1 Y682,1 +1 Y682,2 +1 Y682,3 +1 Y682,4 +1 Y682,5 +1 Y682,6 +1 Y686,0 +1 Y686,1 +1 Y686,2
  +1 Y686,3 +1 Y686,4 +1 Y686,5 +1 Y686,6 +1 Y687,0 +1 Y687,1 +1 Y687,2 +1 Y687,3 +1 Y687,4 +1 Y687,5
  +1 Y687,6 +1 Y688,0 +1 Y688,1 +1 Y688,2 +1 Y688,3 +1 Y688,4 +1 Y688,5 +1 Y688,6 +1 Y692,0 +1 Y692,1
  +1 Y692,2 +1 Y692,3 +1 Y692,4 +1 Y692,5 +1 Y692,6 +1 Y696,0 +1 Y696,1 +1 Y696,2 +1 Y696,3 +1 Y696,4
  +1 Y696,5 +1 Y696,6 +1 Y697,0 +1 Y697,1 +1 Y697,2 +1 Y697,3 +1 Y697,4 +1 Y697,5 +1 Y697,6 +1 Y698,0
  +1 Y698,1 +1 Y698,2 +1 Y698,3 +1 Y698,4 +1 Y698,5 +1 Y698,6 +1 Y702,0 +1 Y702,1 +1 Y702,2 +1 Y702,3
  +1 Y702,4 +1 Y702,5 +1 Y702,6 +1 Y703,0 +1 Y703,1 +1 Y703,2 +1 Y703,3 +1 Y703,4 +1 Y703,5 +1 Y703,6
  +1 Y704,0 +1 Y704,1 +1 Y704,2 +1 Y704,3 +1 Y704,4 +1 Y704,5 +1 Y704,6 +1 Y708,0 +1 Y708,1 +1 Y708,2
  +1 Y708,3 +1 Y708,4 +1 Y708,5 +1 Y708,6 +1 Y709,0 +1 Y709,1 +1 Y709,2 +1 Y709,3 +1 Y709,4 +1 Y709,5
  +1 Y709,6 +1 Y710,0 +1 Y710,1 +1 Y710,2 +1 Y710,3 +1 Y710,4 +1 Y710,5 +1 Y710,6 +1 Y712,0 +1 Y712,1
  +1 Y712,2 +1 Y712,3 +1 Y712,4 +1 Y712,5 +1 Y712,6 +1 Y716,0 +1 Y716,1 +1 Y716,2 +1 Y716,3 +1 Y716,4
  +1 Y716,5 +1 Y716,6 +1 Y717,0 +1 Y717,1 +1 Y717,2 +1 Y717,3 +1 Y717,4 +1 Y717,5 +1 Y717,6 +1 Y718,0
  +1 Y718,1 +1 Y718,2 +1 Y718,3 +1 Y718,4 +1 Y718,5 +1 Y718,6 +1 Y722,0 +1 Y722,1 +1 Y722,2 +1 Y722,3
  +1 Y722,4 +1 Y722,5 +1 Y722,6 +1 Y723,0 +1 Y723,1 +1 Y723,2 +1 Y723,3 +1 Y723,4 +1 Y723,5 +1 Y723,6
  +1 Y724,0 +1 Y724,1 +1 Y724,2 +1 Y724,3 +1 Y724,4 +1 Y724,5 +1 Y724,6 +1 Y728,0 +1 Y728,1 +1 Y728,2
  +1 Y728,3 +1 Y728,4 +1 Y728,5 +1 Y728,6 +1 Y729,0 +1 Y729,1 +1 Y729,2 +1 Y729,3 +1 Y729,4 +1 Y729,5
  +1 Y729,6 +1 Y730,0 +1 Y730,1 +1 Y730,2 +1 Y730,3 +1 Y730,4 +1 Y730,5 +1 Y730,6 +1 Y732,0 +1 Y732,1
  +1 Y732,2 +1 Y732,3 +1 Y732,4 +1 Y732,5 +1 Y732,6 +1 Y733,0 +1 Y733,1 +1 Y733,2 +1 Y733,3 +1 Y733,4
  +1 Y733,5 +1 Y733,6 +1 Y734,0 +1 Y734,1 +1 Y734,2 +1 Y734,3 +1 Y734,4 +1 Y734,5 +1 Y734,6 +1 Y738,0
  +1 Y738,1 +1 Y738,2 +1 Y738,3 +1 Y738,4 +1 Y738,5 +1 Y738,6 +1 Y739,0 +1 Y739,1 +1 Y739,2 +1 Y739,3
  +1 Y739,4 +1 Y739,5 +1 Y739,6 +1 Y740,0 +1 Y740,1 +1 Y740,2 +1 Y740,3 +1 Y740,4 +1 Y740,5 +1 Y740,6
  +1 Y742,0 +1 Y742,1 +1 Y742,2 +1 Y742,3 +1 Y742,4 +1 Y742,5 +1 Y742,6 +1 Y743,0 +1 Y743,1 +1 Y743,2
  +1 Y743,3 +1 Y743,4 +1 Y743,5 +1 Y743,6 +1 Y744,0 +1 Y744,1 +1 Y744,2 +1 Y744,3 +1 Y744,4 +1 Y744,5
  +1 Y744,6 +1 Y746,0 +1 Y746,1 +1 Y746,2 +1 Y746,3 +1 Y746,4 +1 Y746,5 +1 Y746,6 +1 Y747,0 +1 Y747,1
  +1 Y747,2 +1 Y747,3 +1 Y747,4 +1 Y747,5 +1 Y747,6 +1 Y751,0 +1 Y751,1 +1 Y751,2 +1 Y751,3 +1 Y751,4
  +1 Y751,5 +1 Y751,6 +1 Y752,0 +1 Y752,1 +1 Y752,2 +1 Y752,3 +1 Y752,4 +1 Y752,5 +1 Y752,6 +1 Y753,0
  +1 Y753,1 +1 Y753,2 +1 Y753,3 +1 Y753,4 +1 Y753,5 +1 Y753,6 +1 Y757,0 +1 Y757,1 +1 Y757,2 +1 Y757,3
  +1 Y757,4 +1 Y757,5 +1 Y757,6 +1 Y758,0 +1 Y758,1 +1 Y758,2 +1 Y758,3 +1 Y758,4 +1 Y758,5 +1 Y758,6
  +1 Y759,0 +1 Y759,1 +1 Y759,2 +1 Y759,3 +1 Y759,4 +1 Y759,5 +1 Y759,6 +1 Y763,0 +1 Y763,1 +1 Y763,2
  +1 Y763,3 +1 Y763,4 +1 Y763,5 +1 Y763,6 +1 Y764,0 +1 Y764,1 +1 Y764,2 +1 Y764,3 +1 Y764,4 +1 Y764,5
  +1 Y764,6 +1 Y765,0 +1 Y765,1 +1 Y765,2 +1 Y765,3 +1 Y765,4 +1 Y765,5 +1 Y765,6 +1 Y767,0 +1 Y767,1
  +1 Y767,2 +1 Y767,3 +1 Y767,4 +1 Y767,5 +1 Y767,6 +1 Y768,0 +1 Y768,1 +1 Y768,2 +1 Y768,3 +1 Y768,4
  +1 Y768,5 +1 Y768,6 +1 Y769,0 +1 Y769,1 +1 Y769,2 +1 Y769,3 +1 Y769,4 +1 Y769,5 +1 Y769,6 +1 Y773,0
  +1 Y773,1 +1 Y773,2 +1 Y773,3 +1 Y773,4 +1 Y773,5 +1 Y773,6 +1 Y774,0 +1 Y774,1 +1 Y774,2 +1 Y774,3
  +1 Y774,4 +1 Y774,5 +1 Y774,6 +1 Y775,0 +1 Y775,1 +1 Y775,2 +1 Y775,3 +1 Y775,4 +1 Y775,5 +1 Y775,6
  +1 Y777,0 +1 Y777,1 +1 Y777,2 +1 Y777,3 +1 Y777,4 +1 Y777,5 +1 Y777,6 +1 Y778,0 +1 Y778,1 +1 Y778,2
  +1 Y778,3 +1 Y778,4 +1 Y778,5 +1 Y778,6 +1 Y779,0 +1 Y779,1 +1 Y779,2 +1 Y779,3 +1 Y779,4 +1 Y779,5
  +1 Y779,6 +1 Y781,0 +1 Y781,1 +1 Y781,2 +1 Y781,3 +1 Y781,4 +1 Y781,5 +1 Y781,6 +1 Y782,0 +1 Y782,1
  +1 Y782,2 +1 Y782,3 +1 Y782,4 +1 Y782,5 +1 Y782,6 +1 Y783,0 +1 Y783,1 +1 Y783,2 +1 Y783,3 +1 Y783,4
  +1 Y783,5 +1 Y783,6 +1 Y784,0 +1 Y784,1 +1 Y784,2 +1 Y784,3 +1 Y784,4 +1 Y784,5 +1 Y784,6 +1 Y788,0
  +1 Y788,1 +1 Y788,2 +1 Y788,3 +1 Y788,4 +1 Y788,5 +1 Y788,6 +1 Y789,0 +1 Y789,1 +1 Y789,2 +1 Y789,3
  +1 Y789,4 +1 Y789,5 +1 Y789,6 +1 Y790,0 +1 Y790,1 +1 Y790,2 +1 Y790,3 +1 Y790,4 +1 Y790,5 +1 Y790,6
  +1 Y792,0 +1 Y792,1 +1 Y792,2 +1 Y792,3 +1 Y792,4 +1 Y792,5 +1 Y792,6 +1 Y793,0 +1 Y793,1 +1 Y793,2
  +1 Y793,3 +1 Y793,4 +1 Y793,5 +1 Y793,6 +1 Y794,0 +1 Y794,1 +1 Y794,2 +1 Y794,3 +1 Y794,4 +1 Y794,5
  +1 Y794,6 +1 Y796,0 +1 Y796,1 +1 Y796,2 +1 Y796,3 +1 Y796,4 +1 Y796,5 +1 Y796,6 +1 Y797,0 +1 Y797,1
  +1 Y797,2 +1 Y797,3 +1 Y797,4 +1 Y797,5 +1 Y797,6 +1 Y798,0 +1 Y798,1 +1 Y798,2 +1 Y798,3 +1 Y798,4
  +1 Y798,5 +1 Y798,6 +1 Y799,0 +1 Y799,1 +1 Y799,2 +1 Y799,3 +1 Y799,4 +1 Y799,5 +1 Y799,6 +1 Y801,0
  +1 Y801,1 +1 Y801,2 +1 Y801,3 +1 Y801,4 +1 Y801,5 +1 Y801,6 +1 Y802,0 +1 Y802,1 +1 Y802,2 +1 Y802,3
  +1 Y802,4 +1 Y802,5 +1 Y802,6 +1 Y803,0 +1 Y803,1 +1 Y803,2 +1 Y803,3 +1 Y803,4 +1 Y803,5 +1 Y803,6
  +1 Y804,0 +1 Y804,1 +1 Y804,2 +1 Y804,3 +1 Y804,4 +1 Y804,5 +1 Y804,6 +1 Y805,0 +1 Y805,1 +1 Y805,2
  +1 Y805,3 +1 Y805,4 +1 Y805,5 +1 Y805,6 +1 Y809,0 +1 Y809,1 +1 Y809,2 +1 Y809,3 +1 Y809,4 +1 Y809,5
  +1 Y809,6 +1 Y810,0 +1 Y810,1 +1 Y810,2 +1 Y810,3 +1 Y810,4 +1 Y810,5 +1 Y810,6 +1 Y811,0 +1 Y811,1
  +1 Y811,2 +1 Y811,3 +1 Y811,4 +1 Y811,5 +1 Y811,6 +1 Y813,0 +1 Y813,1 +1 Y813,2 +1 Y813,3 +1 Y813,4
  +1 Y813,5 +1 Y813,6 +1 Y814,0 +1 Y814,1 +1 Y814,2 +1 Y814,3 +1 Y814,4 +1 Y814,5 +1 Y814,6 +1 Y815,0
  +1 Y815,1 +1 Y815,2 +1 Y815,3 +1 Y815,4 +1 Y815,5 +1 Y815,6 +1 Y817,0 +1 Y817,1 +1 Y817,2 +1 Y817,3
  +1 Y817,4 +1 Y817,5 +1 Y817,6 +1 Y818,0 +1 Y818,1 +1 Y818,2 +1 Y818,3 +1 Y818,4 +1 Y818,5 +1 Y818,6
  +1 Y819,0 +1 Y819,1 +1 Y819,2 +1 Y819,3 +1 Y819,4 +1 Y819,5 +1 Y819,6 +1 Y820,0 +1 Y820,1 +1 Y820,2
  +1 Y820,3 +1 Y820,4 +1 Y820,5 +1 Y820,6 +1 Y822,0 +1 Y822,1 +1 Y822,2 +1 Y822,3 +1 Y822,4 +1 Y822,5
  +1 Y822,6 +1 Y823,0 +1 Y823,1 +1 Y823,2 +1 Y823,3 +1 Y823,4 +1 Y823,5 +1 Y823,6 +1 Y824,0 +1 Y824,1
  +1 Y824,2 +1 Y824,3 +1 Y824,4 +1 Y824,5 +1 Y824,6 +1 Y825,0 +1 Y825,1 +1 Y825,2 +1 Y825,3 +1 Y825,4
  +1 Y825,5 +1 Y825,6 +1 Y826,0 +1 Y826,1 +1 Y826,2 +1 Y826,3 +1 Y826,4 +1 Y826,5 +1 Y826,6 +1 Y828,0
  +1 Y828,1 +1 Y828,2 +1 Y828,3 +1 Y828,4 +1 Y828,5 +1 Y828,6 +1 Y829,0 +1 Y829,1 +1 Y829,2 +1 Y829,3
  +1 Y829,4 +1 Y829,5 +1 Y829,6 +1 Y830,0 +1 Y830,1 +1 Y830,2 +1 Y830,3 +1 Y830,4 +1 Y830,5 +1 Y830,6
  +1 Y831,0 +1 Y831,1 +1 Y831,2 +1 Y831,3 +1 Y831,4 +1 Y831,5 +1 Y831,6 +1 Y832,0 +1 Y832,1 +1 Y832,2
  +1 Y832,3 +1 Y832,4 +1 Y832,5 +1 Y832,6 +1 Y833,0 +1 Y833,1 +1 Y833,2 +1 Y833,3 +1 Y833,4 +1 Y833,5
  +1 Y833,6 +1 Y835,0 +1 Y835,1 +1 Y835,2 +1 Y835,3 +1 Y835,4 +1 Y835,5 +1 Y835,6 +1 Y836,0 +1 Y836,1
  +1 Y836,2 +1 Y836,3 +1 Y836,4 +1 Y836,5 +1 Y836,6 +1 Y837,0 +1 Y837,1 +1 Y837,2 +1 Y837,3 +1 Y837,4
  +1 Y837,5 +1 Y837,6 +1 Y838,0 +1 Y838,1 +1 Y838,2 +1 Y838,3 +1 Y838,4 +1 Y838,5 +1 Y838,6 +1 Y839,0
  +1 Y839,1 +1 Y839,2 +1 Y839,3 +1 Y839,4 +1 Y839,5 +1 Y839,6 = +1
 c30: +1 Y590,0 +1 Y590,1 +1 Y590,2 +1 Y590,3 +1 Y590,4 +1 Y590,5 +1 Y590,6 +1 Y597,0 +1 Y597,1 +1 Y597,2
  +1 Y597,3 +1 Y597,4 +1 Y597,5 +1 Y597,6 +1 Y603,0 +1 Y603,1 +1 Y603,2 +1 Y603,3 +1 Y603,4 +1 Y603,5
  +1 Y603,6 +1 Y608,0 +1 Y608,1 +1 Y608,2 +1 Y608,3 +1 Y608,4 +1 Y608,5 +1 Y608,6 +1 Y612,0 +1 Y612,1
  +1 Y612,2 +1 Y612,3 +1 Y612,4 +1 Y612,5 +1 Y612,6 +1 Y615,0 +1 Y615,1 +1 Y615,2 +1 Y615,3 +1 Y615,4
  +1 Y615,5 +1 Y615,6 +1 Y618,0 +1 Y618,1 +1 Y618,2 +1 Y618,3 +1 Y618,4 +1 Y618,5 +1 Y618,6 +1 Y619,0
  +1 Y619,1 +1 Y619,2 +1 Y619,3 +1 Y619,4 +1 Y619,5 +1 Y619,6 +1 Y624,0 +1 Y624,1 +1 Y624,2 +1 Y624,3
  +1 Y624,4 +1 Y624,5 +1 Y624,6 +1 Y629,0 +1 Y629,1 +1 Y629,2 +1 Y629,3 +1 Y629,4 +1 Y629,5 +1 Y629,6
  +1 Y633,0 +1 Y633,1 +1 Y633,2 +1 Y633,3 +1 Y633,4 +1 Y633,5 +1 Y633,6 +1 Y636,0 +1 Y636,1 +1 Y636,2
  +1 Y636,3 +1 Y636,4 +1 Y636,5 +1 Y636,6 +1 Y639,0 +1 Y639,1 +1 Y639,2 +1 Y639,3 +1 Y639,4 +1 Y639,5
  +1 Y639,6 +1 Y640,0 +1 Y640,1 +1 Y640,2 +1 Y640,3 +1 Y640,4 +1 Y640,5 +1 Y640,6 +1 Y644,0 +1 Y644,1
  +1 Y644,2 +1 Y644,3 +1 Y644,4 +1 Y644,5 +1 Y644,6 +1 Y648,0 +1 Y648,1 +1 Y648,2 +1 Y648,3 +1 Y648,4
  +1 Y648,5 +1 Y648,6 +1 Y651,0 +1 Y651,1 +1 Y651,2 +1 Y651,3 +1 Y651,4 +1 Y651,5 +1 Y651,6 +1 Y654,0
  +1 Y654,1 +1 Y654,2 +1 Y654,3 +1 Y654,4 +1 Y654,5 +1 Y654,6 +1 Y655,0 +1 Y655,1 +1 Y655,2 +1 Y655,3
  +1 Y655,4 +1 Y655,5 +1 Y655,6 +1 Y658,0 +1 Y658,1 +1 Y658,2 +1 Y658,3 +1 Y658,4 +1 Y658,5 +1 Y658,6
  +1 Y661,0 +1 Y661,1 +1 Y661,2 +1 Y661,3 +1 Y661,4 +1 Y661,5 +1 Y661,6 +1 Y664,0 +1 Y664,1 +1 Y664,2
  +1 Y664,3 +1 Y664,4 +1 Y664,5 +1 Y664,6 +1 Y665,0 +1 Y665,1 +1 Y665,2 +1 Y665,3 +1 Y665,4 +1 Y665,5
  +1 Y665,6 +1 Y667,0 +1 Y667,1 +1 Y667,2 +1 Y667,3 +1 Y667,4 +1 Y667,5 +1 Y667,6 +1 Y670,0 +1 Y670,1
  +1 Y670,2 +1 Y670,3 +1 Y670,4 +1 Y670,5 +1 Y670,6 +1 Y671,0 +1 Y671,1 +1 Y671,2 +1 Y671,3 +1 Y671,4
  +1 Y671,5 +1 Y671,6 +1 Y673,0 +1 Y673,1 +1 Y673,2 +1 Y673,3 +1 Y673,4 +1 Y673,5 +1 Y673,6 +1 Y674,0
  +1 Y674,1 +1 Y674,2 +1 Y674,3 +1 Y674,4 +1 Y674,5 +1 Y674,6 +1 Y676,0 +1 Y676,1 +1 Y676,2 +1 Y676,3
  +1 Y676,4 +1 Y676,5 +1 Y676,6 +1 Y679,0 +1 Y679,1 +1 Y679,2 +1 Y679,3 +1 Y679,4 +1 Y679,5 +1 Y679,6
  +1 Y683,0 +1 Y683,1 +1 Y683,2 +1 Y683,3 +1 Y683,4 +1 Y683,5 +1 Y683,6 +1 Y686,0 +1 Y686,1 +1 Y686,2
  +1 Y686,3 +1 Y686,4 +1 Y686,5 +1 Y686,6 +1 Y689,0 +1 Y689,1 +1 Y689,2 +1 Y689,3 +1 Y689,4 +1 Y689,5
  +1 Y689,6 +1 Y690,0 +1 Y690,1 +1 Y690,2 +1 Y690,3 +1 Y690,4 +1 Y690,5 +1 Y690,6 +1 Y693,0 +1 Y693,1
  +1 Y693,2 +1 Y693,3 +1 Y693,4 +1 Y693,5 +1 Y693,6 +1 Y696,0 +1 Y696,1 +1 Y696,2 +1 Y696,3 +1 Y696,4
  +1 Y696,5 +1 Y696,6 +1 Y699,0 +1 Y699,1 +1 Y699,2 +1 Y699,3 +1 Y699,4 +1 Y699,5 +1 Y699,6 +1 Y700,0
  +1 Y700,1 +1 Y700,2 +1 Y700,3 +1 Y700,4 +1 Y700,5 +1 Y700,6 +1 Y702,0 +1 Y702,1 +1 Y702,2 +1 Y702,3
  +1 Y702,4 +1 Y702,5 +1 Y702,6 +1 Y705,0 +1 Y705,1 +1 Y705,2 +1 Y705,3 +1 Y705,4 +1 Y705,5 +1 Y705,6
  +1 Y706,0 +1 Y706,1 +1 Y706,2 +1 Y706,3 +1 Y706,4 +1 Y706,5 +1 Y706,6 +1 Y708,0 +1 Y708,1 +1 Y708,2
  +1 Y708,3 +1 Y708,4 +1 Y708,5 +1 Y708,6 +1 Y709,0 +1 Y709,1 +1 Y709,2 +1 Y709,3 +1 Y709,4 +1 Y709,5
  +1 Y709,6 +1 Y711,0 +1 Y711,1 +1 Y711,2 +1 Y711,3 +1 Y711,4 +1 Y711,5 +1 Y711,6 +1 Y713,0 +1 Y713,1
  +1 Y713,2 +1 Y713,3 +1 Y713,4 +1 Y713,5 +1 Y713,6 +1 Y716,0 +1 Y716,1 +1 Y716,2 +1 Y716,3 +1 Y716,4
  +1 Y716,5 +1 Y716,6 +1 Y719,0 +1 Y719,1 +1 Y719,2 +1 Y719,3 +1 Y719,4 +1 Y719,5 +1 Y719,6 +1 Y720,0
  +1 Y720,1 +1 Y720,2 +1 Y720,3 +1 Y720,4 +1 Y720,5 +1 Y720,6 +1 Y722,0 +1 Y722,1 +1 Y722,2 +1 Y722,3
  +1 Y722,4 +1 Y722,5 +1 Y722,6 +1 Y725,0 +1 Y725,1 +1 Y725,2 +1 Y725,3 +1 Y725,4 +1 Y725,5 +1 Y725,6
  +1 Y726,0 +1 Y726,1 +1 Y726,2 +1 Y726,3 +1 Y726,4 +1 Y726,5 +1 Y726,6 +1 Y728,0 +1 Y728,1 +1 Y728,2
  +1 Y728,3 +1 Y728,4 +1 Y728,5 +1 Y728,6 +1 Y729,0 +1 Y729,1 +1 Y729,2 +1 Y729,3 +1 Y729,4 +1 Y729,5
  +1 Y729,6 +1 Y731,0 +1 Y731,1 +1 Y731,2 +1 Y731,3 +1 Y731,4 +1 Y731,5 +1 Y731,6 +1 Y732,0 +1 Y732,1
  +1 Y732,2 +1 Y732,3 +1 Y732,4 +1 Y732,5 +1 Y732,6 +1 Y735,0 +1 Y735,1 +1 Y735,2 +1 Y735,3 +1 Y735,4
  +1 Y735,5 +1 Y735,6 +1 Y736,0 +1 Y736,1 +1 Y736,2 +1 Y736,3 +1 Y736,4 +1 Y736,5 +1 Y736,6 +1 Y738,0
  +1 Y738,1 +1 Y738,2 +1 Y738,3 +1 Y738,4 +1 Y738,5 +1 Y738,6 +1 Y739,0 +1 Y739,1 +1 Y739,2 +1 Y739,3
  +1 Y739,4 +1 Y739,5 +1 Y739,6 +1 Y741,0 +1 Y741,1 +1 Y741,2 +1 Y741,3 +1 Y741,4 +1 Y741,5 +1 Y741,6
  +1 Y742,0 +1 Y742,1 +1 Y742,2 +1 Y742,3 +1 Y742,4 +1 Y742,5 +1 Y742,6 +1 Y743,0 +1 Y743,1 +1 Y743,2
  +1 Y743,3 +1 Y743,4 +1 Y743,5 +1 Y743,6 +1 Y745,0 +1 Y745,1 +1 Y745,2 +1 Y745,3 +1 Y745,4 +1 Y745,5
  +1 Y745,6 +1 Y746,0 +1 Y746,1 +1 Y746,2 +1 Y746,3 +1 Y746,4 +1 Y746,5 +1 Y746,6 +1 Y748,0 +1 Y748,1
  +1 Y748,2 +1 Y748,3 +1 Y748,4 +1 Y748,5 +1 Y748,6 +1 Y751,0 +1 Y751,1 +1 Y751,2 +1 Y751,3 +1 Y751,4
  +1 Y751,5 +1 Y751,6 +1 Y754,0 +1 Y754,1 +1 Y754,2 +1 Y754,3 +1 Y754,4 +1 Y754,5 +1 Y754,6 +1 Y755,0
  +1 Y755,1 +1 Y755,2 +1 Y755,3 +1 Y755,4 +1 Y755,5 +1 Y755,6 +1 Y757,0 +1 Y757,1 +1 Y757,2 +1 Y757,3
  +1 Y757,4 +1 Y757,5 +1 Y757,6 +1 Y760,0 +1 Y760,1 +1 Y760,2 +1 Y760,3 +1 Y760,4 +1 Y760,5 +1 Y760,6
  +1 Y761,0 +1 Y761,1 +1 Y761,2 +1 Y761,3 +1 Y761,4 +1 Y761,5 +1 Y761,6 +1 Y763,0 +1 Y763,1 +1 Y763,2
  +1 Y763,3 +1 Y763,4 +1 Y763,5 +1 Y763,6 +1 Y764,0 +1 Y764,1 +1 Y764,2 +1 Y764,3 +1 Y764,4 +1 Y764,5
  +1 Y764,6 +1 Y766,0 +1 Y766,1 +1 Y766,2 +1 Y766,3 +1 Y766,4 +1 Y766,5 +1 Y766,6 +1 Y767,0 +1 Y767,1
  +1 Y767,2 +1 Y767,3 +1 Y767,4 +1 Y767,5 +1 Y767,6 +1 Y770,0 +1 Y770,1 +1 Y770,2 +1 Y770,3 +1 Y770,4
  +1 Y770,5 +1 Y770,6 +1 Y771,0 +1 Y771,1 +1 Y771,2 +1 Y771,3 +1 Y771,4 +1 Y771,5 +1 Y771,6 +1 Y773,0
  +1 Y773,1 +1 Y773,2 +1 Y773,3 +1 Y773,4 +1 Y773,5 +1 Y773,6 +1 Y774,0 +1 Y774,1 +1 Y774,2 +1 Y774,3
  +1 Y774,4 +1 Y774,5 +1 Y774,6 +1 Y776,0 +1 Y776,1 +1 Y776,2 +1 Y776,3 +1 Y776,4 +1 Y776,5 +1 Y776,6
  +1 Y777,0 +1 Y777,1 +1 Y777,2 +1 Y777,3 +1 Y777,4 +1 Y777,5 +1 Y777,6 +1 Y778,0 +1 Y778,1 +1 Y778,2
  +1 Y778,3 +1 Y778,4 +1 Y778,5 +1 Y778,6 +1 Y780,0 +1 Y780,1 +1 Y780,2 +1 Y780,3 +1 Y780,4 +1 Y780,5
  +1 Y780,6 +1 Y781,0 +1 Y781,1 +1 Y781,2 +1 Y781,3 +1 Y781,4 +1 Y781,5 +1 Y781,6 +1 Y782,0 +1 Y782,1
  +1 Y782,2 +1 Y782,3 +1 Y782,4 +1 Y782,5 +1 Y782,6 +1 Y785,0 +1 Y785,1 +1 Y785,2 +1 Y785,3 +1 Y785,4
  +1 Y785,5 +1 Y785,6 +1 Y786,0 +1 Y786,1 +1 Y786,2 +1 Y786,3 +1 Y786,4 +1 Y786,5 +1 Y786,6 +1 Y788,0
  +1 Y788,1 +1 Y788,2 +1 Y788,3 +1 Y788,4 +1 Y788,5 +1 Y788,6 +1 Y789,0 +1 Y789,1 +1 Y789,2 +1 Y789,3
  +1 Y789,4 +1 Y789,5 +1 Y789,6 +1 Y791,0 +1 Y791,1 +1 Y791,2 +1 Y791,3 +1 Y791,4 +1 Y791,5 +1 Y791,6
  +1 Y792,0 +1 Y792,1 +1 Y792,2 +1 Y792,3 +1 Y792,4 +1 Y792,5 +1 Y792,6 +1 Y793,0 +1 Y793,1 +1 Y793,2
  +1 Y793,3 +1 Y793,4 +1 Y793,5 +1 Y793,6 +1 Y795,0 +1 Y795,1 +1 Y795,2 +1 Y795,3 +1 Y795,4 +1 Y795,5
  +1 Y795,6 +1 Y796,0 +1 Y796,1 +1 Y796,2 +1 Y796,3 +1 Y796,4 +1 Y796,5 +1 Y796,6 +1 Y797,0 +1 Y797,1
  +1 Y797,2 +1 Y797,3 +1 Y797,4 +1 Y797,5 +1 Y797,6 +1 Y798,0 +1 Y798,1 +1 Y798,2 +1 Y798,3 +1 Y798,4
  +1 Y798,5 +1 Y798,6 +1 Y800,0 +1 Y800,1 +1 Y800,2 +1 Y800,3 +1 Y800,4 +1 Y800,5 +1 Y800,6 +1 Y801,0
  +1 Y801,1 +1 Y801,2 +1 Y801,3 +1 Y801,4 +1 Y801,5 +1 Y801,6 +1 Y802,0 +1 Y802,1 +1 Y802,2 +1 Y802,3
  +1 Y802,4 +1 Y802,5 +1 Y802,6 +1 Y803,0 +1 Y803,1 +1 Y803,2 +1 Y803,3 +1 Y803,4 +1 Y803,5 +1 Y803,6
  +1 Y806,0 +1 Y806,1 +1 Y806,2 +1 Y806,3 +1 Y806,4 +1 Y806,5 +1 Y806,6 +1 Y807,0 +1 Y807,1 +1 Y807,2
  +1 Y807,3 +1 Y807,4 +1 Y807,5 +1 Y807,6 +1 Y809,0 +1 Y809,1 +1 Y809,2 +1 Y809,3 +1 Y809,4 +1 Y809,5
  +1 Y809,6 +1 Y810,0 +1 Y810,1 +1 Y810,2 +1 Y810,3 +1 Y810,4 +1 Y810,5 +1 Y810,6 +1 Y812,0 +1 Y812,1
  +1 Y812,2 +1 Y812,3 +1 Y812,4 +1 Y812,5 +1 Y812,6 +1 Y813,0 +1 Y813,1 +1 Y813,2 +1 Y813,3 +1 Y813,4
  +1 Y813,5 +1 Y813,6 +1 Y814,0 +1 Y814,1 +1 Y814,2 +1 Y814,3 +1 Y814,4 +1 Y814,5 +1 Y814,6 +1 Y816,0
  +1 Y816,1 +1 Y816,2 +1 Y816,3 +1 Y816,4 +1 Y816,5 +1 Y816,6 +1 Y817,0 +1 Y817,1 +1 Y817,2 +1 Y817,3
  +1 Y817,4 +1 Y817,5 +1 Y817,6 +1 Y818,0 +1 Y818,1 +1 Y818,2 +1 Y818,3 +1 Y818,4 +1 Y818,5 +1 Y818,6
  +1 Y819,0 +1 Y819,1 +1 Y819,2 +1 Y819,3 +1 Y819,4 +1 Y819,5 +1 Y819,6 +1 Y821,0 +1 Y821,1 +1 Y821,2
  +1 Y821,3 +1 Y821,4 +1 Y821,5 +1 Y821,6 +1 Y822,0 +1 Y822,1 +1 Y822,2 +1 Y822,3 +1 Y822,4 +1 Y822,5
  +1 Y822,6 +1 Y823,0 +1 Y823,1 +1 Y823,2 +1 Y823,3 +1 Y823,4 +1 Y823,5 +1 Y823,6 +1 Y824,0 +1 Y824,1
  +1 Y824,2 +1 Y824,3 +1 Y824,4 +1 Y824,5 +1 Y824,6 +1 Y825,0 +1 Y825,1 +1 Y825,2 +1 Y825,3 +1 Y825,4
  +1 Y825,5 +1 Y825,6 +1 Y827,0 +1 Y827,1 +1 Y827,2 +1 Y827,3 +1 Y827,4 +1 Y827,5 +1 Y827,6 +1 Y828,0
  +1 Y828,1 +1 Y828,2 +1 Y828,3 +1 Y828,4 +1 Y828,5 +1 Y828,6 +1 Y829,0 +1 Y829,1 +1 Y829,2 +1 Y829,3
  +1 Y829,4 +1 Y829,5 +1 Y829,6 +1 Y830,0 +1 Y830,1 +1 Y830,2 +1 Y830,3 +1 Y830,4 +1 Y830,5 +1 Y830,6
  +1 Y831,0 +1 Y831,1 +1 Y831,2 +1 Y831,3 +1 Y831,4 +1 Y831,5 +1 Y831,6 +1 Y832,0 +1 Y832,1 +1 Y832,2
  +1 Y832,3 +1 Y832,4 +1 Y832,5 +1 Y832,6 +1 Y834,0 +1 Y834,1 +1 Y834,2 +1 Y834,3 +1 Y834,4 +1 Y834,5
  +1 Y834,6 +1 Y835,0 +1 Y835,1 +1 Y835,2 +1 Y835,3 +1 Y835,4 +1 Y835,5 +1 Y835,6 +1 Y836,0 +1 Y836,1
  +1 Y836,2 +1 Y836,3 +1 Y836,4 +1 Y836,5 +1 Y836,6 +1 Y837,0 +1 Y837,1 +1 Y837,2 +1 Y837,3 +1 Y837,4
  +1 Y837,5 +1 Y837,6 +1 Y838,0 +1 Y838,1 +1 Y838,2 +1 Y838,3 +1 Y838,4 +1 Y838,5 +1 Y838,6 +1 Y839,0
  +1 Y839,1 +1 Y839,2 +1 Y839,3 +1 Y839,4 +1 Y839,5 +1 Y839,6 = +1
 c31: +1 Y841,0 +1 Y841,1 +1 Y841,2 +1 Y841,3 +1 Y841,4 +1 Y841,5 +1 Y841,6 +1 Y842,0 +1 Y842,1 +1 Y842,2
  +1 Y842,3 +1 Y842,4 +1 Y842,5 +1 Y842,6 = +1
 c32: +1 Y99,0 +1 Y99,1 +1 Y99,2 +1 Y99,3 +1 Y99,4 +1 Y99,5 +1 Y99,6 +1 Y106,0 +1 Y106,1 +1 Y106,2 +1 Y106,3
  +1 Y106,4 +1 Y106,5 +1 Y106,6 +1 Y112,0 +1 Y112,1 +1 Y112,2 +1 Y112,3 +1 Y112,4 +1 Y112,5 +1 Y112,6
  +1 Y117,0 +1 Y117,1 +1 Y117,2 +1 Y117,3 +1 Y117,4 +1 Y117,5 +1 Y117,6 +1 Y121,0 +1 Y121,1 +1 Y121,2
  +1 Y121,3 +1 Y121,4 +1 Y121,5 +1 Y121,6 +1 Y124,0 +1 Y124,1 +1 Y124,2 +1 Y124,3 +1 Y124,4 +1 Y124,5
  +1 Y124,6 +1 Y127,0 +1 Y127,1 +1 Y127,2 +1 Y127,3 +1 Y127,4 +1 Y127,5 +1 Y127,6 +1 Y128,0 +1 Y128,1
  +1 Y128,2 +1 Y128,3 +1 Y128,4 +1 Y128,5 +1 Y128,6 +1 Y133,0 +1 Y133,1 +1 Y133,2 +1 Y133,3 +1 Y133,4
  +1 Y133,5 +1 Y133,6 +1 Y138,0 +1 Y138,1 +1 Y138,2 +1 Y138,3 +1 Y138,4 +1 Y138,5 +1 Y138,6 +1 Y142,0
  +1 Y142,1 +1 Y142,2 +1 Y142,3 +1 Y142,4 +1 Y142,5 +1 Y142,6 +1 Y145,0 +1 Y145,1 +1 Y145,2 +1 Y145,3
  +1 Y145,4 +1 Y145,5 +1 Y145,6 +1 Y148,0 +1 Y148,1 +1 Y148,2 +1 Y148,3 +1 Y148,4 +1 Y148,5 +1 Y148,6
  +1 Y149,0 +1 Y149,1 +1 Y149,2 +1 Y149,3 +1 Y149,4 +1 Y149,5 +1 Y149,6 +1 Y153,0 +1 Y153,1 +1 Y153,2
  +1 Y153,3 +1 Y153,4 +1 Y153,5 +1 Y153,6 +1 Y157,0 +1 Y157,1 +1 Y157,2 +1 Y157,3 +1 Y157,4 +1 Y157,5
  +1 Y157,6 +1 Y160,0 +1 Y160,1 +1 Y160,2 +1 Y160,3 +1 Y160,4 +1 Y160,5 +1 Y160,6 +1 Y163,0 +1 Y163,1
  +1 Y163,2 +1 Y163,3 +1 Y163,4 +1 Y163,5 +1 Y163,6 +1 Y164,0 +1 Y164,1 +1 Y164,2 +1 Y164,3 +1 Y164,4
  +1 Y164,5 +1 Y164,6 +1 Y167,0 +1 Y167,1 +1 Y167,2 +1 Y167,3 +1 Y167,4 +1 Y167,5 +1 Y167,6 +1 Y170,0
  +1 Y170,1 +1 Y170,2 +1 Y170,3 +1 Y170,4 +1 Y170,5 +1 Y170,6 +1 Y173,0 +1 Y173,1 +1 Y173,2 +1 Y173,3
  +1 Y173,4 +1 Y173,5 +1 Y173,6 +1 Y174,0 +1 Y174,1 +1 Y174,2 +1 Y174,3 +1 Y174,4 +1 Y174,5 +1 Y174,6
  +1 Y176,0 +1 Y176,1 +1 Y176,2 +1 Y176,3 +1 Y176,4 +1 Y176,5 +1 Y176,6 +1 Y179,0 +1 Y179,1 +1 Y179,2
  +1 Y179,3 +1 Y179,4 +1 Y179,5 +1 Y179,6 +1 Y180,0 +1 Y180,1 +1 Y180,2 +1 Y180,3 +1 Y180,4 +1 Y180,5
  +1 Y180,6 +1 Y182,0 +1 Y182,1 +1 Y182,2 +1 Y182,3 +1 Y182,4 +1 Y182,5 +1 Y182,6 +1 Y183,0 +1 Y183,1
  +1 Y183,2 +1 Y183,3 +1 Y183,4 +1 Y183,5 +1 Y183,6 +1 Y185,0 +1 Y185,1 +1 Y185,2 +1 Y185,3 +1 Y185,4
  +1 Y185,5 +1 Y185,6 +1 Y188,0 +1 Y188,1 +1 Y188,2 +1 Y188,3 +1 Y188,4 +1 Y188,5 +1 Y188,6 +1 Y192,0
  +1 Y192,1 +1 Y192,2 +1 Y192,3 +1 Y192,4 +1 Y192,5 +1 Y192,6 +1 Y195,0 +1 Y195,1 +1 Y195,2 +1 Y195,3
  +1 Y195,4 +1 Y195,5 +1 Y195,6 +1 Y198,0 +1 Y198,1 +1 Y198,2 +1 Y198,3 +1 Y198,4 +1 Y198,5 +1 Y198,6
  +1 Y199,0 +1 Y199,1 +1 Y199,2 +1 Y199,3 +1 Y199,4 +1 Y199,5 +1 Y199,6 +1 Y202,0 +1 Y202,1 +1 Y202,2
  +1 Y202,3 +1 Y202,4 +1 Y202,5 +1 Y202,6 +1 Y205,0 +1 Y205,1 +1 Y205,2 +1 Y205,3 +1 Y205,4 +1 Y205,5
  +1 Y205,6 +1 Y208,0 +1 Y208,1 +1 Y208,2 +1 Y208,3 +1 Y208,4 +1 Y208,5 +1 Y208,6 +1 Y209,0 +1 Y209,1
  +1 Y209,2 +1 Y209,3 +1 Y209,4 +1 Y209,5 +1 Y209,6 +1 Y211,0 +1 Y211,1 +1 Y211,2 +1 Y211,3 +1 Y211,4
  +1 Y211,5 +1 Y211,6 +1 Y214,0 +1 Y214,1 +1 Y214,2 +1 Y214,3 +1 Y214,4 +1 Y214,5 +1 Y214,6 +1 Y215,0
  +1 Y215,1 +1 Y215,2 +1 Y215,3 +1 Y215,4 +1 Y215,5 +1 Y215,6 +1 Y217,0 +1 Y217,1 +1 Y217,2 +1 Y217,3
  +1 Y217,4 +1 Y217,5 +1 Y217,6 +1 Y218,0 +1 Y218,1 +1 Y218,2 +1 Y218,3 +1 Y218,4 +1 Y218,5 +1 Y218,6
  +1 Y220,0 +1 Y220,1 +1 Y220,2 +1 Y220,3 +1 Y220,4 +1 Y220,5 +1 Y220,6 +1 Y222,0 +1 Y222,1 +1 Y222,2
  +1 Y222,3 +1 Y222,4 +1 Y222,5 +1 Y222,6 +1 Y225,0 +1 Y225,1 +1 Y225,2 +1 Y225,3 +1 Y225,4 +1 Y225,5
  +1 Y225,6 +1 Y228,0 +1 Y228,1 +1 Y228,2 +1 Y228,3 +1 Y228,4 +1 Y228,5 +1 Y228,6 +1 Y229,0 +1 Y229,1
  +1 Y229,2 +1 Y229,3 +1 Y229,4 +1 Y229,5 +1 Y229,6 +1 Y231,0 +1 Y231,1 +1 Y231,2 +1 Y231,3 +1 Y231,4
  +1 Y231,5 +1 Y231,6 +1 Y234,0 +1 Y234,1 +1 Y234,2 +1 Y234,3 +1 Y234,4 +1 Y234,5 +1 Y234,6 +1 Y235,0
  +1 Y235,1 +1 Y235,2 +1 Y235,3 +1 Y235,4 +1 Y235,5 +1 Y235,6 +1 Y237,0 +1 Y237,1 +1 Y237,2 +1 Y237,3
  +1 Y237,4 +1 Y237,5 +1 Y237,6 +1 Y238,0 +1 Y238,1 +1 Y238,2 +1 Y238,3 +1 Y238,4 +1 Y238,5 +1 Y238,6
  +1 Y240,0 +1 Y240,1 +1 Y240,2 +1 Y240,3 +1 Y240,4 +1 Y240,5 +1 Y240,6 +1 Y241,0 +1 Y241,1 +1 Y241,2
  +1 Y241,3 +1 Y241,4 +1 Y241,5 +1 Y241,6 +1 Y244,0 +1 Y244,1 +1 Y244,2 +1 Y244,3 +1 Y244,4 +1 Y244,5
  +1 Y244,6 +1 Y245,0 +1 Y245,1 +1 Y245,2 +1 Y245,3 +1 Y245,4 +1 Y245,5 +1 Y245,6 +1 Y247,0 +1 Y247,1
  +1 Y247,2 +1 Y247,3 +1 Y247,4 +1 Y247,5 +1 Y247,6 +1 Y248,0 +1 Y248,1 +1 Y248,2 +1 Y248,3 +1 Y248,4
  +1 Y248,5 +1 Y248,6 +1 Y250,0 +1 Y250,1 +1 Y250,2 +1 Y250,3 +1 Y250,4 +1 Y250,5 +1 Y250,6 +1 Y251,0
  +1 Y251,1 +1 Y251,2 +1 Y251,3 +1 Y251,4 +1 Y251,5 +1 Y251,6 +1 Y252,0 +1 Y252,1 +1 Y252,2 +1 Y252,3
  +1 Y252,4 +1 Y252,5 +1 Y252,6 +1 Y254,0 +1 Y254,1 +1 Y254,2 +1 Y254,3 +1 Y254,4 +1 Y254,5 +1 Y254,6
  +1 Y255,0 +1 Y255,1 +1 Y255,2 +1 Y255,3 +1 Y255,4 +1 Y255,5 +1 Y255,6 +1 Y257,0 +1 Y257,1 +1 Y257,2
  +1 Y257,3 +1 Y257,4 +1 Y257,5 +1 Y257,6 +1 Y260,0 +1 Y260,1 +1 Y260,2 +1 Y260,3 +1 Y260,4 +1 Y260,5
  +1 Y260,6 +1 Y263,0 +1 Y263,1 +1 Y263,2 +1 Y263,3 +1 Y263,4 +1 Y263,5 +1 Y263,6 +1 Y264,0 +1 Y264,1
  +1 Y264,2 +1 Y264,3 +1 Y264,4 +1 Y264,5 +1 Y264,6 +1 Y266,0 +1 Y266,1 +1 Y266,2 +1 Y266,3 +1 Y266,4
  +1 Y266,5 +1 Y266,6 +1 Y269,0 +1 Y269,1 +1 Y269,2 +1 Y269,3 +1 Y269,4 +1 Y269,5 +1 Y269,6 +1 Y270,0
  +1 Y270,1 +1 Y270,2 +1 Y270,3 +1 Y270,4 +1 Y270,5 +1 Y270,6 +1 Y272,0 +1 Y272,1 +1 Y272,2 +1 Y272,3
  +1 Y272,4 +1 Y272,5 +1 Y272,6 +1 Y273,0 +1 Y273,1 +1 Y273,2 +1 Y273,3 +1 Y273,4 +1 Y273,5 +1 Y273,6
  +1 Y275,0 +1 Y275,1 +1 Y275,2 +1 Y275,3 +1 Y275,4 +1 Y275,5 +1 Y275,6 +1 Y276,0 +1 Y276,1 +1 Y276,2
  +1 Y276,3 +1 Y276,4 +1 Y276,5 +1 Y276,6 +1 Y279,0 +1 Y279,1 +1 Y279,2 +1 Y279,3 +1 Y279,4 +1 Y279,5
  +1 Y279,6 +1 Y280,0 +1 Y280,1 +1 Y280,2 +1 Y280,3 +1 Y280,4 +1 Y280,5 +1 Y280,6 +1 Y282,0 +1 Y282,1
  +1 Y282,2 +1 Y282,3 +1 Y282,4 +1 Y282,5 +1 Y282,6 +1 Y283,0 +1 Y283,1 +1 Y283,2 +1 Y283,3 +1 Y283,4
  +1 Y283,5 +1 Y283,6 +1 Y285,0 +1 Y285,1 +1 Y285,2 +1 Y285,3 +1 Y285,4 +1 Y285,5 +1 Y285,6 +1 Y286,0
  +1 Y286,1 +1 Y286,2 +1 Y286,3 +1 Y286,4 +1 Y286,5 +1 Y286,6 +1 Y287,0 +1 Y287,1 +1 Y287,2 +1 Y287,3
  +1 Y287,4 +1 Y287,5 +1 Y287,6 +1 Y289,0 +1 Y289,1 +1 Y289,2 +1 Y289,3 +1 Y289,4 +1 Y289,5 +1 Y289,6
  +1 Y290,0 +1 Y290,1 +1 Y290,2 +1 Y290,3 +1 Y290,4 +1 Y290,5 +1 Y290,6 +1 Y291,0 +1 Y291,1 +1 Y291,2
  +1 Y291,3 +1 Y291,4 +1 Y291,5 +1 Y291,6 +1 Y294,0 +1 Y294,1 +1 Y294,2 +1 Y294,3 +1 Y294,4 +1 Y294,5
  +1 Y294,6 +1 Y295,0 +1 Y295,1 +1 Y295,2 +1 Y295,3 +1 Y295,4 +1 Y295,5 +1 Y295,6 +1 Y297,0 +1 Y297,1
  +1 Y297,2 +1 Y297,3 +1 Y297,4 +1 Y297,5 +1 Y297,6 +1 Y298,0 +1 Y298,1 +1 Y298,2 +1 Y298,3 +1 Y298,4
  +1 Y298,5 +1 Y298,6 +1 Y300,0 +1 Y300,1 +1 Y300,2 +1 Y300,3 +1 Y300,4 +1 Y300,5 +1 Y300,6 +1 Y301,0
  +1 Y301,1 +1 Y301,2 +1 Y301,3 +1 Y301,4 +1 Y301,5 +1 Y301,6 +1 Y302,0 +1 Y302,1 +1 Y302,2 +1 Y302,3
  +1 Y302,4 +1 Y302,5 +1 Y302,6 +1 Y304,0 +1 Y304,1 +1 Y304,2 +1 Y304,3 +1 Y304,4 +1 Y304,5 +1 Y304,6
  +1 Y305,0 +1 Y305,1 +1 Y305,2 +1 Y305,3 +1 Y305,4 +1 Y305,5 +1 Y305,6 +1 Y306,0 +1 Y306,1 +1 Y306,2
  +1 Y306,3 +1 Y306,4 +1 Y306,5 +1 Y306,6 +1 Y307,0 +1 Y307,1 +1 Y307,2 +1 Y307,3 +1 Y307,4 +1 Y307,5
  +1 Y307,6 +1 Y309,0 +1 Y309,1 +1 Y309,2 +1 Y309,3 +1 Y309,4 +1 Y309,5 +1 Y309,6 +1 Y310,0 +1 Y310,1
  +1 Y310,2 +1 Y310,3 +1 Y310,4 +1 Y310,5 +1 Y310,6 +1 Y311,0 +1 Y311,1 +1 Y311,2 +1 Y311,3 +1 Y311,4
  +1 Y311,5 +1 Y311,6 +1 Y312,0 +1 Y312,1 +1 Y312,2 +1 Y312,3 +1 Y312,4 +1 Y312,5 +1 Y312,6 +1 Y315,0
  +1 Y315,1 +1 Y315,2 +1 Y315,3 +1 Y315,4 +1 Y315,5 +1 Y315,6 +1 Y316,0 +1 Y316,1 +1 Y316,2 +1 Y316,3
  +1 Y316,4 +1 Y316,5 +1 Y316,6 +1 Y318,0 +1 Y318,1 +1 Y318,2 +1 Y318,3 +1 Y318,4 +1 Y318,5 +1 Y318,6
  +1 Y319,0 +1 Y319,1 +1 Y319,2 +1 Y319,3 +1 Y319,4 +1 Y319,5 +1 Y319,6 +1 Y321,0 +1 Y321,1 +1 Y321,2
  +1 Y321,3 +1 Y321,4 +1 Y321,5 +1 Y321,6 +1 Y322,0 +1 Y322,1 +1 Y322,2 +1 Y322,3 +1 Y322,4 +1 Y322,5
  +1 Y322,6 +1 Y323,0 +1 Y323,1 +1 Y323,2 +1 Y323,3 +1 Y323,4 +1 Y323,5 +1 Y323,6 +1 Y325,0 +1 Y325,1
  +1 Y325,2 +1 Y325,3 +1 Y325,4 +1 Y325,5 +1 Y325,6 +1 Y326,0 +1 Y326,1 +1 Y326,2 +1 Y326,3 +1 Y326,4
  +1 Y326,5 +1 Y326,6 +1 Y327,0 +1 Y327,1 +1 Y327,2 +1 Y327,3 +1 Y327,4 +1 Y327,5 +1 Y327,6 +1 Y328,0
  +1 Y328,1 +1 Y328,2 +1 Y328,3 +1 Y328,4 +1 Y328,5 +1 Y328,6 +1 Y330,0 +1 Y330,1 +1 Y330,2 +1 Y330,3
  +1 Y330,4 +1 Y330,5 +1 Y330,6 +1 Y331,0 +1 Y331,1 +1 Y331,2 +1 Y331,3 +1 Y331,4 +1 Y331,5 +1 Y331,6
  +1 Y332,0 +1 Y332,1 +1 Y332,2 +1 Y332,3 +1 Y332,4 +1 Y332,5 +1 Y332,6 +1 Y333,0 +1 Y333,1 +1 Y333,2
  +1 Y333,3 +1 Y333,4 +1 Y333,5 +1 Y333,6 +1 Y334,0 +1 Y334,1 +1 Y334,2 +1 Y334,3 +1 Y334,4 +1 Y334,5
  +1 Y334,6 +1 Y336,0 +1 Y336,1 +1 Y336,2 +1 Y336,3 +1 Y336,4 +1 Y336,5 +1 Y336,6 +1 Y337,0 +1 Y337,1
  +1 Y337,2 +1 Y337,3 +1 Y337,4 +1 Y337,5 +1 Y337,6 +1 Y338,0 +1 Y338,1 +1 Y338,2 +1 Y338,3 +1 Y338,4
  +1 Y338,5 +1 Y338,6 +1 Y339,0 +1 Y339,1 +1 Y339,2 +1 Y339,3 +1 Y339,4 +1 Y339,5 +1 Y339,6 +1 Y340,0
  +1 Y340,1 +1 Y340,2 +1 Y340,3 +1 Y340,4 +1 Y340,5 +1 Y340,6 +1 Y341,0 +1 Y341,1 +1 Y341,2 +1 Y341,3
  +1 Y341,4 +1 Y341,5 +1 Y341,6 +1 Y343,0 +1 Y343,1 +1 Y343,2 +1 Y343,3 +1 Y343,4 +1 Y343,5 +1 Y343,6
  +1 Y344,0 +1 Y344,1 +1 Y344,2 +1 Y344,3 +1 Y344,4 +1 Y344,5 +1 Y344,6 +1 Y345,0 +1 Y345,1 +1 Y345,2
  +1 Y345,3 +1 Y345,4 +1 Y345,5 +1 Y345,6 +1 Y346,0 +1 Y346,1 +1 Y346,2 +1 Y346,3 +1 Y346,4 +1 Y346,5
  +1 Y346,6 +1 Y347,0 +1 Y347,1 +1 Y347,2 +1 Y347,3 +1 Y347,4 +1 Y347,5 +1 Y347,6 +1 Y348,0 +1 Y348,1
  +1 Y348,2 +1 Y348,3 +1 Y348,4 +1 Y348,5 +1 Y348,6 = +1
 c33: +1 Y555,0 +1 Y555,1 +1 Y555,2 +1 Y555,3 +1 Y555,4 +1 Y555,5 +1 Y555,6 +1 Y559,0 +1 Y559,1 +1 Y559,2
  +1 Y559,3 +1 Y559,4 +1 Y559,5 +1 Y559,6 +1 Y563,0 +1 Y563,1 +1 Y563,2 +1 Y563,3 +1 Y563,4 +1 Y563,5
  +1 Y563,6 +1 Y564,0 +1 Y564,1 +1 Y564,2 +1 Y564,3 +1 Y564,4 +1 Y564,5 +1 Y564,6 +1 Y565,0 +1 Y565,1
  +1 Y565,2 +1 Y565,3 +1 Y565,4 +1 Y565,5 +1 Y565,6 +1 Y569,0 +1 Y569,1 +1 Y569,2 +1 Y569,3 +1 Y569,4
  +1 Y569,5 +1 Y569,6 +1 Y570,0 +1 Y570,1 +1 Y570,2 +1 Y570,3 +1 Y570,4 +1 Y570,5 +1 Y570,6 +1 Y571,0
  +1 Y571,1 +1 Y571,2 +1 Y571,3 +1 Y571,4 +1 Y571,5 +1 Y571,6 +1 Y575,0 +1 Y575,1 +1 Y575,2 +1 Y575,3
  +1 Y575,4 +1 Y575,5 +1 Y575,6 +1 Y576,0 +1 Y576,1 +1 Y576,2 +1 Y576,3 +1 Y576,4 +1 Y576,5 +1 Y576,6
  +1 Y577,0 +1 Y577,1 +1 Y577,2 +1 Y577,3 +1 Y577,4 +1 Y577,5 +1 Y577,6 +1 Y579,0 +1 Y579,1 +1 Y579,2
  +1 Y579,3 +1 Y579,4 +1 Y579,5 +1 Y579,6 +1 Y580,0 +1 Y580,1 +1 Y580,2 +1 Y580,3 +1 Y580,4 +1 Y580,5
  +1 Y580,6 +1 Y581,0 +1 Y581,1 +1 Y581,2 +1 Y581,3 +1 Y581,4 +1 Y581,5 +1 Y581,6 +1 Y583,0 +1 Y583,1
  +1 Y583,2 +1 Y583,3 +1 Y583,4 +1 Y583,5 +1 Y583,6 +1 Y584,0 +1 Y584,1 +1 Y584,2 +1 Y584,3 +1 Y584,4
  +1 Y584,5 +1 Y584,6 = +1
 c34: +1 Y34,0 +1 Y34,1 +1 Y34,2 +1 Y34,3 +1 Y34,4 +1 Y34,5 +1 Y34,6 +1 Y39,0 +1 Y39,1 +1 Y39,2 +1 Y39,3
  +1 Y39,4 +1 Y39,5 +1 Y39,6 +1 Y43,0 +1 Y43,1 +1 Y43,2 +1 Y43,3 +1 Y43,4 +1 Y43,5 +1 Y43,6 +1 Y46,0 +1 Y46,1
  +1 Y46,2 +1 Y46,3 +1 Y46,4 +1 Y46,5 +1 Y46,6 +1 Y49,0 +1 Y49,1 +1 Y49,2 +1 Y49,3 +1 Y49,4 +1 Y49,5 +1 Y49,6
  +1 Y50,0 +1 Y50,1 +1 Y50,2 +1 Y50,3 +1 Y50,4 +1 Y50,5 +1 Y50,6 +1 Y53,0 +1 Y53,1 +1 Y53,2 +1 Y53,3 +1 Y53,4
  +1 Y53,5 +1 Y53,6 +1 Y56,0 +1 Y56,1 +1 Y56,2 +1 Y56,3 +1 Y56,4 +1 Y56,5 +1 Y56,6 +1 Y59,0 +1 Y59,1 +1 Y59,2
  +1 Y59,3 +1 Y59,4 +1 Y59,5 +1 Y59,6 +1 Y60,0 +1 Y60,1 +1 Y60,2 +1 Y60,3 +1 Y60,4 +1 Y60,5 +1 Y60,6 +1 Y62,0
  +1 Y62,1 +1 Y62,2 +1 Y62,3 +1 Y62,4 +1 Y62,5 +1 Y62,6 +1 Y65,0 +1 Y65,1 +1 Y65,2 +1 Y65,3 +1 Y65,4 +1 Y65,5
  +1 Y65,6 +1 Y66,0 +1 Y66,1 +1 Y66,2 +1 Y66,3 +1 Y66,4 +1 Y66,5 +1 Y66,6 +1 Y68,0 +1 Y68,1 +1 Y68,2 +1 Y68,3
  +1 Y68,4 +1 Y68,5 +1 Y68,6 +1 Y69,0 +1 Y69,1 +1 Y69,2 +1 Y69,3 +1 Y69,4 +1 Y69,5 +1 Y69,6 +1 Y71,0 +1 Y71,1
  +1 Y71,2 +1 Y71,3 +1 Y71,4 +1 Y71,5 +1 Y71,6 +1 Y72,0 +1 Y72,1 +1 Y72,2 +1 Y72,3 +1 Y72,4 +1 Y72,5 +1 Y72,6
  +1 Y75,0 +1 Y75,1 +1 Y75,2 +1 Y75,3 +1 Y75,4 +1 Y75,5 +1 Y75,6 +1 Y76,0 +1 Y76,1 +1 Y76,2 +1 Y76,3 +1 Y76,4
  +1 Y76,5 +1 Y76,6 +1 Y78,0 +1 Y78,1 +1 Y78,2 +1 Y78,3 +1 Y78,4 +1 Y78,5 +1 Y78,6 +1 Y79,0 +1 Y79,1 +1 Y79,2
  +1 Y79,3 +1 Y79,4 +1 Y79,5 +1 Y79,6 +1 Y81,0 +1 Y81,1 +1 Y81,2 +1 Y81,3 +1 Y81,4 +1 Y81,5 +1 Y81,6 +1 Y82,0
  +1 Y82,1 +1 Y82,2 +1 Y82,3 +1 Y82,4 +1 Y82,5 +1 Y82,6 +1 Y83,0 +1 Y83,1 +1 Y83,2 +1 Y83,3 +1 Y83,4 +1 Y83,5
  +1 Y83,6 +1 Y85,0 +1 Y85,1 +1 Y85,2 +1 Y85,3 +1 Y85,4 +1 Y85,5 +1 Y85,6 +1 Y86,0 +1 Y86,1 +1 Y86,2 +1 Y86,3
  +1 Y86,4 +1 Y86,5 +1 Y86,6 +1 Y87,0 +1 Y87,1 +1 Y87,2 +1 Y87,3 +1 Y87,4 +1 Y87,5 +1 Y87,6 +1 Y88,0 +1 Y88,1
  +1 Y88,2 +1 Y88,3 +1 Y88,4 +1 Y88,5 +1 Y88,6 +1 Y90,0 +1 Y90,1 +1 Y90,2 +1 Y90,3 +1 Y90,4 +1 Y90,5 +1 Y90,6
  +1 Y91,0 +1 Y91,1 +1 Y91,2 +1 Y91,3 +1 Y91,4 +1 Y91,5 +1 Y91,6 +1 Y92,0 +1 Y92,1 +1 Y92,2 +1 Y92,3 +1 Y92,4
  +1 Y92,5 +1 Y92,6 +1 Y93,0 +1 Y93,1 +1 Y93,2 +1 Y93,3 +1 Y93,4 +1 Y93,5 +1 Y93,6 = +1
 c35: +1 Y479,0 +1 Y479,1 +1 Y479,2 +1 Y479,3 +1 Y479,4 +1 Y479,5 +1 Y479,6 +1 Y484,0 +1 Y484,1 +1 Y484,2
  +1 Y484,3 +1 Y484,4 +1 Y484,5 +1 Y484,6 +1 Y488,0 +1 Y488,1 +1 Y488,2 +1 Y488,3 +1 Y488,4 +1 Y488,5
  +1 Y488,6 +1 Y491,0 +1 Y491,1 +1 Y491,2 +1 Y491,3 +1 Y491,4 +1 Y491,5 +1 Y491,6 +1 Y494,0 +1 Y494,1
  +1 Y494,2 +1 Y494,3 +1 Y494,4 +1 Y494,5 +1 Y494,6 +1 Y495,0 +1 Y495,1 +1 Y495,2 +1 Y495,3 +1 Y495,4
  +1 Y495,5 +1 Y495,6 +1 Y498,0 +1 Y498,1 +1 Y498,2 +1 Y498,3 +1 Y498,4 +1 Y498,5 +1 Y498,6 +1 Y501,0
  +1 Y501,1 +1 Y501,2 +1 Y501,3 +1 Y501,4 +1 Y501,5 +1 Y501,6 +1 Y504,0 +1 Y504,1 +1 Y504,2 +1 Y504,3
  +1 Y504,4 +1 Y504,5 +1 Y504,6 +1 Y505,0 +1 Y505,1 +1 Y505,2 +1 Y505,3 +1 Y505,4 +1 Y505,5 +1 Y505,6
  +1 Y507,0 +1 Y507,1 +1 Y507,2 +1 Y507,3 +1 Y507,4 +1 Y507,5 +1 Y507,6 +1 Y510,0 +1 Y510,1 +1 Y510,2
  +1 Y510,3 +1 Y510,4 +1 Y510,5 +1 Y510,6 +1 Y511,0 +1 Y511,1 +1 Y511,2 +1 Y511,3 +1 Y511,4 +1 Y511,5
  +1 Y511,6 +1 Y513,0 +1 Y513,1 +1 Y513,2 +1 Y513,3 +1 Y513,4 +1 Y513,5 +1 Y513,6 +1 Y514,0 +1 Y514,1
  +1 Y514,2 +1 Y514,3 +1 Y514,4 +1 Y514,5 +1 Y514,6 +1 Y516,0 +1 Y516,1 +1 Y516,2 +1 Y516,3 +1 Y516,4
  +1 Y516,5 +1 Y516,6 +1 Y517,0 +1 Y517,1 +1 Y517,2 +1 Y517,3 +1 Y517,4 +1 Y517,5 +1 Y517,6 +1 Y520,0
  +1 Y520,1 +1 Y520,2 +1 Y520,3 +1 Y520,4 +1 Y520,5 +1 Y520,6 +1 Y521,0 +1 Y521,1 +1 Y521,2 +1 Y521,3
  +1 Y521,4 +1 Y521,5 +1 Y521,6 +1 Y523,0 +1 Y523,1 +1 Y523,2 +1 Y523,3 +1 Y523,4 +1 Y523,5 +1 Y523,6
  +1 Y524,0 +1 Y524,1 +1 Y524,2 +1 Y524,3 +1 Y524,4 +1 Y524,5 +1 Y524,6 +1 Y526,0 +1 Y526,1 +1 Y526,2
  +1 Y526,3 +1 Y526,4 +1 Y526,5 +1 Y526,6 +1 Y527,0 +1 Y527,1 +1 Y527,2 +1 Y527,3 +1 Y527,4 +1 Y527,5
  +1 Y527,6 +1 Y528,0 +1 Y528,1 +1 Y528,2 +1 Y528,3 +1 Y528,4 +1 Y528,5 +1 Y528,6 +1 Y530,0 +1 Y530,1
  +1 Y530,2 +1 Y530,3 +1 Y530,4 +1 Y530,5 +1 Y530,6 +1 Y531,0 +1 Y531,1 +1 Y531,2 +1 Y531,3 +1 Y531,4
  +1 Y531,5 +1 Y531,6 +1 Y532,0 +1 Y532,1 +1 Y532,2 +1 Y532,3 +1 Y532,4 +1 Y532,5 +1 Y532,6 +1 Y533,0
  +1 Y533,1 +1 Y533,2 +1 Y533,3 +1 Y533,4 +1 Y533,5 +1 Y533,6 +1 Y535,0 +1 Y535,1 +1 Y535,2 +1 Y535,3
  +1 Y535,4 +1 Y535,5 +1 Y535,6 +1 Y536,0 +1 Y536,1 +1 Y536,2 +1 Y536,3 +1 Y536,4 +1 Y536,5 +1 Y536,6
  +1 Y537,0 +1 Y537,1 +1 Y537,2 +1 Y537,3 +1 Y537,4 +1 Y537,5 +1 Y537,6 +1 Y538,0 +1 Y538,1 +1 Y538,2
  +1 Y538,3 +1 Y538,4 +1 Y538,5 +1 Y538,6 = +1
 c36: +1 Y354,0 +1 Y354,1 +1 Y354,2 +1 Y354,3 +1 Y354,4 +1 Y354,5 +1 Y354,6 +1 Y360,0 +1 Y360,1 +1 Y360,2
  +1 Y360,3 +1 Y360,4 +1 Y360,5 +1 Y360,6 +1 Y365,0 +1 Y365,1 +1 Y365,2 +1 Y365,3 +1 Y365,4 +1 Y365,5
  +1 Y365,6 +1 Y369,0 +1 Y369,1 +1 Y369,2 +1 Y369,3 +1 Y369,4 +1 Y369,5 +1 Y369,6 +1 Y372,0 +1 Y372,1
  +1 Y372,2 +1 Y372,3 +1 Y372,4 +1 Y372,5 +1 Y372,6 +1 Y374,0 +1 Y374,1 +1 Y374,2 +1 Y374,3 +1 Y374,4
  +1 Y374,5 +1 Y374,6 +1 Y376,0 +1 Y376,1 +1 Y376,2 +1 Y376,3 +1 Y376,4 +1 Y376,5 +1 Y376,6 +1 Y380,0
  +1 Y380,1 +1 Y380,2 +1 Y380,3 +1 Y380,4 +1 Y380,5 +1 Y380,6 +1 Y384,0 +1 Y384,1 +1 Y384,2 +1 Y384,3
  +1 Y384,4 +1 Y384,5 +1 Y384,6 +1 Y387,0 +1 Y387,1 +1 Y387,2 +1 Y387,3 +1 Y387,4 +1 Y387,5 +1 Y387,6
  +1 Y389,0 +1 Y389,1 +1 Y389,2 +1 Y389,3 +1 Y389,4 +1 Y389,5 +1 Y389,6 +1 Y391,0 +1 Y391,1 +1 Y391,2
  +1 Y391,3 +1 Y391,4 +1 Y391,5 +1 Y391,6 +1 Y394,0 +1 Y394,1 +1 Y394,2 +1 Y394,3 +1 Y394,4 +1 Y394,5
  +1 Y394,6 +1 Y397,0 +1 Y397,1 +1 Y397,2 +1 Y397,3 +1 Y397,4 +1 Y397,5 +1 Y397,6 +1 Y399,0 +1 Y399,1
  +1 Y399,2 +1 Y399,3 +1 Y399,4 +1 Y399,5 +1 Y399,6 +1 Y401,0 +1 Y401,1 +1 Y401,2 +1 Y401,3 +1 Y401,4
  +1 Y401,5 +1 Y401,6 +1 Y403,0 +1 Y403,1 +1 Y403,2 +1 Y403,3 +1 Y403,4 +1 Y403,5 +1 Y403,6 +1 Y405,0
  +1 Y405,1 +1 Y405,2 +1 Y405,3 +1 Y405,4 +1 Y405,5 +1 Y405,6 +1 Y407,0 +1 Y407,1 +1 Y407,2 +1 Y407,3
  +1 Y407,4 +1 Y407,5 +1 Y407,6 +1 Y408,0 +1 Y408,1 +1 Y408,2 +1 Y408,3 +1 Y408,4 +1 Y408,5 +1 Y408,6
  +1 Y410,0 +1 Y410,1 +1 Y410,2 +1 Y410,3 +1 Y410,4 +1 Y410,5 +1 Y410,6 +1 Y411,0 +1 Y411,1 +1 Y411,2
  +1 Y411,3 +1 Y411,4 +1 Y411,5 +1 Y411,6 +1 Y414,0 +1 Y414,1 +1 Y414,2 +1 Y414,3 +1 Y414,4 +1 Y414,5
  +1 Y414,6 +1 Y417,0 +1 Y417,1 +1 Y417,2 +1 Y417,3 +1 Y417,4 +1 Y417,5 +1 Y417,6 +1 Y419,0 +1 Y419,1
  +1 Y419,2 +1 Y419,3 +1 Y419,4 +1 Y419,5 +1 Y419,6 +1 Y421,0 +1 Y421,1 +1 Y421,2 +1 Y421,3 +1 Y421,4
  +1 Y421,5 +1 Y421,6 +1 Y423,0 +1 Y423,1 +1 Y423,2 +1 Y423,3 +1 Y423,4 +1 Y423,5 +1 Y423,6 +1 Y425,0
  +1 Y425,1 +1 Y425,2 +1 Y425,3 +1 Y425,4 +1 Y425,5 +1 Y425,6 +1 Y427,0 +1 Y427,1 +1 Y427,2 +1 Y427,3
  +1 Y427,4 +1 Y427,5 +1 Y427,6 +1 Y428,0 +1 Y428,1 +1 Y428,2 +1 Y428,3 +1 Y428,4 +1 Y428,5 +1 Y428,6
  +1 Y430,0 +1 Y430,1 +1 Y430,2 +1 Y430,3 +1 Y430,4 +1 Y430,5 +1 Y430,6 +1 Y431,0 +1 Y431,1 +1 Y431,2
  +1 Y431,3 +1 Y431,4 +1 Y431,5 +1 Y431,6 +1 Y433,0 +1 Y433,1 +1 Y433,2 +1 Y433,3 +1 Y433,4 +1 Y433,5
  +1 Y433,6 +1 Y435,0 +1 Y435,1 +1 Y435,2 +1 Y435,3 +1 Y435,4 +1 Y435,5 +1 Y435,6 +1 Y437,0 +1 Y437,1
  +1 Y437,2 +1 Y437,3 +1 Y437,4 +1 Y437,5 +1 Y437,6 +1 Y438,0 +1 Y438,1 +1 Y438,2 +1 Y438,3 +1 Y438,4
  +1 Y438,5 +1 Y438,6 +1 Y440,0 +1 Y440,1 +1 Y440,2 +1 Y440,3 +1 Y440,4 +1 Y440,5 +1 Y440,6 +1 Y441,0
  +1 Y441,1 +1 Y441,2 +1 Y441,3 +1 Y441,4 +1 Y441,5 +1 Y441,6 +1 Y442,0 +1 Y442,1 +1 Y442,2 +1 Y442,3
  +1 Y442,4 +1 Y442,5 +1 Y442,6 +1 Y444,0 +1 Y444,1 +1 Y444,2 +1 Y444,3 +1 Y444,4 +1 Y444,5 +1 Y444,6
  +1 Y445,0 +1 Y445,1 +1 Y445,2 +1 Y445,3 +1 Y445,4 +1 Y445,5 +1 Y445,6 +1 Y446,0 +1 Y446,1 +1 Y446,2
  +1 Y446,3 +1 Y446,4 +1 Y446,5 +1 Y446,6 +1 Y448,0 +1 Y448,1 +1 Y448,2 +1 Y448,3 +1 Y448,4 +1 Y448,5
  +1 Y448,6 +1 Y450,0 +1 Y450,1 +1 Y450,2 +1 Y450,3 +1 Y450,4 +1 Y450,5 +1 Y450,6 +1 Y452,0 +1 Y452,1
  +1 Y452,2 +1 Y452,3 +1 Y452,4 +1 Y452,5 +1 Y452,6 +1 Y453,0 +1 Y453,1 +1 Y453,2 +1 Y453,3 +1 Y453,4
  +1 Y453,5 +1 Y453,6 +1 Y455,0 +1 Y455,1 +1 Y455,2 +1 Y455,3 +1 Y455,4 +1 Y455,5 +1 Y455,6 +1 Y456,0
  +1 Y456,1 +1 Y456,2 +1 Y456,3 +1 Y456,4 +1 Y456,5 +1 Y456,6 +1 Y457,0 +1 Y457,1 +1 Y457,2 +1 Y457,3
  +1 Y457,4 +1 Y457,5 +1 Y457,6 +1 Y459,0 +1 Y459,1 +1 Y459,2 +1 Y459,3 +1 Y459,4 +1 Y459,5 +1 Y459,6
  +1 Y460,0 +1 Y460,1 +1 Y460,2 +1 Y460,3 +1 Y460,4 +1 Y460,5 +1 Y460,6 +1 Y461,0 +1 Y461,1 +1 Y461,2
  +1 Y461,3 +1 Y461,4 +1 Y461,5 +1 Y461,6 +1 Y462,0 +1 Y462,1 +1 Y462,2 +1 Y462,3 +1 Y462,4 +1 Y462,5
  +1 Y462,6 +1 Y464,0 +1 Y464,1 +1 Y464,2 +1 Y464,3 +1 Y464,4 +1 Y464,5 +1 Y464,6 +1 Y465,0 +1 Y465,1
  +1 Y465,2 +1 Y465,3 +1 Y465,4 +1 Y465,5 +1 Y465,6 +1 Y466,0 +1 Y466,1 +1 Y466,2 +1 Y466,3 +1 Y466,4
  +1 Y466,5 +1 Y466,6 +1 Y467,0 +1 Y467,1 +1 Y467,2 +1 Y467,3 +1 Y467,4 +1 Y467,5 +1 Y467,6 +1 Y468,0
  +1 Y468,1 +1 Y468,2 +1 Y468,3 +1 Y468,4 +1 Y468,5 +1 Y468,6 +1 Y470,0 +1 Y470,1 +1 Y470,2 +1 Y470,3
  +1 Y470,4 +1 Y470,5 +1 Y470,6 +1 Y471,0 +1 Y471,1 +1 Y471,2 +1 Y471,3 +1 Y471,4 +1 Y471,5 +1 Y471,6
  +1 Y472,0 +1 Y472,1 +1 Y472,2 +1 Y472,3 +1 Y472,4 +1 Y472,5 +1 Y472,6 +1 Y473,0 +1 Y473,1 +1 Y473,2
  +1 Y473,3 +1 Y473,4 +1 Y473,5 +1 Y473,6 +1 Y474,0 +1 Y474,1 +1 Y474,2 +1 Y474,3 +1 Y474,4 +1 Y474,5
  +1 Y474,6 +1 Y475,0 +1 Y475,1 +1 Y475,2 +1 Y475,3 +1 Y475,4 +1 Y475,5 +1 Y475,6 = +1
 c37: +1 Y591,0 +1 Y591,1 +1 Y591,2 +1 Y591,3 +1 Y591,4 +1 Y591,5 +1 Y591,6 +1 Y598,0 +1 Y598,1 +1 Y598,2
  +1 Y598,3 +1 Y598,4 +1 Y598,5 +1 Y598,6 +1 Y604,0 +1 Y604,1 +1 Y604,2 +1 Y604,3 +1 Y604,4 +1 Y604,5
  +1 Y604,6 +1 Y609,0 +1 Y609,1 +1 Y609,2 +1 Y609,3 +1 Y609,4 +1 Y609,5 +1 Y609,6 +1 Y613,0 +1 Y613,1
  +1 Y613,2 +1 Y613,3 +1 Y613,4 +1 Y613,5 +1 Y613,6 +1 Y616,0 +1 Y616,1 +1 Y616,2 +1 Y616,3 +1 Y616,4
  +1 Y616,5 +1 Y616,6 +1 Y618,0 +1 Y618,1 +1 Y618,2 +1 Y618,3 +1 Y618,4 +1 Y618,5 +1 Y618,6 +1 Y620,0
  +1 Y620,1 +1 Y620,2 +1 Y620,3 +1 Y620,4 +1 Y620,5 +1 Y620,6 +1 Y625,0 +1 Y625,1 +1 Y625,2 +1 Y625,3
  +1 Y625,4 +1 Y625,5 +1 Y625,6 +1 Y630,0 +1 Y630,1 +1 Y630,2 +1 Y630,3 +1 Y630,4 +1 Y630,5 +1 Y630,6
  +1 Y634,0 +1 Y634,1 +1 Y634,2 +1 Y634,3 +1 Y634,4 +1 Y634,5 +1 Y634,6 +1 Y637,0 +1 Y637,1 +1 Y637,2
  +1 Y637,3 +1 Y637,4 +1 Y637,5 +1 Y637,6 +1 Y639,0 +1 Y639,1 +1 Y639,2 +1 Y639,3 +1 Y639,4 +1 Y639,5
  +1 Y639,6 +1 Y641,0 +1 Y641,1 +1 Y641,2 +1 Y641,3 +1 Y641,4 +1 Y641,5 +1 Y641,6 +1 Y645,0 +1 Y645,1
  +1 Y645,2 +1 Y645,3 +1 Y645,4 +1 Y645,5 +1 Y645,6 +1 Y649,0 +1 Y649,1 +1 Y649,2 +1 Y649,3 +1 Y649,4
  +1 Y649,5 +1 Y649,6 +1 Y652,0 +1 Y652,1 +1 Y652,2 +1 Y652,3 +1 Y652,4 +1 Y652,5 +1 Y652,6 +1 Y654,0
  +1 Y654,1 +1 Y654,2 +1 Y654,3 +1 Y654,4 +1 Y654,5 +1 Y654,6 +1 Y656,0 +1 Y656,1 +1 Y656,2 +1 Y656,3
  +1 Y656,4 +1 Y656,5 +1 Y656,6 +1 Y659,0 +1 Y659,1 +1 Y659,2 +1 Y659,3 +1 Y659,4 +1 Y659,5 +1 Y659,6
  +1 Y662,0 +1 Y662,1 +1 Y662,2 +1 Y662,3 +1 Y662,4 +1 Y662,5 +1 Y662,6 +1 Y664,0 +1 Y664,1 +1 Y664,2
  +1 Y664,3 +1 Y664,4 +1 Y664,5 +1 Y664,6 +1 Y666,0 +1 Y666,1 +1 Y666,2 +1 Y666,3 +1 Y666,4 +1 Y666,5
  +1 Y666,6 +1 Y668,0 +1 Y668,1 +1 Y668,2 +1 Y668,3 +1 Y668,4 +1 Y668,5 +1 Y668,6 +1 Y670,0 +1 Y670,1
  +1 Y670,2 +1 Y670,3 +1 Y670,4 +1 Y670,5 +1 Y670,6 +1 Y672,0 +1 Y672,1 +1 Y672,2 +1 Y672,3 +1 Y672,4
  +1 Y672,5 +1 Y672,6 +1 Y673,0 +1 Y673,1 +1 Y673,2 +1 Y673,3 +1 Y673,4 +1 Y673,5 +1 Y673,6 +1 Y675,0
  +1 Y675,1 +1 Y675,2 +1 Y675,3 +1 Y675,4 +1 Y675,5 +1 Y675,6 +1 Y676,0 +1 Y676,1 +1 Y676,2 +1 Y676,3
  +1 Y676,4 +1 Y676,5 +1 Y676,6 +1 Y680,0 +1 Y680,1 +1 Y680,2 +1 Y680,3 +1 Y680,4 +1 Y680,5 +1 Y680,6
  +1 Y684,0 +1 Y684,1 +1 Y684,2 +1 Y684,3 +1 Y684,4 +1 Y684,5 +1 Y684,6 +1 Y687,0 +1 Y687,1 +1 Y687,2
  +1 Y687,3 +1 Y687,4 +1 Y687,5 +1 Y687,6 +1 Y689,0 +1 Y689,1 +1 Y689,2 +1 Y689,3 +1 Y689,4 +1 Y689,5
  +1 Y689,6 +1 Y691,0 +1 Y691,1 +1 Y691,2 +1 Y691,3 +1 Y691,4 +1 Y691,5 +1 Y691,6 +1 Y694,0 +1 Y694,1
  +1 Y694,2 +1 Y694,3 +1 Y694,4 +1 Y694,5 +1 Y694,6 +1 Y697,0 +1 Y697,1 +1 Y697,2 +1 Y697,3 +1 Y697,4
  +1 Y697,5 +1 Y697,6 +1 Y699,0 +1 Y699,1 +1 Y699,2 +1 Y699,3 +1 Y699,4 +1 Y699,5 +1 Y699,6 +1 Y701,0
  +1 Y701,1 +1 Y701,2 +1 Y701,3 +1 Y701,4 +1 Y701,5 +1 Y701,6 +1 Y703,0 +1 Y703,1 +1 Y703,2 +1 Y703,3
  +1 Y703,4 +1 Y703,5 +1 Y703,6 +1 Y705,0 +1 Y705,1 +1 Y705,2 +1 Y705,3 +1 Y705,4 +1 Y705,5 +1 Y705,6
  +1 Y707,0 +1 Y707,1 +1 Y707,2 +1 Y707,3 +1 Y707,4 +1 Y707,5 +1 Y707,6 +1 Y708,0 +1 Y708,1 +1 Y708,2
  +1 Y708,3 +1 Y708,4 +1 Y708,5 +1 Y708,6 +1 Y710,0 +1 Y710,1 +1 Y710,2 +1 Y710,3 +1 Y710,4 +1 Y710,5
  +1 Y710,6 +1 Y711,0 +1 Y711,1 +1 Y711,2 +1 Y711,3 +1 Y711,4 +1 Y711,5 +1 Y711,6 +1 Y714,0 +1 Y714,1
  +1 Y714,2 +1 Y714,3 +1 Y714,4 +1 Y714,5 +1 Y714,6 +1 Y717,0 +1 Y717,1 +1 Y717,2 +1 Y717,3 +1 Y717,4
  +1 Y717,5 +1 Y717,6 +1 Y719,0 +1 Y719,1 +1 Y719,2 +1 Y719,3 +1 Y719,4 +1 Y719,5 +1 Y719,6 +1 Y721,0
  +1 Y721,1 +1 Y721,2 +1 Y721,3 +1 Y721,4 +1 Y721,5 +1 Y721,6 +1 Y723,0 +1 Y723,1 +1 Y723,2 +1 Y723,3
  +1 Y723,4 +1 Y723,5 +1 Y723,6 +1 Y725,0 +1 Y725,1 +1 Y725,2 +1 Y725,3 +1 Y725,4 +1 Y725,5 +1 Y725,6
  +1 Y727,0 +1 Y727,1 +1 Y727,2 +1 Y727,3 +1 Y727,4 +1 Y727,5 +1 Y727,6 +1 Y728,0 +1 Y728,1 +1 Y728,2
  +1 Y728,3 +1 Y728,4 +1 Y728,5 +1 Y728,6 +1 Y730,0 +1 Y730,1 +1 Y730,2 +1 Y730,3 +1 Y730,4 +1 Y730,5
  +1 Y730,6 +1 Y731,0 +1 Y731,1 +1 Y731,2 +1 Y731,3 +1 Y731,4 +1 Y731,5 +1 Y731,6 +1 Y733,0 +1 Y733,1
  +1 Y733,2 +1 Y733,3 +1 Y733,4 +1 Y733,5 +1 Y733,6 +1 Y735,0 +1 Y735,1 +1 Y735,2 +1 Y735,3 +1 Y735,4
  +1 Y735,5 +1 Y735,6 +1 Y737,0 +1 Y737,1 +1 Y737,2 +1 Y737,3 +1 Y737,4 +1 Y737,5 +1 Y737,6 +1 Y738,0
  +1 Y738,1 +1 Y738,2 +1 Y738,3 +1 Y738,4 +1 Y738,5 +1 Y738,6 +1 Y740,0 +1 Y740,1 +1 Y740,2 +1 Y740,3
  +1 Y740,4 +1 Y740,5 +1 Y740,6 +1 Y741,0 +1 Y741,1 +1 Y741,2 +1 Y741,3 +1 Y741,4 +1 Y741,5 +1 Y741,6
  +1 Y742,0 +1 Y742,1 +1 Y742,2 +1 Y742,3 +1 Y742,4 +1 Y742,5 +1 Y742,6 +1 Y744,0 +1 Y744,1 +1 Y744,2
  +1 Y744,3 +1 Y744,4 +1 Y744,5 +1 Y744,6 +1 Y745,0 +1 Y745,1 +1 Y745,2 +1 Y745,3 +1 Y745,4 +1 Y745,5
  +1 Y745,6 +1 Y746,0 +1 Y746,1 +1 Y746,2 +1 Y746,3 +1 Y746,4 +1 Y746,5 +1 Y746,6 +1 Y749,0 +1 Y749,1
  +1 Y749,2 +1 Y749,3 +1 Y749,4 +1 Y749,5 +1 Y749,6 +1 Y752,0 +1 Y752,1 +1 Y752,2 +1 Y752,3 +1 Y752,4
  +1 Y752,5 +1 Y752,6 +1 Y754,0 +1 Y754,1 +1 Y754,2 +1 Y754,3 +1 Y754,4 +1 Y754,5 +1 Y754,6 +1 Y756,0
  +1 Y756,1 +1 Y756,2 +1 Y756,3 +1 Y756,4 +1 Y756,5 +1 Y756,6 +1 Y758,0 +1 Y758,1 +1 Y758,2 +1 Y758,3
  +1 Y758,4 +1 Y758,5 +1 Y758,6 +1 Y760,0 +1 Y760,1 +1 Y760,2 +1 Y760,3 +1 Y760,4 +1 Y760,5 +1 Y760,6
  +1 Y762,0 +1 Y762,1 +1 Y762,2 +1 Y762,3 +1 Y762,4 +1 Y762,5 +1 Y762,6 +1 Y763,0 +1 Y763,1 +1 Y763,2
  +1 Y763,3 +1 Y763,4 +1 Y763,5 +1 Y763,6 +1 Y765,0 +1 Y765,1 +1 Y765,2 +1 Y765,3 +1 Y765,4 +1 Y765,5
  +1 Y765,6 +1 Y766,0 +1 Y766,1 +1 Y766,2 +1 Y766,3 +1 Y766,4 +1 Y766,5 +1 Y766,6 +1 Y768,0 +1 Y768,1
  +1 Y768,2 +1 Y768,3 +1 Y768,4 +1 Y768,5 +1 Y768,6 +1 Y770,0 +1 Y770,1 +1 Y770,2 +1 Y770,3 +1 Y770,4
  +1 Y770,5 +1 Y770,6 +1 Y772,0 +1 Y772,1 +1 Y772,2 +1 Y772,3 +1 Y772,4 +1 Y772,5 +1 Y772,6 +1 Y773,0
  +1 Y773,1 +1 Y773,2 +1 Y773,3 +1 Y773,4 +1 Y773,5 +1 Y773,6 +1 Y775,0 +1 Y775,1 +1 Y775,2 +1 Y775,3
  +1 Y775,4 +1 Y775,5 +1 Y775,6 +1 Y776,0 +1 Y776,1 +1 Y776,2 +1 Y776,3 +1 Y776,4 +1 Y776,5 +1 Y776,6
  +1 Y777,0 +1 Y777,1 +1 Y777,2 +1 Y777,3 +1 Y777,4 +1 Y777,5 +1 Y777,6 +1 Y779,0 +1 Y779,1 +1 Y779,2
  +1 Y779,3 +1 Y779,4 +1 Y779,5 +1 Y779,6 +1 Y780,0 +1 Y780,1 +1 Y780,2 +1 Y780,3 +1 Y780,4 +1 Y780,5
  +1 Y780,6 +1 Y781,0 +1 Y781,1 +1 Y781,2 +1 Y781,3 +1 Y781,4 +1 Y781,5 +1 Y781,6 +1 Y783,0 +1 Y783,1
  +1 Y783,2 +1 Y783,3 +1 Y783,4 +1 Y783,5 +1 Y783,6 +1 Y785,0 +1 Y785,1 +1 Y785,2 +1 Y785,3 +1 Y785,4
  +1 Y785,5 +1 Y785,6 +1 Y787,0 +1 Y787,1 +1 Y787,2 +1 Y787,3 +1 Y787,4 +1 Y787,5 +1 Y787,6 +1 Y788,0
  +1 Y788,1 +1 Y788,2 +1 Y788,3 +1 Y788,4 +1 Y788,5 +1 Y788,6 +1 Y790,0 +1 Y790,1 +1 Y790,2 +1 Y790,3
  +1 Y790,4 +1 Y790,5 +1 Y790,6 +1 Y791,0 +1 Y791,1 +1 Y791,2 +1 Y791,3 +1 Y791,4 +1 Y791,5 +1 Y791,6
  +1 Y792,0 +1 Y792,1 +1 Y792,2 +1 Y792,3 +1 Y792,4 +1 Y792,5 +1 Y792,6 +1 Y794,0 +1 Y794,1 +1 Y794,2
  +1 Y794,3 +1 Y794,4 +1 Y794,5 +1 Y794,6 +1 Y795,0 +1 Y795,1 +1 Y795,2 +1 Y795,3 +1 Y795,4 +1 Y795,5
  +1 Y795,6 +1 Y796,0 +1 Y796,1 +1 Y796,2 +1 Y796,3 +1 Y796,4 +1 Y796,5 +1 Y796,6 +1 Y797,0 +1 Y797,1
  +1 Y797,2 +1 Y797,3 +1 Y797,4 +1 Y797,5 +1 Y797,6 +1 Y799,0 +1 Y799,1 +1 Y799,2 +1 Y799,3 +1 Y799,4
  +1 Y799,5 +1 Y799,6 +1 Y800,0 +1 Y800,1 +1 Y800,2 +1 Y800,3 +1 Y800,4 +1 Y800,5 +1 Y800,6 +1 Y801,0
  +1 Y801,1 +1 Y801,2 +1 Y801,3 +1 Y801,4 +1 Y801,5 +1 Y801,6 +1 Y802,0 +1 Y802,1 +1 Y802,2 +1 Y802,3
  +1 Y802,4 +1 Y802,5 +1 Y802,6 +1 Y804,0 +1 Y804,1 +1 Y804,2 +1 Y804,3 +1 Y804,4 +1 Y804,5 +1 Y804,6
  +1 Y806,0 +1 Y806,1 +1 Y806,2 +1 Y806,3 +1 Y806,4 +1 Y806,5 +1 Y806,6 +1 Y808,0 +1 Y808,1 +1 Y808,2
  +1 Y808,3 +1 Y808,4 +1 Y808,5 +1 Y808,6 +1 Y809,0 +1 Y809,1 +1 Y809,2 +1 Y809,3 +1 Y809,4 +1 Y809,5
  +1 Y809,6 +1 Y811,0 +1 Y811,1 +1 Y811,2 +1 Y811,3 +1 Y811,4 +1 Y811,5 +1 Y811,6 +1 Y812,0 +1 Y812,1
  +1 Y812,2 +1 Y812,3 +1 Y812,4 +1 Y812,5 +1 Y812,6 +1 Y813,0 +1 Y813,1 +1 Y813,2 +1 Y813,3 +1 Y813,4
  +1 Y813,5 +1 Y813,6 +1 Y815,0 +1 Y815,1 +1 Y815,2 +1 Y815,3 +1 Y815,4 +1 Y815,5 +1 Y815,6 +1 Y816,0
  +1 Y816,1 +1 Y816,2 +1 Y816,3 +1 Y816,4 +1 Y816,5 +1 Y816,6 +1 Y817,0 +1 Y817,1 +1 Y817,2 +1 Y817,3
  +1 Y817,4 +1 Y817,5 +1 Y817,6 +1 Y818,0 +1 Y818,1 +1 Y818,2 +1 Y818,3 +1 Y818,4 +1 Y818,5 +1 Y818,6
  +1 Y820,0 +1 Y820,1 +1 Y820,2 +1 Y820,3 +1 Y820,4 +1 Y820,5 +1 Y820,6 +1 Y821,0 +1 Y821,1 +1 Y821,2
  +1 Y821,3 +1 Y821,4 +1 Y821,5 +1 Y821,6 +1 Y822,0 +1 Y822,1 +1 Y822,2 +1 Y822,3 +1 Y822,4 +1 Y822,5
  +1 Y822,6 +1 Y823,0 +1 Y823,1 +1 Y823,2 +1 Y823,3 +1 Y823,4 +1 Y823,5 +1 Y823,6 +1 Y824,0 +1 Y824,1
  +1 Y824,2 +1 Y824,3 +1 Y824,4 +1 Y824,5 +1 Y824,6 +1 Y826,0 +1 Y826,1 +1 Y826,2 +1 Y826,3 +1 Y826,4
  +1 Y826,5 +1 Y826,6 +1 Y827,0 +1 Y827,1 +1 Y827,2 +1 Y827,3 +1 Y827,4 +1 Y827,5 +1 Y827,6 +1 Y828,0
  +1 Y828,1 +1 Y828,2 +1 Y828,3 +1 Y828,4 +1 Y828,5 +1 Y828,6 +1 Y829,0 +1 Y829,1 +1 Y829,2 +1 Y829,3
  +1 Y829,4 +1 Y829,5 +1 Y829,6 +1 Y830,0 +1 Y830,1 +1 Y830,2 +1 Y830,3 +1 Y830,4 +1 Y830,5 +1 Y830,6
  +1 Y831,0 +1 Y831,1 +1 Y831,2 +1 Y831,3 +1 Y831,4 +1 Y831,5 +1 Y831,6 +1 Y833,0 +1 Y833,1 +1 Y833,2
  +1 Y833,3 +1 Y833,4 +1 Y833,5 +1 Y833,6 +1 Y834,0 +1 Y834,1 +1 Y834,2 +1 Y834,3 +1 Y834,4 +1 Y834,5
  +1 Y834,6 +1 Y835,0 +1 Y835,1 +1 Y835,2 +1 Y835,3 +1 Y835,4 +1 Y835,5 +1 Y835,6 +1 Y836,0 +1 Y836,1
  +1 Y836,2 +1 Y836,3 +1 Y836,4 +1 Y836,5 +1 Y836,6 +1 Y837,0 +1 Y837,1 +1 Y837,2 +1 Y837,3 +1 Y837,4
  +1 Y837,5 +1 Y837,6 +1 Y838,0 +1 Y838,1 +1 Y838,2 +1 Y838,3 +1 Y838,4 +1 Y838,5 +1 Y838,6 +1 Y839,0
  +1 Y839,1 +1 Y839,2 +1 Y839,3 +1 Y839,4 +1 Y839,5 +1 Y839,6 = +1
 c38: +1 Y3,0 +1 Y3,1 +1 Y3,2 +1 Y3,3 +1 Y3,4 +1 Y3,5 +1 Y3,6 +1 Y7,0 +1 Y7,1 +1 Y7,2 +1 Y7,3 +1 Y7,4
  +1 Y7,5 +1 Y7,6 +1 Y10,0 +1 Y10,1 +1 Y10,2 +1 Y10,3 +1 Y10,4 +1 Y10,5 +1 Y10,6 +1 Y12,0 +1 Y12,1 +1 Y12,2
  +1 Y12,3 +1 Y12,4 +1 Y12,5 +1 Y12,6 +1 Y14,0 +1 Y14,1 +1 Y14,2 +1 Y14,3 +1 Y14,4 +1 Y14,5 +1 Y14,6 +1 Y16,0
  +1 Y16,1 +1 Y16,2 +1 Y16,3 +1 Y16,4 +1 Y16,5 +1 Y16,6 +1 Y18,0 +1 Y18,1 +1 Y18,2 +1 Y18,3 +1 Y18,4 +1 Y18,5
  +1 Y18,6 +1 Y20,0 +1 Y20,1 +1 Y20,2 +1 Y20,3 +1 Y20,4 +1 Y20,5 +1 Y20,6 +1 Y21,0 +1 Y21,1 +1 Y21,2 +1 Y21,3
  +1 Y21,4 +1 Y21,5 +1 Y21,6 +1 Y23,0 +1 Y23,1 +1 Y23,2 +1 Y23,3 +1 Y23,4 +1 Y23,5 +1 Y23,6 +1 Y24,0 +1 Y24,1
  +1 Y24,2 +1 Y24,3 +1 Y24,4 +1 Y24,5 +1 Y24,6 +1 Y25,0 +1 Y25,1 +1 Y25,2 +1 Y25,3 +1 Y25,4 +1 Y25,5 +1 Y25,6
  +1 Y27,0 +1 Y27,1 +1 Y27,2 +1 Y27,3 +1 Y27,4 +1 Y27,5 +1 Y27,6 +1 Y28,0 +1 Y28,1 +1 Y28,2 +1 Y28,3 +1 Y28,4
  +1 Y28,5 +1 Y28,6 +1 Y29,0 +1 Y29,1 +1 Y29,2 +1 Y29,3 +1 Y29,4 +1 Y29,5 +1 Y29,6 +1 Y30,0 +1 Y30,1 +1 Y30,2
  +1 Y30,3 +1 Y30,4 +1 Y30,5 +1 Y30,6 = +1
 c39: +1 Y4,0 +1 Y4,1 +1 Y4,2 +1 Y4,3 +1 Y4,4 +1 Y4,5 +1 Y4,6 +1 Y8,0 +1 Y8,1 +1 Y8,2 +1 Y8,3 +1 Y8,4
  +1 Y8,5 +1 Y8,6 +1 Y11,0 +1 Y11,1 +1 Y11,2 +1 Y11,3 +1 Y11,4 +1 Y11,5 +1 Y11,6 +1 Y13,0 +1 Y13,1 +1 Y13,2
  +1 Y13,3 +1 Y13,4 +1 Y13,5 +1 Y13,6 +1 Y14,0 +1 Y14,1 +1 Y14,2 +1 Y14,3 +1 Y14,4 +1 Y14,5 +1 Y14,6 +1 Y17,0
  +1 Y17,1 +1 Y17,2 +1 Y17,3 +1 Y17,4 +1 Y17,5 +1 Y17,6 +1 Y19,0 +1 Y19,1 +1 Y19,2 +1 Y19,3 +1 Y19,4 +1 Y19,5
  +1 Y19,6 +1 Y20,0 +1 Y20,1 +1 Y20,2 +1 Y20,3 +1 Y20,4 +1 Y20,5 +1 Y20,6 +1 Y22,0 +1 Y22,1 +1 Y22,2 +1 Y22,3
  +1 Y22,4 +1 Y22,5 +1 Y22,6 +1 Y23,0 +1 Y23,1 +1 Y23,2 +1 Y23,3 +1 Y23,4 +1 Y23,5 +1 Y23,6 +1 Y24,0 +1 Y24,1
  +1 Y24,2 +1 Y24,3 +1 Y24,4 +1 Y24,5 +1 Y24,6 +1 Y26,0 +1 Y26,1 +1 Y26,2 +1 Y26,3 +1 Y26,4 +1 Y26,5 +1 Y26,6
  +1 Y27,0 +1 Y27,1 +1 Y27,2 +1 Y27,3 +1 Y27,4 +1 Y27,5 +1 Y27,6 +1 Y28,0 +1 Y28,1 +1 Y28,2 +1 Y28,3 +1 Y28,4
  +1 Y28,5 +1 Y28,6 +1 Y29,0 +1 Y29,1 +1 Y29,2 +1 Y29,3 +1 Y29,4 +1 Y29,5 +1 Y29,6 +1 Y30,0 +1 Y30,1 +1 Y30,2
  +1 Y30,3 +1 Y30,4 +1 Y30,5 +1 Y30,6 = +1
 c40: +1 Y480,0 +1 Y480,1 +1 Y480,2 +1 Y480,3 +1 Y480,4 +1 Y480,5 +1 Y480,6 +1 Y485,0 +1 Y485,1 +1 Y485,2
  +1 Y485,3 +1 Y485,4 +1 Y485,5 +1 Y485,6 +1 Y489,0 +1 Y489,1 +1 Y489,2 +1 Y489,3 +1 Y489,4 +1 Y489,5
  +1 Y489,6 +1 Y492,0 +1 Y492,1 +1 Y492,2 +1 Y492,3 +1 Y492,4 +1 Y492,5 +1 Y492,6 +1 Y494,0 +1 Y494,1
  +1 Y494,2 +1 Y494,3 +1 Y494,4 +1 Y494,5 +1 Y494,6 +1 Y496,0 +1 Y496,1 +1 Y496,2 +1 Y496,3 +1 Y496,4
  +1 Y496,5 +1 Y496,6 +1 Y499,0 +1 Y499,1 +1 Y499,2 +1 Y499,3 +1 Y499,4 +1 Y499,5 +1 Y499,6 +1 Y502,0
  +1 Y502,1 +1 Y502,2 +1 Y502,3 +1 Y502,4 +1 Y502,5 +1 Y502,6 +1 Y504,0 +1 Y504,1 +1 Y504,2 +1 Y504,3
  +1 Y504,4 +1 Y504,5 +1 Y504,6 +1 Y506,0 +1 Y506,1 +1 Y506,2 +1 Y506,3 +1 Y506,4 +1 Y506,5 +1 Y506,6
  +1 Y508,0 +1 Y508,1 +1 Y508,2 +1 Y508,3 +1 Y508,4 +1 Y508,5 +1 Y508,6 +1 Y510,0 +1 Y510,1 +1 Y510,2
  +1 Y510,3 +1 Y510,4 +1 Y510,5 +1 Y510,6 +1 Y512,0 +1 Y512,1 +1 Y512,2 +1 Y512,3 +1 Y512,4 +1 Y512,5
  +1 Y512,6 +1 Y513,0 +1 Y513,1 +1 Y513,2 +1 Y513,3 +1 Y513,4 +1 Y513,5 +1 Y513,6 +1 Y515,0 +1 Y515,1
  +1 Y515,2 +1 Y515,3 +1 Y515,4 +1 Y515,5 +1 Y515,6 +1 Y516,0 +1 Y516,1 +1 Y516,2 +1 Y516,3 +1 Y516,4
  +1 Y516,5 +1 Y516,6 +1 Y518,0 +1 Y518,1 +1 Y518,2 +1 Y518,3 +1 Y518,4 +1 Y518,5 +1 Y518,6 +1 Y520,0
  +1 Y520,1 +1 Y520,2 +1 Y520,3 +1 Y520,4 +1 Y520,5 +1 Y520,6 +1 Y522,0 +1 Y522,1 +1 Y522,2 +1 Y522,3
  +1 Y522,4 +1 Y522,5 +1 Y522,6 +1 Y523,0 +1 Y523,1 +1 Y523,2 +1 Y523,3 +1 Y523,4 +1 Y523,5 +1 Y523,6
  +1 Y525,0 +1 Y525,1 +1 Y525,2 +1 Y525,3 +1 Y525,4 +1 Y525,5 +1 Y525,6 +1 Y526,0 +1 Y526,1 +1 Y526,2
  +1 Y526,3 +1 Y526,4 +1 Y526,5 +1 Y526,6 +1 Y527,0 +1 Y527,1 +1 Y527,2 +1 Y527,3 +1 Y527,4 +1 Y527,5
  +1 Y527,6 +1 Y529,0 +1 Y529,1 +1 Y529,2 +1 Y529,3 +1 Y529,4 +1 Y529,5 +1 Y529,6 +1 Y530,0 +1 Y530,1
  +1 Y530,2 +1 Y530,3 +1 Y530,4 +1 Y530,5 +1 Y530,6 +1 Y531,0 +1 Y531,1 +1 Y531,2 +1 Y531,3 +1 Y531,4
  +1 Y531,5 +1 Y531,6 +1 Y532,0 +1 Y532,1 +1 Y532,2 +1 Y532,3 +1 Y532,4 +1 Y532,5 +1 Y532,6 +1 Y534,0
  +1 Y534,1 +1 Y534,2 +1 Y534,3 +1 Y534,4 +1 Y534,5 +1 Y534,6 +1 Y535,0 +1 Y535,1 +1 Y535,2 +1 Y535,3
  +1 Y535,4 +1 Y535,5 +1 Y535,6 +1 Y536,0 +1 Y536,1 +1 Y536,2 +1 Y536,3 +1 Y536,4 +1 Y536,5 +1 Y536,6
  +1 Y537,0 +1 Y537,1 +1 Y537,2 +1 Y537,3 +1 Y537,4 +1 Y537,5 +1 Y537,6 +1 Y538,0 +1 Y538,1 +1 Y538,2
  +1 Y538,3 +1 Y538,4 +1 Y538,5 +1 Y538,6 = +1
 c41: +1 Y35,0 +1 Y35,1 +1 Y35,2 +1 Y35,3 +1 Y35,4 +1 Y35,5 +1 Y35,6 +1 Y40,0 +1 Y40,1 +1 Y40,2 +1 Y40,3
  +1 Y40,4 +1 Y40,5 +1 Y40,6 +1 Y44,0 +1 Y44,1 +1 Y44,2 +1 Y44,3 +1 Y44,4 +1 Y44,5 +1 Y44,6 +1 Y47,0 +1 Y47,1
  +1 Y47,2 +1 Y47,3 +1 Y47,4 +1 Y47,5 +1 Y47,6 +1 Y49,0 +1 Y49,1 +1 Y49,2 +1 Y49,3 +1 Y49,4 +1 Y49,5 +1 Y49,6
  +1 Y51,0 +1 Y51,1 +1 Y51,2 +1 Y51,3 +1 Y51,4 +1 Y51,5 +1 Y51,6 +1 Y54,0 +1 Y54,1 +1 Y54,2 +1 Y54,3 +1 Y54,4
  +1 Y54,5 +1 Y54,6 +1 Y57,0 +1 Y57,1 +1 Y57,2 +1 Y57,3 +1 Y57,4 +1 Y57,5 +1 Y57,6 +1 Y59,0 +1 Y59,1 +1 Y59,2
  +1 Y59,3 +1 Y59,4 +1 Y59,5 +1 Y59,6 +1 Y61,0 +1 Y61,1 +1 Y61,2 +1 Y61,3 +1 Y61,4 +1 Y61,5 +1 Y61,6 +1 Y63,0
  +1 Y63,1 +1 Y63,2 +1 Y63,3 +1 Y63,4 +1 Y63,5 +1 Y63,6 +1 Y65,0 +1 Y65,1 +1 Y65,2 +1 Y65,3 +1 Y65,4 +1 Y65,5
  +1 Y65,6 +1 Y67,0 +1 Y67,1 +1 Y67,2 +1 Y67,3 +1 Y67,4 +1 Y67,5 +1 Y67,6 +1 Y68,0 +1 Y68,1 +1 Y68,2 +1 Y68,3
  +1 Y68,4 +1 Y68,5 +1 Y68,6 +1 Y70,0 +1 Y70,1 +1 Y70,2 +1 Y70,3 +1 Y70,4 +1 Y70,5 +1 Y70,6 +1 Y71,0 +1 Y71,1
  +1 Y71,2 +1 Y71,3 +1 Y71,4 +1 Y71,5 +1 Y71,6 +1 Y73,0 +1 Y73,1 +1 Y73,2 +1 Y73,3 +1 Y73,4 +1 Y73,5 +1 Y73,6
  +1 Y75,0 +1 Y75,1 +1 Y75,2 +1 Y75,3 +1 Y75,4 +1 Y75,5 +1 Y75,6 +1 Y77,0 +1 Y77,1 +1 Y77,2 +1 Y77,3 +1 Y77,4
  +1 Y77,5 +1 Y77,6 +1 Y78,0 +1 Y78,1 +1 Y78,2 +1 Y78,3 +1 Y78,4 +1 Y78,5 +1 Y78,6 +1 Y80,0 +1 Y80,1 +1 Y80,2
  +1 Y80,3 +1 Y80,4 +1 Y80,5 +1 Y80,6 +1 Y81,0 +1 Y81,1 +1 Y81,2 +1 Y81,3 +1 Y81,4 +1 Y81,5 +1 Y81,6 +1 Y82,0
  +1 Y82,1 +1 Y82,2 +1 Y82,3 +1 Y82,4 +1 Y82,5 +1 Y82,6 +1 Y84,0 +1 Y84,1 +1 Y84,2 +1 Y84,3 +1 Y84,4 +1 Y84,5
  +1 Y84,6 +1 Y85,0 +1 Y85,1 +1 Y85,2 +1 Y85,3 +1 Y85,4 +1 Y85,5 +1 Y85,6 +1 Y86,0 +1 Y86,1 +1 Y86,2 +1 Y86,3
  +1 Y86,4 +1 Y86,5 +1 Y86,6 +1 Y87,0 +1 Y87,1 +1 Y87,2 +1 Y87,3 +1 Y87,4 +1 Y87,5 +1 Y87,6 +1 Y89,0 +1 Y89,1
  +1 Y89,2 +1 Y89,3 +1 Y89,4 +1 Y89,5 +1 Y89,6 +1 Y90,0 +1 Y90,1 +1 Y90,2 +1 Y90,3 +1 Y90,4 +1 Y90,5 +1 Y90,6
  +1 Y91,0 +1 Y91,1 +1 Y91,2 +1 Y91,3 +1 Y91,4 +1 Y91,5 +1 Y91,6 +1 Y92,0 +1 Y92,1 +1 Y92,2 +1 Y92,3 +1 Y92,4
  +1 Y92,5 +1 Y92,6 +1 Y93,0 +1 Y93,1 +1 Y93,2 +1 Y93,3 +1 Y93,4 +1 Y93,5 +1 Y93,6 = +1
 c42: +1 Y844,0 +1 Y844,1 +1 Y844,2 +1 Y844,3 +1 Y844,4 +1 Y844,5 +1 Y844,6 +1 Y847,0 +1 Y847,1 +1 Y847,2
  +1 Y847,3 +1 Y847,4 +1 Y847,5 +1 Y847,6 +1 Y850,0 +1 Y850,1 +1 Y850,2 +1 Y850,3 +1 Y850,4 +1 Y850,5
  +1 Y850,6 +1 Y851,0 +1 Y851,1 +1 Y851,2 +1 Y851,3 +1 Y851,4 +1 Y851,5 +1 Y851,6 +1 Y853,0 +1 Y853,1
  +1 Y853,2 +1 Y853,3 +1 Y853,4 +1 Y853,5 +1 Y853,6 +1 Y854,0 +1 Y854,1 +1 Y854,2 +1 Y854,3 +1 Y854,4
  +1 Y854,5 +1 Y854,6 +1 Y856,0 +1 Y856,1 +1 Y856,2 +1 Y856,3 +1 Y856,4 +1 Y856,5 +1 Y856,6 +1 Y857,0
  +1 Y857,1 +1 Y857,2 +1 Y857,3 +1 Y857,4 +1 Y857,5 +1 Y857,6 = +1
 c43: +1 Y592,0 +1 Y592,1 +1 Y592,2 +1 Y592,3 +1 Y592,4 +1 Y592,5 +1 Y592,6 +1 Y599,0 +1 Y599,1 +1 Y599,2
  +1 Y599,3 +1 Y599,4 +1 Y599,5 +1 Y599,6 +1 Y605,0 +1 Y605,1 +1 Y605,2 +1 Y605,3 +1 Y605,4 +1 Y605,5
  +1 Y605,6 +1 Y610,0 +1 Y610,1 +1 Y610,2 +1 Y610,3 +1 Y610,4 +1 Y610,5 +1 Y610,6 +1 Y614,0 +1 Y614,1
  +1 Y614,2 +1 Y614,3 +1 Y614,4 +1 Y614,5 +1 Y614,6 +1 Y617,0 +1 Y617,1 +1 Y617,2 +1 Y617,3 +1 Y617,4
  +1 Y617,5 +1 Y617,6 +1 Y619,0 +1 Y619,1 +1 Y619,2 +1 Y619,3 +1 Y619,4 +1 Y619,5 +1 Y619,6 +1 Y620,0
  +1 Y620,1 +1 Y620,2 +1 Y620,3 +1 Y620,4 +1 Y620,5 +1 Y620,6 +1 Y626,0 +1 Y626,1 +1 Y626,2 +1 Y626,3
  +1 Y626,4 +1 Y626,5 +1 Y626,6 +1 Y631,0 +1 Y631,1 +1 Y631,2 +1 Y631,3 +1 Y631,4 +1 Y631,5 +1 Y631,6
  +1 Y635,0 +1 Y635,1 +1 Y635,2 +1 Y635,3 +1 Y635,4 +1 Y635,5 +1 Y635,6 +1 Y638,0 +1 Y638,1 +1 Y638,2
  +1 Y638,3 +1 Y638,4 +1 Y638,5 +1 Y638,6 +1 Y640,0 +1 Y640,1 +1 Y640,2 +1 Y640,3 +1 Y640,4 +1 Y640,5
  +1 Y640,6 +1 Y641,0 +1 Y641,1 +1 Y641,2 +1 Y641,3 +1 Y641,4 +1 Y641,5 +1 Y641,6 +1 Y646,0 +1 Y646,1
  +1 Y646,2 +1 Y646,3 +1 Y646,4 +1 Y646,5 +1 Y646,6 +1 Y650,0 +1 Y650,1 +1 Y650,2 +1 Y650,3 +1 Y650,4
  +1 Y650,5 +1 Y650,6 +1 Y653,0 +1 Y653,1 +1 Y653,2 +1 Y653,3 +1 Y653,4 +1 Y653,5 +1 Y653,6 +1 Y655,0
  +1 Y655,1 +1 Y655,2 +1 Y655,3 +1 Y655,4 +1 Y655,5 +1 Y655,6 +1 Y656,0 +1 Y656,1 +1 Y656,2 +1 Y656,3
  +1 Y656,4 +1 Y656,5 +1 Y656,6 +1 Y660,0 +1 Y660,1 +1 Y660,2 +1 Y660,3 +1 Y660,4 +1 Y660,5 +1 Y660,6
  +1 Y663,0 +1 Y663,1 +1 Y663,2 +1 Y663,3 +1 Y663,4 +1 Y663,5 +1 Y663,6 +1 Y665,0 +1 Y665,1 +1 Y665,2
  +1 Y665,3 +1 Y665,4 +1 Y665,5 +1 Y665,6 +1 Y666,0 +1 Y666,1 +1 Y666,2 +1 Y666,3 +1 Y666,4 +1 Y666,5
  +1 Y666,6 +1 Y669,0 +1 Y669,1 +1 Y669,2 +1 Y669,3 +1 Y669,4 +1 Y669,5 +1 Y669,6 +1 Y671,0 +1 Y671,1
  +1 Y671,2 +1 Y671,3 +1 Y671,4 +1 Y671,5 +1 Y671,6 +1 Y672,0 +1 Y672,1 +1 Y672,2 +1 Y672,3 +1 Y672,4
  +1 Y672,5 +1 Y672,6 +1 Y674,0 +1 Y674,1 +1 Y674,2 +1 Y674,3 +1 Y674,4 +1 Y674,5 +1 Y674,6 +1 Y675,0
  +1 Y675,1 +1 Y675,2 +1 Y675,3 +1 Y675,4 +1 Y675,5 +1 Y675,6 +1 Y676,0 +1 Y676,1 +1 Y676,2 +1 Y676,3
  +1 Y676,4 +1 Y676,5 +1 Y676,6 +1 Y681,0 +1 Y681,1 +1 Y681,2 +1 Y681,3 +1 Y681,4 +1 Y681,5 +1 Y681,6
  +1 Y685,0 +1 Y685,1 +1 Y685,2 +1 Y685,3 +1 Y685,4 +1 Y685,5 +1 Y685,6 +1 Y688,0 +1 Y688,1 +1 Y688,2
  +1 Y688,3 +1 Y688,4 +1 Y688,5 +1 Y688,6 +1 Y690,0 +1 Y690,1 +1 Y690,2 +1 Y690,3 +1 Y690,4 +1 Y690,5
  +1 Y690,6 +1 Y691,0 +1 Y691,1 +1 Y691,2 +1 Y691,3 +1 Y691,4 +1 Y691,5 +1 Y691,6 +1 Y695,0 +1 Y695,1
  +1 Y695,2 +1 Y695,3 +1 Y695,4 +1 Y695,5 +1 Y695,6 +1 Y698,0 +1 Y698,1 +1 Y698,2 +1 Y698,3 +1 Y698,4
  +1 Y698,5 +1 Y698,6 +1 Y700,0 +1 Y700,1 +1 Y700,2 +1 Y700,3 +1 Y700,4 +1 Y700,5 +1 Y700,6 +1 Y701,0
  +1 Y701,1 +1 Y701,2 +1 Y701,3 +1 Y701,4 +1 Y701,5 +1 Y701,6 +1 Y704,0 +1 Y704,1 +1 Y704,2 +1 Y704,3
  +1 Y704,4 +1 Y704,5 +1 Y704,6 +1 Y706,0 +1 Y706,1 +1 Y706,2 +1 Y706,3 +1 Y706,4 +1 Y706,5 +1 Y706,6
  +1 Y707,0 +1 Y707,1 +1 Y707,2 +1 Y707,3 +1 Y707,4 +1 Y707,5 +1 Y707,6 +1 Y709,0 +1 Y709,1 +1 Y709,2
  +1 Y709,3 +1 Y709,4 +1 Y709,5 +1 Y709,6 +1 Y710,0 +1 Y710,1 +1 Y710,2 +1 Y710,3 +1 Y710,4 +1 Y710,5
  +1 Y710,6 +1 Y711,0 +1 Y711,1 +1 Y711,2 +1 Y711,3 +1 Y711,4 +1 Y711,5 +1 Y711,6 +1 Y715,0 +1 Y715,1
  +1 Y715,2 +1 Y715,3 +1 Y715,4 +1 Y715,5 +1 Y715,6 +1 Y718,0 +1 Y718,1 +1 Y718,2 +1 Y718,3 +1 Y718,4
  +1 Y718,5 +1 Y718,6 +1 Y720,0 +1 Y720,1 +1 Y720,2 +1 Y720,3 +1 Y720,4 +1 Y720,5 +1 Y720,6 +1 Y721,0
  +1 Y721,1 +1 Y721,2 +1 Y721,3 +1 Y721,4 +1 Y721,5 +1 Y721,6 +1 Y724,0 +1 Y724,1 +1 Y724,2 +1 Y724,3
  +1 Y724,4 +1 Y724,5 +1 Y724,6 +1 Y726,0 +1 Y726,1 +1 Y726,2 +1 Y726,3 +1 Y726,4 +1 Y726,5 +1 Y726,6
  +1 Y727,0 +1 Y727,1 +1 Y727,2 +1 Y727,3 +1 Y727,4 +1 Y727,5 +1 Y727,6 +1 Y729,0 +1 Y729,1 +1 Y729,2
  +1 Y729,3 +1 Y729,4 +1 Y729,5 +1 Y729,6 +1 Y730,0 +1 Y730,1 +1 Y730,2 +1 Y730,3 +1 Y730,4 +1 Y730,5
  +1 Y730,6 +1 Y731,0 +1 Y731,1 +1 Y731,2 +1 Y731,3 +1 Y731,4 +1 Y731,5 +1 Y731,6 +1 Y734,0 +1 Y734,1
  +1 Y734,2 +1 Y734,3 +1 Y734,4 +1 Y734,5 +1 Y734,6 +1 Y736,0 +1 Y736,1 +1 Y736,2 +1 Y736,3 +1 Y736,4
  +1 Y736,5 +1 Y736,6 +1 Y737,0 +1 Y737,1 +1 Y737,2 +1 Y737,3 +1 Y737,4 +1 Y737,5 +1 Y737,6 +1 Y739,0
  +1 Y739,1 +1 Y739,2 +1 Y739,3 +1 Y739,4 +1 Y739,5 +1 Y739,6 +1 Y740,0 +1 Y740,1 +1 Y740,2 +1 Y740,3
  +1 Y740,4 +1 Y740,5 +1 Y740,6 +1 Y741,0 +1 Y741,1 +1 Y741,2 +1 Y741,3 +1 Y741,4 +1 Y741,5 +1 Y741,6
  +1 Y743,0 +1 Y743,1 +1 Y743,2 +1 Y743,3 +1 Y743,4 +1 Y743,5 +1 Y743,6 +1 Y744,0 +1 Y744,1 +1 Y744,2
  +1 Y744,3 +1 Y744,4 +1 Y744,5 +1 Y744,6 +1 Y745,0 +1 Y745,1 +1 Y745,2 +1 Y745,3 +1 Y745,4 +1 Y745,5
  +1 Y745,6 +1 Y746,0 +1 Y746,1 +1 Y746,2 +1 Y746,3 +1 Y746,4 +1 Y746,5 +1 Y746,6 +1 Y750,0 +1 Y750,1
  +1 Y750,2 +1 Y750,3 +1 Y750,4 +1 Y750,5 +1 Y750,6 +1 Y753,0 +1 Y753,1 +1 Y753,2 +1 Y753,3 +1 Y753,4
  +1 Y753,5 +1 Y753,6 +1 Y755,0 +1 Y755,1 +1 Y755,2 +1 Y755,3 +1 Y755,4 +1 Y755,5 +1 Y755,6 +1 Y756,0
  +1 Y756,1 +1 Y756,2 +1 Y756,3 +1 Y756,4 +1 Y756,5 +1 Y756,6 +1 Y759,0 +1 Y759,1 +1 Y759,2 +1 Y759,3
  +1 Y759,4 +1 Y759,5 +1 Y759,6 +1 Y761,0 +1 Y761,1 +1 Y761,2 +1 Y761,3 +1 Y761,4 +1 Y761,5 +1 Y761,6
  +1 Y762,0 +1 Y762,1 +1 Y762,2 +1 Y762,3 +1 Y762,4 +1 Y762,5 +1 Y762,6 +1 Y764,0 +1 Y764,1 +1 Y764,2
  +1 Y764,3 +1 Y764,4 +1 Y764,5 +1 Y764,6 +1 Y765,0 +1 Y765,1 +1 Y765,2 +1 Y765,3 +1 Y765,4 +1 Y765,5
  +1 Y765,6 +1 Y766,0 +1 Y766,1 +1 Y766,2 +1 Y766,3 +1 Y766,4 +1 Y766,5 +1 Y766,6 +1 Y769,0 +1 Y769,1
  +1 Y769,2 +1 Y769,3 +1 Y769,4 +1 Y769,5 +1 Y769,6 +1 Y771,0 +1 Y771,1 +1 Y771,2 +1 Y771,3 +1 Y771,4
  +1 Y771,5 +1 Y771,6 +1 Y772,0 +1 Y772,1 +1 Y772,2 +1 Y772,3 +1 Y772,4 +1 Y772,5 +1 Y772,6 +1 Y774,0
  +1 Y774,1 +1 Y774,2 +1 Y774,3 +1 Y774,4 +1 Y774,5 +1 Y774,6 +1 Y775,0 +1 Y775,1 +1 Y775,2 +1 Y775,3
  +1 Y775,4 +1 Y775,5 +1 Y775,6 +1 Y776,0 +1 Y776,1 +1 Y776,2 +1 Y776,3 +1 Y776,4 +1 Y776,5 +1 Y776,6
  +1 Y778,0 +1 Y778,1 +1 Y778,2 +1 Y778,3 +1 Y778,4 +1 Y778,5 +1 Y778,6 +1 Y779,0 +1 Y779,1 +1 Y779,2
  +1 Y779,3 +1 Y779,4 +1 Y779,5 +1 Y779,6 +1 Y780,0 +1 Y780,1 +1 Y780,2 +1 Y780,3 +1 Y780,4 +1 Y780,5
  +1 Y780,6 +1 Y781,0 +1 Y781,1 +1 Y781,2 +1 Y781,3 +1 Y781,4 +1 Y781,5 +1 Y781,6 +1 Y784,0 +1 Y784,1
  +1 Y784,2 +1 Y784,3 +1 Y784,4 +1 Y784,5 +1 Y784,6 +1 Y786,0 +1 Y786,1 +1 Y786,2 +1 Y786,3 +1 Y786,4
  +1 Y786,5 +1 Y786,6 +1 Y787,0 +1 Y787,1 +1 Y787,2 +1 Y787,3 +1 Y787,4 +1 Y787,5 +1 Y787,6 +1 Y789,0
  +1 Y789,1 +1 Y789,2 +1 Y789,3 +1 Y789,4 +1 Y789,5 +1 Y789,6 +1 Y790,0 +1 Y790,1 +1 Y790,2 +1 Y790,3
  +1 Y790,4 +1 Y790,5 +1 Y790,6 +1 Y791,0 +1 Y791,1 +1 Y791,2 +1 Y791,3 +1 Y791,4 +1 Y791,5 +1 Y791,6
  +1 Y793,0 +1 Y793,1 +1 Y793,2 +1 Y793,3 +1 Y793,4 +1 Y793,5 +1 Y793,6 +1 Y794,0 +1 Y794,1 +1 Y794,2
  +1 Y794,3 +1 Y794,4 +1 Y794,5 +1 Y794,6 +1 Y795,0 +1 Y795,1 +1 Y795,2 +1 Y795,3 +1 Y795,4 +1 Y795,5
  +1 Y795,6 +1 Y796,0 +1 Y796,1 +1 Y796,2 +1 Y796,3 +1 Y796,4 +1 Y796,5 +1 Y796,6 +1 Y798,0 +1 Y798,1
  +1 Y798,2 +1 Y798,3 +1 Y798,4 +1 Y798,5 +1 Y798,6 +1 Y799,0 +1 Y799,1 +1 Y799,2 +1 Y799,3 +1 Y799,4
  +1 Y799,5 +1 Y799,6 +1 Y800,0 +1 Y800,1 +1 Y800,2 +1 Y800,3 +1 Y800,4 +1 Y800,5 +1 Y800,6 +1 Y801,0
  +1 Y801,1 +1 Y801,2 +1 Y801,3 +1 Y801,4 +1 Y801,5 +1 Y801,6 +1 Y802,0 +1 Y802,1 +1 Y802,2 +1 Y802,3
  +1 Y802,4 +1 Y802,5 +1 Y802,6 +1 Y805,0 +1 Y805,1 +1 Y805,2 +1 Y805,3 +1 Y805,4 +1 Y805,5 +1 Y805,6
  +1 Y807,0 +1 Y807,1 +1 Y807,2 +1 Y807,3 +1 Y807,4 +1 Y807,5 +1 Y807,6 +1 Y808,0 +1 Y808,1 +1 Y808,2
  +1 Y808,3 +1 Y808,4 +1 Y808,5 +1 Y808,6 +1 Y810,0 +1 Y810,1 +1 Y810,2 +1 Y810,3 +1 Y810,4 +1 Y810,5
  +1 Y810,6 +1 Y811,0 +1 Y811,1 +1 Y811,2 +1 Y811,3 +1 Y811,4 +1 Y811,5 +1 Y811,6 +1 Y812,0 +1 Y812,1
  +1 Y812,2 +1 Y812,3 +1 Y812,4 +1 Y812,5 +1 Y812,6 +1 Y814,0 +1 Y814,1 +1 Y814,2 +1 Y814,3 +1 Y814,4
  +1 Y814,5 +1 Y814,6 +1 Y815,0 +1 Y815,1 +1 Y815,2 +1 Y815,3 +1 Y815,4 +1 Y815,5 +1 Y815,6 +1 Y816,0
  +1 Y816,1 +1 Y816,2 +1 Y816,3 +1 Y816,4 +1 Y816,5 +1 Y816,6 +1 Y817,0 +1 Y817,1 +1 Y817,2 +1 Y817,3
  +1 Y817,4 +1 Y817,5 +1 Y817,6 +1 Y819,0 +1 Y819,1 +1 Y819,2 +1 Y819,3 +1 Y819,4 +1 Y819,5 +1 Y819,6
  +1 Y820,0 +1 Y820,1 +1 Y820,2 +1 Y820,3 +1 Y820,4 +1 Y820,5 +1 Y820,6 +1 Y821,0 +1 Y821,1 +1 Y821,2
  +1 Y821,3 +1 Y821,4 +1 Y821,5 +1 Y821,6 +1 Y822,0 +1 Y822,1 +1 Y822,2 +1 Y822,3 +1 Y822,4 +1 Y822,5
  +1 Y822,6 +1 Y823,0 +1 Y823,1 +1 Y823,2 +1 Y823,3 +1 Y823,4 +1 Y823,5 +1 Y823,6 +1 Y825,0 +1 Y825,1
  +1 Y825,2 +1 Y825,3 +1 Y825,4 +1 Y825,5 +1 Y825,6 +1 Y826,0 +1 Y826,1 +1 Y826,2 +1 Y826,3 +1 Y826,4
  +1 Y826,5 +1 Y826,6 +1 Y827,0 +1 Y827,1 +1 Y827,2 +1 Y827,3 +1 Y827,4 +1 Y827,5 +1 Y827,6 +1 Y828,0
  +1 Y828,1 +1 Y828,2 +1 Y828,3 +1 Y828,4 +1 Y828,5 +1 Y828,6 +1 Y829,0 +1 Y829,1 +1 Y829,2 +1 Y829,3
  +1 Y829,4 +1 Y829,5 +1 Y829,6 +1 Y830,0 +1 Y830,1 +1 Y830,2 +1 Y830,3 +1 Y830,4 +1 Y830,5 +1 Y830,6
  +1 Y832,0 +1 Y832,1 +1 Y832,2 +1 Y832,3 +1 Y832,4 +1 Y832,5 +1 Y832,6 +1 Y833,0 +1 Y833,1 +1 Y833,2
  +1 Y833,3 +1 Y833,4 +1 Y833,5 +1 Y833,6 +1 Y834,0 +1 Y834,1 +1 Y834,2 +1 Y834,3 +1 Y834,4 +1 Y834,5
  +1 Y834,6 +1 Y835,0 +1 Y835,1 +1 Y835,2 +1 Y835,3 +1 Y835,4 +1 Y835,5 +1 Y835,6 +1 Y836,0 +1 Y836,1
  +1 Y836,2 +1 Y836,3 +1 Y836,4 +1 Y836,5 +1 Y836,6 +1 Y837,0 +1 Y837,1 +1 Y837,2 +1 Y837,3 +1 Y837,4
  +1 Y837,5 +1 Y837,6 +1 Y838,0 +1 Y838,1 +1 Y838,2 +1 Y838,3 +1 Y838,4 +1 Y838,5 +1 Y838,6 +1 Y839,0
  +1 Y839,1 +1 Y839,2 +1 Y839,3 +1 Y839,4 +1 Y839,5 +1 Y839,6 = +1
 c44: +1 Y541,0 +1 Y541,1 +1 Y541,2 +1 Y541,3 +1 Y541,4 +1 Y541,5 +1 Y541,6 +1 Y544,0 +1 Y544,1 +1 Y544,2
  +1 Y544,3 +1 Y544,4 +1 Y544,5 +1 Y544,6 +1 Y546,0 +1 Y546,1 +1 Y546,2 +1 Y546,3 +1 Y546,4 +1 Y546,5
  +1 Y546,6 +1 Y548,0 +1 Y548,1 +1 Y548,2 +1 Y548,3 +1 Y548,4 +1 Y548,5 +1 Y548,6 +1 Y549,0 +1 Y549,1
  +1 Y549,2 +1 Y549,3 +1 Y549,4 +1 Y549,5 +1 Y549,6 +1 Y551,0 +1 Y551,1 +1 Y551,2 +1 Y551,3 +1 Y551,4
  +1 Y551,5 +1 Y551,6 +1 Y552,0 +1 Y552,1 +1 Y552,2 +1 Y552,3 +1 Y552,4 +1 Y552,5 +1 Y552,6 +1 Y553,0
  +1 Y553,1 +1 Y553,2 +1 Y553,3 +1 Y553,4 +1 Y553,5 +1 Y553,6 = +1
 c45: +1 Y542,0 +1 Y542,1 +1 Y542,2 +1 Y542,3 +1 Y542,4 +1 Y542,5 +1 Y542,6 +1 Y545,0 +1 Y545,1 +1 Y545,2
  +1 Y545,3 +1 Y545,4 +1 Y545,5 +1 Y545,6 +1 Y547,0 +1 Y547,1 +1 Y547,2 +1 Y547,3 +1 Y547,4 +1 Y547,5
  +1 Y547,6 +1 Y548,0 +1 Y548,1 +1 Y548,2 +1 Y548,3 +1 Y548,4 +1 Y548,5 +1 Y548,6 +1 Y550,0 +1 Y550,1
  +1 Y550,2 +1 Y550,3 +1 Y550,4 +1 Y550,5 +1 Y550,6 +1 Y551,0 +1 Y551,1 +1 Y551,2 +1 Y551,3 +1 Y551,4
  +1 Y551,5 +1 Y551,6 +1 Y552,0 +1 Y552,1 +1 Y552,2 +1 Y552,3 +1 Y552,4 +1 Y552,5 +1 Y552,6 +1 Y553,0
  +1 Y553,1 +1 Y553,2 +1 Y553,3 +1 Y553,4 +1 Y553,5 +1 Y553,6 = +1
 c46: +1 Y556,0 +1 Y556,1 +1 Y556,2 +1 Y556,3 +1 Y556,4 +1 Y556,5 +1 Y556,6 +1 Y560,0 +1 Y560,1 +1 Y560,2
  +1 Y560,3 +1 Y560,4 +1 Y560,5 +1 Y560,6 +1 Y563,0 +1 Y563,1 +1 Y563,2 +1 Y563,3 +1 Y563,4 +1 Y563,5
  +1 Y563,6 +1 Y566,0 +1 Y566,1 +1 Y566,2 +1 Y566,3 +1 Y566,4 +1 Y566,5 +1 Y566,6 +1 Y567,0 +1 Y567,1
  +1 Y567,2 +1 Y567,3 +1 Y567,4 +1 Y567,5 +1 Y567,6 +1 Y569,0 +1 Y569,1 +1 Y569,2 +1 Y569,3 +1 Y569,4
  +1 Y569,5 +1 Y569,6 +1 Y572,0 +1 Y572,1 +1 Y572,2 +1 Y572,3 +1 Y572,4 +1 Y572,5 +1 Y572,6 +1 Y573,0
  +1 Y573,1 +1 Y573,2 +1 Y573,3 +1 Y573,4 +1 Y573,5 +1 Y573,6 +1 Y575,0 +1 Y575,1 +1 Y575,2 +1 Y575,3
  +1 Y575,4 +1 Y575,5 +1 Y575,6 +1 Y576,0 +1 Y576,1 +1 Y576,2 +1 Y576,3 +1 Y576,4 +1 Y576,5 +1 Y576,6
  +1 Y578,0 +1 Y578,1 +1 Y578,2 +1 Y578,3 +1 Y578,4 +1 Y578,5 +1 Y578,6 +1 Y579,0 +1 Y579,1 +1 Y579,2
  +1 Y579,3 +1 Y579,4 +1 Y579,5 +1 Y579,6 +1 Y580,0 +1 Y580,1 +1 Y580,2 +1 Y580,3 +1 Y580,4 +1 Y580,5
  +1 Y580,6 +1 Y582,0 +1 Y582,1 +1 Y582,2 +1 Y582,3 +1 Y582,4 +1 Y582,5 +1 Y582,6 +1 Y583,0 +1 Y583,1
  +1 Y583,2 +1 Y583,3 +1 Y583,4 +1 Y583,5 +1 Y583,6 +1 Y584,0 +1 Y584,1 +1 Y584,2 +1 Y584,3 +1 Y584,4
  +1 Y584,5 +1 Y584,6 = +1
 c47: +1 Y355,0 +1 Y355,1 +1 Y355,2 +1 Y355,3 +1 Y355,4 +1 Y355,5 +1 Y355,6 +1 Y361,0 +1 Y361,1 +1 Y361,2
  +1 Y361,3 +1 Y361,4 +1 Y361,5 +1 Y361,6 +1 Y366,0 +1 Y366,1 +1 Y366,2 +1 Y366,3 +1 Y366,4 +1 Y366,5
  +1 Y366,6 +1 Y370,0 +1 Y370,1 +1 Y370,2 +1 Y370,3 +1 Y370,4 +1 Y370,5 +1 Y370,6 +1 Y373,0 +1 Y373,1
  +1 Y373,2 +1 Y373,3 +1 Y373,4 +1 Y373,5 +1 Y373,6 +1 Y375,0 +1 Y375,1 +1 Y375,2 +1 Y375,3 +1 Y375,4
  +1 Y375,5 +1 Y375,6 +1 Y376,0 +1 Y376,1 +1 Y376,2 +1 Y376,3 +1 Y376,4 +1 Y376,5 +1 Y376,6 +1 Y381,0
  +1 Y381,1 +1 Y381,2 +1 Y381,3 +1 Y381,4 +1 Y381,5 +1 Y381,6 +1 Y385,0 +1 Y385,1 +1 Y385,2 +1 Y385,3
  +1 Y385,4 +1 Y385,5 +1 Y385,6 +1 Y388,0 +1 Y388,1 +1 Y388,2 +1 Y388,3 +1 Y388,4 +1 Y388,5 +1 Y388,6
  +1 Y390,0 +1 Y390,1 +1 Y390,2 +1 Y390,3 +1 Y390,4 +1 Y390,5 +1 Y390,6 +1 Y391,0 +1 Y391,1 +1 Y391,2
  +1 Y391,3 +1 Y391,4 +1 Y391,5 +1 Y391,6 +1 Y395,0 +1 Y395,1 +1 Y395,2 +1 Y395,3 +1 Y395,4 +1 Y395,5
  +1 Y395,6 +1 Y398,0 +1 Y398,1 +1 Y398,2 +1 Y398,3 +1 Y398,4 +1 Y398,5 +1 Y398,6 +1 Y400,0 +1 Y400,1
  +1 Y400,2 +1 Y400,3 +1 Y400,4 +1 Y400,5 +1 Y400,6 +1 Y401,0 +1 Y401,1 +1 Y401,2 +1 Y401,3 +1 Y401,4
  +1 Y401,5 +1 Y401,6 +1 Y404,0 +1 Y404,1 +1 Y404,2 +1 Y404,3 +1 Y404,4 +1 Y404,5 +1 Y404,6 +1 Y406,0
  +1 Y406,1 +1 Y406,2 +1 Y406,3 +1 Y406,4 +1 Y406,5 +1 Y406,6 +1 Y407,0 +1 Y407,1 +1 Y407,2 +1 Y407,3
  +1 Y407,4 +1 Y407,5 +1 Y407,6 +1 Y409,0 +1 Y409,1 +1 Y409,2 +1 Y409,3 +1 Y409,4 +1 Y409,5 +1 Y409,6
  +1 Y410,0 +1 Y410,1 +1 Y410,2 +1 Y410,3 +1 Y410,4 +1 Y410,5 +1 Y410,6 +1 Y411,0 +1 Y411,1 +1 Y411,2
  +1 Y411,3 +1 Y411,4 +1 Y411,5 +1 Y411,6 +1 Y415,0 +1 Y415,1 +1 Y415,2 +1 Y415,3 +1 Y415,4 +1 Y415,5
  +1 Y415,6 +1 Y418,0 +1 Y418,1 +1 Y418,2 +1 Y418,3 +1 Y418,4 +1 Y418,5 +1 Y418,6 +1 Y420,0 +1 Y420,1
  +1 Y420,2 +1 Y420,3 +1 Y420,4 +1 Y420,5 +1 Y420,6 +1 Y421,0 +1 Y421,1 +1 Y421,2 +1 Y421,3 +1 Y421,4
  +1 Y421,5 +1 Y421,6 +1 Y424,0 +1 Y424,1 +1 Y424,2 +1 Y424,3 +1 Y424,4 +1 Y424,5 +1 Y424,6 +1 Y426,0
  +1 Y426,1 +1 Y426,2 +1 Y426,3 +1 Y426,4 +1 Y426,5 +1 Y426,6 +1 Y427,0 +1 Y427,1 +1 Y427,2 +1 Y427,3
  +1 Y427,4 +1 Y427,5 +1 Y427,6 +1 Y429,0 +1 Y429,1 +1 Y429,2 +1 Y429,3 +1 Y429,4 +1 Y429,5 +1 Y429,6
  +1 Y430,0 +1 Y430,1 +1 Y430,2 +1 Y430,3 +1 Y430,4 +1 Y430,5 +1 Y430,6 +1 Y431,0 +1 Y431,1 +1 Y431,2
  +1 Y431,3 +1 Y431,4 +1 Y431,5 +1 Y431,6 +1 Y434,0 +1 Y434,1 +1 Y434,2 +1 Y434,3 +1 Y434,4 +1 Y434,5
  +1 Y434,6 +1 Y436,0 +1 Y436,1 +1 Y436,2 +1 Y436,3 +1 Y436,4 +1 Y436,5 +1 Y436,6 +1 Y437,0 +1 Y437,1
  +1 Y437,2 +1 Y437,3 +1 Y437,4 +1 Y437,5 +1 Y437,6 +1 Y439,0 +1 Y439,1 +1 Y439,2 +1 Y439,3 +1 Y439,4
  +1 Y439,5 +1 Y439,6 +1 Y440,0 +1 Y440,1 +1 Y440,2 +1 Y440,3 +1 Y440,4 +1 Y440,5 +1 Y440,6 +1 Y441,0
  +1 Y441,1 +1 Y441,2 +1 Y441,3 +1 Y441,4 +1 Y441,5 +1 Y441,6 +1 Y443,0 +1 Y443,1 +1 Y443,2 +1 Y443,3
  +1 Y443,4 +1 Y443,5 +1 Y443,6 +1 Y444,0 +1 Y444,1 +1 Y444,2 +1 Y444,3 +1 Y444,4 +1 Y444,5 +1 Y444,6
  +1 Y445,0 +1 Y445,1 +1 Y445,2 +1 Y445,3 +1 Y445,4 +1 Y445,5 +1 Y445,6 +1 Y446,0 +1 Y446,1 +1 Y446,2
  +1 Y446,3 +1 Y446,4 +1 Y446,5 +1 Y446,6 +1 Y449,0 +1 Y449,1 +1 Y449,2 +1 Y449,3 +1 Y449,4 +1 Y449,5
  +1 Y449,6 +1 Y451,0 +1 Y451,1 +1 Y451,2 +1 Y451,3 +1 Y451,4 +1 Y451,5 +1 Y451,6 +1 Y452,0 +1 Y452,1
  +1 Y452,2 +1 Y452,3 +1 Y452,4 +1 Y452,5 +1 Y452,6 +1 Y454,0 +1 Y454,1 +1 Y454,2 +1 Y454,3 +1 Y454,4
  +1 Y454,5 +1 Y454,6 +1 Y455,0 +1 Y455,1 +1 Y455,2 +1 Y455,3 +1 Y455,4 +1 Y455,5 +1 Y455,6 +1 Y456,0
  +1 Y456,1 +1 Y456,2 +1 Y456,3 +1 Y456,4 +1 Y456,5 +1 Y456,6 +1 Y458,0 +1 Y458,1 +1 Y458,2 +1 Y458,3
  +1 Y458,4 +1 Y458,5 +1 Y458,6 +1 Y459,0 +1 Y459,1 +1 Y459,2 +1 Y459,3 +1 Y459,4 +1 Y459,5 +1 Y459,6
  +1 Y460,0 +1 Y460,1 +1 Y460,2 +1 Y460,3 +1 Y460,4 +1 Y460,5 +1 Y460,6 +1 Y461,0 +1 Y461,1 +1 Y461,2
  +1 Y461,3 +1 Y461,4 +1 Y461,5 +1 Y461,6 +1 Y463,0 +1 Y463,1 +1 Y463,2 +1 Y463,3 +1 Y463,4 +1 Y463,5
  +1 Y463,6 +1 Y464,0 +1 Y464,1 +1 Y464,2 +1 Y464,3 +1 Y464,4 +1 Y464,5 +1 Y464,6 +1 Y465,0 +1 Y465,1
  +1 Y465,2 +1 Y465,3 +1 Y465,4 +1 Y465,5 +1 Y465,6 +1 Y466,0 +1 Y466,1 +1 Y466,2 +1 Y466,3 +1 Y466,4
  +1 Y466,5 +1 Y466,6 +1 Y467,0 +1 Y467,1 +1 Y467,2 +1 Y467,3 +1 Y467,4 +1 Y467,5 +1 Y467,6 +1 Y469,0
  +1 Y469,1 +1 Y469,2 +1 Y469,3 +1 Y469,4 +1 Y469,5 +1 Y469,6 +1 Y470,0 +1 Y470,1 +1 Y470,2 +1 Y470,3
  +1 Y470,4 +1 Y470,5 +1 Y470,6 +1 Y471,0 +1 Y471,1 +1 Y471,2 +1 Y471,3 +1 Y471,4 +1 Y471,5 +1 Y471,6
  +1 Y472,0 +1 Y472,1 +1 Y472,2 +1 Y472,3 +1 Y472,4 +1 Y472,5 +1 Y472,6 +1 Y473,0 +1 Y473,1 +1 Y473,2
  +1 Y473,3 +1 Y473,4 +1 Y473,5 +1 Y473,6 +1 Y474,0 +1 Y474,1 +1 Y474,2 +1 Y474,3 +1 Y474,4 +1 Y474,5
  +1 Y474,6 +1 Y475,0 +1 Y475,1 +1 Y475,2 +1 Y475,3 +1 Y475,4 +1 Y475,5 +1 Y475,6 = +1
 c48: +1 Y845,0 +1 Y845,1 +1 Y845,2 +1 Y845,3 +1 Y845,4 +1 Y845,5 +1 Y845,6 +1 Y848,0 +1 Y848,1 +1 Y848,2
  +1 Y848,3 +1 Y848,4 +1 Y848,5 +1 Y848,6 +1 Y850,0 +1 Y850,1 +1 Y850,2 +1 Y850,3 +1 Y850,4 +1 Y850,5
  +1 Y850,6 +1 Y852,0 +1 Y852,1 +1 Y852,2 +1 Y852,3 +1 Y852,4 +1 Y852,5 +1 Y852,6 +1 Y853,0 +1 Y853,1
  +1 Y853,2 +1 Y853,3 +1 Y853,4 +1 Y853,5 +1 Y853,6 +1 Y855,0 +1 Y855,1 +1 Y855,2 +1 Y855,3 +1 Y855,4
  +1 Y855,5 +1 Y855,6 +1 Y856,0 +1 Y856,1 +1 Y856,2 +1 Y856,3 +1 Y856,4 +1 Y856,5 +1 Y856,6 +1 Y857,0
  +1 Y857,1 +1 Y857,2 +1 Y857,3 +1 Y857,4 +1 Y857,5 +1 Y857,6 = +1
 c49: +1 Y846,0 +1 Y846,1 +1 Y846,2 +1 Y846,3 +1 Y846,4 +1 Y846,5 +1 Y846,6 +1 Y849,0 +1 Y849,1 +1 Y849,2
  +1 Y849,3 +1 Y849,4 +1 Y849,5 +1 Y849,6 +1 Y851,0 +1 Y851,1 +1 Y851,2 +1 Y851,3 +1 Y851,4 +1 Y851,5
  +1 Y851,6 +1 Y852,0 +1 Y852,1 +1 Y852,2 +1 Y852,3 +1 Y852,4 +1 Y852,5 +1 Y852,6 +1 Y854,0 +1 Y854,1
  +1 Y854,2 +1 Y854,3 +1 Y854,4 +1 Y854,5 +1 Y854,6 +1 Y855,0 +1 Y855,1 +1 Y855,2 +1 Y855,3 +1 Y855,4
  +1 Y855,5 +1 Y855,6 +1 Y856,0 +1 Y856,1 +1 Y856,2 +1 Y856,3 +1 Y856,4 +1 Y856,5 +1 Y856,6 +1 Y857,0
  +1 Y857,1 +1 Y857,2 +1 Y857,3 +1 Y857,4 +1 Y857,5 +1 Y857,6 = +1
 c50: +1 Y36,0 +1 Y36,1 +1 Y36,2 +1 Y36,3 +1 Y36,4 +1 Y36,5 +1 Y36,6 +1 Y41,0 +1 Y41,1 +1 Y41,2 +1 Y41,3
  +1 Y41,4 +1 Y41,5 +1 Y41,6 +1 Y45,0 +1 Y45,1 +1 Y45,2 +1 Y45,3 +1 Y45,4 +1 Y45,5 +1 Y45,6 +1 Y48,0 +1 Y48,1
  +1 Y48,2 +1 Y48,3 +1 Y48,4 +1 Y48,5 +1 Y48,6 +1 Y50,0 +1 Y50,1 +1 Y50,2 +1 Y50,3 +1 Y50,4 +1 Y50,5 +1 Y50,6
  +1 Y51,0 +1 Y51,1 +1 Y51,2 +1 Y51,3 +1 Y51,4 +1 Y51,5 +1 Y51,6 +1 Y55,0 +1 Y55,1 +1 Y55,2 +1 Y55,3 +1 Y55,4
  +1 Y55,5 +1 Y55,6 +1 Y58,0 +1 Y58,1 +1 Y58,2 +1 Y58,3 +1 Y58,4 +1 Y58,5 +1 Y58,6 +1 Y60,0 +1 Y60,1 +1 Y60,2
  +1 Y60,3 +1 Y60,4 +1 Y60,5 +1 Y60,6 +1 Y61,0 +1 Y61,1 +1 Y61,2 +1 Y61,3 +1 Y61,4 +1 Y61,5 +1 Y61,6 +1 Y64,0
  +1 Y64,1 +1 Y64,2 +1 Y64,3 +1 Y64,4 +1 Y64,5 +1 Y64,6 +1 Y66,0 +1 Y66,1 +1 Y66,2 +1 Y66,3 +1 Y66,4 +1 Y66,5
  +1 Y66,6 +1 Y67,0 +1 Y67,1 +1 Y67,2 +1 Y67,3 +1 Y67,4 +1 Y67,5 +1 Y67,6 +1 Y69,0 +1 Y69,1 +1 Y69,2 +1 Y69,3
  +1 Y69,4 +1 Y69,5 +1 Y69,6 +1 Y70,0 +1 Y70,1 +1 Y70,2 +1 Y70,3 +1 Y70,4 +1 Y70,5 +1 Y70,6 +1 Y71,0 +1 Y71,1
  +1 Y71,2 +1 Y71,3 +1 Y71,4 +1 Y71,5 +1 Y71,6 +1 Y74,0 +1 Y74,1 +1 Y74,2 +1 Y74,3 +1 Y74,4 +1 Y74,5 +1 Y74,6
  +1 Y76,0 +1 Y76,1 +1 Y76,2 +1 Y76,3 +1 Y76,4 +1 Y76,5 +1 Y76,6 +1 Y77,0 +1 Y77,1 +1 Y77,2 +1 Y77,3 +1 Y77,4
  +1 Y77,5 +1 Y77,6 +1 Y79,0 +1 Y79,1 +1 Y79,2 +1 Y79,3 +1 Y79,4 +1 Y79,5 +1 Y79,6 +1 Y80,0 +1 Y80,1 +1 Y80,2
  +1 Y80,3 +1 Y80,4 +1 Y80,5 +1 Y80,6 +1 Y81,0 +1 Y81,1 +1 Y81,2 +1 Y81,3 +1 Y81,4 +1 Y81,5 +1 Y81,6 +1 Y83,0
  +1 Y83,1 +1 Y83,2 +1 Y83,3 +1 Y83,4 +1 Y83,5 +1 Y83,6 +1 Y84,0 +1 Y84,1 +1 Y84,2 +1 Y84,3 +1 Y84,4 +1 Y84,5
  +1 Y84,6 +1 Y85,0 +1 Y85,1 +1 Y85,2 +1 Y85,3 +1 Y85,4 +1 Y85,5 +1 Y85,6 +1 Y86,0 +1 Y86,1 +1 Y86,2 +1 Y86,3
  +1 Y86,4 +1 Y86,5 +1 Y86,6 +1 Y88,0 +1 Y88,1 +1 Y88,2 +1 Y88,3 +1 Y88,4 +1 Y88,5 +1 Y88,6 +1 Y89,0 +1 Y89,1
  +1 Y89,2 +1 Y89,3 +1 Y89,4 +1 Y89,5 +1 Y89,6 +1 Y90,0 +1 Y90,1 +1 Y90,2 +1 Y90,3 +1 Y90,4 +1 Y90,5 +1 Y90,6
  +1 Y91,0 +1 Y91,1 +1 Y91,2 +1 Y91,3 +1 Y91,4 +1 Y91,5 +1 Y91,6 +1 Y92,0 +1 Y92,1 +1 Y92,2 +1 Y92,3 +1 Y92,4
  +1 Y92,5 +1 Y92,6 +1 Y93,0 +1 Y93,1 +1 Y93,2 +1 Y93,3 +1 Y93,4 +1 Y93,5 +1 Y93,6 = +1
 c51: +1 Y557,0 +1 Y557,1 +1 Y557,2 +1 Y557,3 +1 Y557,4 +1 Y557,5 +1 Y557,6 +1 Y561,0 +1 Y561,1 +1 Y561,2
  +1 Y561,3 +1 Y561,4 +1 Y561,5 +1 Y561,6 +1 Y564,0 +1 Y564,1 +1 Y564,2 +1 Y564,3 +1 Y564,4 +1 Y564,5
  +1 Y564,6 +1 Y566,0 +1 Y566,1 +1 Y566,2 +1 Y566,3 +1 Y566,4 +1 Y566,5 +1 Y566,6 +1 Y568,0 +1 Y568,1
  +1 Y568,2 +1 Y568,3 +1 Y568,4 +1 Y568,5 +1 Y568,6 +1 Y570,0 +1 Y570,1 +1 Y570,2 +1 Y570,3 +1 Y570,4
  +1 Y570,5 +1 Y570,6 +1 Y572,0 +1 Y572,1 +1 Y572,2 +1 Y572,3 +1 Y572,4 +1 Y572,5 +1 Y572,6 +1 Y574,0
  +1 Y574,1 +1 Y574,2 +1 Y574,3 +1 Y574,4 +1 Y574,5 +1 Y574,6 +1 Y575,0 +1 Y575,1 +1 Y575,2 +1 Y575,3
  +1 Y575,4 +1 Y575,5 +1 Y575,6 +1 Y577,0 +1 Y577,1 +1 Y577,2 +1 Y577,3 +1 Y577,4 +1 Y577,5 +1 Y577,6
  +1 Y578,0 +1 Y578,1 +1 Y578,2 +1 Y578,3 +1 Y578,4 +1 Y578,5 +1 Y578,6 +1 Y579,0 +1 Y579,1 +1 Y579,2
  +1 Y579,3 +1 Y579,4 +1 Y579,5 +1 Y579,6 +1 Y581,0 +1 Y581,1 +1 Y581,2 +1 Y581,3 +1 Y581,4 +1 Y581,5
  +1 Y581,6 +1 Y582,0 +1 Y582,1 +1 Y582,2 +1 Y582,3 +1 Y582,4 +1 Y582,5 +1 Y582,6 +1 Y583,0 +1 Y583,1
  +1 Y583,2 +1 Y583,3 +1 Y583,4 +1 Y583,5 +1 Y583,6 +1 Y584,0 +1 Y584,1 +1 Y584,2 +1 Y584,3 +1 Y584,4
  +1 Y584,5 +1 Y584,6 = +1
 c52: +1 Y100,0 +1 Y100,1 +1 Y100,2 +1 Y100,3 +1 Y100,4 +1 Y100,5 +1 Y100,6 +1 Y107,0 +1 Y107,1 +1 Y107,2
  +1 Y107,3 +1 Y107,4 +1 Y107,5 +1 Y107,6 +1 Y113,0 +1 Y113,1 +1 Y113,2 +1 Y113,3 +1 Y113,4 +1 Y113,5
  +1 Y113,6 +1 Y118,0 +1 Y118,1 +1 Y118,2 +1 Y118,3 +1 Y118,4 +1 Y118,5 +1 Y118,6 +1 Y122,0 +1 Y122,1
  +1 Y122,2 +1 Y122,3 +1 Y122,4 +1 Y122,5 +1 Y122,6 +1 Y125,0 +1 Y125,1 +1 Y125,2 +1 Y125,3 +1 Y125,4
  +1 Y125,5 +1 Y125,6 +1 Y127,0 +1 Y127,1 +1 Y127,2 +1 Y127,3 +1 Y127,4 +1 Y127,5 +1 Y127,6 +1 Y129,0
  +1 Y129,1 +1 Y129,2 +1 Y129,3 +1 Y129,4 +1 Y129,5 +1 Y129,6 +1 Y134,0 +1 Y134,1 +1 Y134,2 +1 Y134,3
  +1 Y134,4 +1 Y134,5 +1 Y134,6 +1 Y139,0 +1 Y139,1 +1 Y139,2 +1 Y139,3 +1 Y139,4 +1 Y139,5 +1 Y139,6
  +1 Y143,0 +1 Y143,1 +1 Y143,2 +1 Y143,3 +1 Y143,4 +1 Y143,5 +1 Y143,6 +1 Y146,0 +1 Y146,1 +1 Y146,2
  +1 Y146,3 +1 Y146,4 +1 Y146,5 +1 Y146,6 +1 Y148,0 +1 Y148,1 +1 Y148,2 +1 Y148,3 +1 Y148,4 +1 Y148,5
  +1 Y148,6 +1 Y150,0 +1 Y150,1 +1 Y150,2 +1 Y150,3 +1 Y150,4 +1 Y150,5 +1 Y150,6 +1 Y154,0 +1 Y154,1
  +1 Y154,2 +1 Y154,3 +1 Y154,4 +1 Y154,5 +1 Y154,6 +1 Y158,0 +1 Y158,1 +1 Y158,2 +1 Y158,3 +1 Y158,4
  +1 Y158,5 +1 Y158,6 +1 Y161,0 +1 Y161,1 +1 Y161,2 +1 Y161,3 +1 Y161,4 +1 Y161,5 +1 Y161,6 +1 Y163,0
  +1 Y163,1 +1 Y163,2 +1 Y163,3 +1 Y163,4 +1 Y163,5 +1 Y163,6 +1 Y165,0 +1 Y165,1 +1 Y165,2 +1 Y165,3
  +1 Y165,4 +1 Y165,5 +1 Y165,6 +1 Y168,0 +1 Y168,1 +1 Y168,2 +1 Y168,3 +1 Y168,4 +1 Y168,5 +1 Y168,6
  +1 Y171,0 +1 Y171,1 +1 Y171,2 +1 Y171,3 +1 Y171,4 +1 Y171,5 +1 Y171,6 +1 Y173,0 +1 Y173,1 +1 Y173,2
  +1 Y173,3 +1 Y173,4 +1 Y173,5 +1 Y173,6 +1 Y175,0 +1 Y175,1 +1 Y175,2 +1 Y175,3 +1 Y175,4 +1 Y175,5
  +1 Y175,6 +1 Y177,0 +1 Y177,1 +1 Y177,2 +1 Y177,3 +1 Y177,4 +1 Y177,5 +1 Y177,6 +1 Y179,0 +1 Y179,1
  +1 Y179,2 +1 Y179,3 +1 Y179,4 +1 Y179,5 +1 Y179,6 +1 Y181,0 +1 Y181,1 +1 Y181,2 +1 Y181,3 +1 Y181,4
  +1 Y181,5 +1 Y181,6 +1 Y182,0 +1 Y182,1 +1 Y182,2 +1 Y182,3 +1 Y182,4 +1 Y182,5 +1 Y182,6 +1 Y184,0
  +1 Y184,1 +1 Y184,2 +1 Y184,3 +1 Y184,4 +1 Y184,5 +1 Y184,6 +1 Y185,0 +1 Y185,1 +1 Y185,2 +1 Y185,3
  +1 Y185,4 +1 Y185,5 +1 Y185,6 +1 Y189,0 +1 Y189,1 +1 Y189,2 +1 Y189,3 +1 Y189,4 +1 Y189,5 +1 Y189,6
  +1 Y193,0 +1 Y193,1 +1 Y193,2 +1 Y193,3 +1 Y193,4 +1 Y193,5 +1 Y193,6 +1 Y196,0 +1 Y196,1 +1 Y196,2
  +1 Y196,3 +1 Y196,4 +1 Y196,5 +1 Y196,6 +1 Y198,0 +1 Y198,1 +1 Y198,2 +1 Y198,3 +1 Y198,4 +1 Y198,5
  +1 Y198,6 +1 Y200,0 +1 Y200,1 +1 Y200,2 +1 Y200,3 +1 Y200,4 +1 Y200,5 +1 Y200,6 +1 Y203,0 +1 Y203,1
  +1 Y203,2 +1 Y203,3 +1 Y203,4 +1 Y203,5 +1 Y203,6 +1 Y206,0 +1 Y206,1 +1 Y206,2 +1 Y206,3 +1 Y206,4
  +1 Y206,5 +1 Y206,6 +1 Y208,0 +1 Y208,1 +1 Y208,2 +1 Y208,3 +1 Y208,4 +1 Y208,5 +1 Y208,6 +1 Y210,0
  +1 Y210,1 +1 Y210,2 +1 Y210,3 +1 Y210,4 +1 Y210,5 +1 Y210,6 +1 Y212,0 +1 Y212,1 +1 Y212,2 +1 Y212,3
  +1 Y212,4 +1 Y212,5 +1 Y212,6 +1 Y214,0 +1 Y214,1 +1 Y214,2 +1 Y214,3 +1 Y214,4 +1 Y214,5 +1 Y214,6
  +1 Y216,0 +1 Y216,1 +1 Y216,2 +1 Y216,3 +1 Y216,4 +1 Y216,5 +1 Y216,6 +1 Y217,0 +1 Y217,1 +1 Y217,2
  +1 Y217,3 +1 Y217,4 +1 Y217,5 +1 Y217,6 +1 Y219,0 +1 Y219,1 +1 Y219,2 +1 Y219,3 +1 Y219,4 +1 Y219,5
  +1 Y219,6 +1 Y220,0 +1 Y220,1 +1 Y220,2 +1 Y220,3 +1 Y220,4 +1 Y220,5 +1 Y220,6 +1 Y223,0 +1 Y223,1
  +1 Y223,2 +1 Y223,3 +1 Y223,4 +1 Y223,5 +1 Y223,6 +1 Y226,0 +1 Y226,1 +1 Y226,2 +1 Y226,3 +1 Y226,4
  +1 Y226,5 +1 Y226,6 +1 Y228,0 +1 Y228,1 +1 Y228,2 +1 Y228,3 +1 Y228,4 +1 Y228,5 +1 Y228,6 +1 Y230,0
  +1 Y230,1 +1 Y230,2 +1 Y230,3 +1 Y230,4 +1 Y230,5 +1 Y230,6 +1 Y232,0 +1 Y232,1 +1 Y232,2 +1 Y232,3
  +1 Y232,4 +1 Y232,5 +1 Y232,6 +1 Y234,0 +1 Y234,1 +1 Y234,2 +1 Y234,3 +1 Y234,4 +1 Y234,5 +1 Y234,6
  +1 Y236,0 +1 Y236,1 +1 Y236,2 +1 Y236,3 +1 Y236,4 +1 Y236,5 +1 Y236,6 +1 Y237,0 +1 Y237,1 +1 Y237,2
  +1 Y237,3 +1 Y237,4 +1 Y237,5 +1 Y237,6 +1 Y239,0 +1 Y239,1 +1 Y239,2 +1 Y239,3 +1 Y239,4 +1 Y239,5
  +1 Y239,6 +1 Y240,0 +1 Y240,1 +1 Y240,2 +1 Y240,3 +1 Y240,4 +1 Y240,5 +1 Y240,6 +1 Y242,0 +1 Y242,1
  +1 Y242,2 +1 Y242,3 +1 Y242,4 +1 Y242,5 +1 Y242,6 +1 Y244,0 +1 Y244,1 +1 Y244,2 +1 Y244,3 +1 Y244,4
  +1 Y244,5 +1 Y244,6 +1 Y246,0 +1 Y246,1 +1 Y246,2 +1 Y246,3 +1 Y246,4 +1 Y246,5 +1 Y246,6 +1 Y247,0
  +1 Y247,1 +1 Y247,2 +1 Y247,3 +1 Y247,4 +1 Y247,5 +1 Y247,6 +1 Y249,0 +1 Y249,1 +1 Y249,2 +1 Y249,3
  +1 Y249,4 +1 Y249,5 +1 Y249,6 +1 Y250,0 +1 Y250,1 +1 Y250,2 +1 Y250,3 +1 Y250,4 +1 Y250,5 +1 Y250,6
  +1 Y251,0 +1 Y251,1 +1 Y251,2 +1 Y251,3 +1 Y251,4 +1 Y251,5 +1 Y251,6 +1 Y253,0 +1 Y253,1 +1 Y253,2
  +1 Y253,3 +1 Y253,4 +1 Y253,5 +1 Y253,6 +1 Y254,0 +1 Y254,1 +1 Y254,2 +1 Y254,3 +1 Y254,4 +1 Y254,5
  +1 Y254,6 +1 Y255,0 +1 Y255,1 +1 Y255,2 +1 Y255,3 +1 Y255,4 +1 Y255,5 +1 Y255,6 +1 Y258,0 +1 Y258,1
  +1 Y258,2 +1 Y258,3 +1 Y258,4 +1 Y258,5 +1 Y258,6 +1 Y261,0 +1 Y261,1 +1 Y261,2 +1 Y261,3 +1 Y261,4
  +1 Y261,5 +1 Y261,6 +1 Y263,0 +1 Y263,1 +1 Y263,2 +1 Y263,3 +1 Y263,4 +1 Y263,5 +1 Y263,6 +1 Y265,0
  +1 Y265,1 +1 Y265,2 +1 Y265,3 +1 Y265,4 +1 Y265,5 +1 Y265,6 +1 Y267,0 +1 Y267,1 +1 Y267,2 +1 Y267,3
  +1 Y267,4 +1 Y267,5 +1 Y267,6 +1 Y269,0 +1 Y269,1 +1 Y269,2 +1 Y269,3 +1 Y269,4 +1 Y269,5 +1 Y269,6
  +1 Y271,0 +1 Y271,1 +1 Y271,2 +1 Y271,3 +1 Y271,4 +1 Y271,5 +1 Y271,6 +1 Y272,0 +1 Y272,1 +1 Y272,2
  +1 Y272,3 +1 Y272,4 +1 Y272,5 +1 Y272,6 +1 Y274,0 +1 Y274,1 +1 Y274,2 +1 Y274,3 +1 Y274,4 +1 Y274,5
  +1 Y274,6 +1 Y275,0 +1 Y275,1 +1 Y275,2 +1 Y275,3 +1 Y275,4 +1 Y275,5 +1 Y275,6 +1 Y277,0 +1 Y277,1
  +1 Y277,2 +1 Y277,3 +1 Y277,4 +1 Y277,5 +1 Y277,6 +1 Y279,0 +1 Y279,1 +1 Y279,2 +1 Y279,3 +1 Y279,4
  +1 Y279,5 +1 Y279,6 +1 Y281,0 +1 Y281,1 +1 Y281,2 +1 Y281,3 +1 Y281,4 +1 Y281,5 +1 Y281,6 +1 Y282,0
  +1 Y282,1 +1 Y282,2 +1 Y282,3 +1 Y282,4 +1 Y282,5 +1 Y282,6 +1 Y284,0 +1 Y284,1 +1 Y284,2 +1 Y284,3
  +1 Y284,4 +1 Y284,5 +1 Y284,6 +1 Y285,0 +1 Y285,1 +1 Y285,2 +1 Y285,3 +1 Y285,4 +1 Y285,5 +1 Y285,6
  +1 Y286,0 +1 Y286,1 +1 Y286,2 +1 Y286,3 +1 Y286,4 +1 Y286,5 +1 Y286,6 +1 Y288,0 +1 Y288,1 +1 Y288,2
  +1 Y288,3 +1 Y288,4 +1 Y288,5 +1 Y288,6 +1 Y289,0 +1 Y289,1 +1 Y289,2 +1 Y289,3 +1 Y289,4 +1 Y289,5
  +1 Y289,6 +1 Y290,0 +1 Y290,1 +1 Y290,2 +1 Y290,3 +1 Y290,4 +1 Y290,5 +1 Y290,6 +1 Y292,0 +1 Y292,1
  +1 Y292,2 +1 Y292,3 +1 Y292,4 +1 Y292,5 +1 Y292,6 +1 Y294,0 +1 Y294,1 +1 Y294,2 +1 Y294,3 +1 Y294,4
  +1 Y294,5 +1 Y294,6 +1 Y296,0 +1 Y296,1 +1 Y296,2 +1 Y296,3 +1 Y296,4 +1 Y296,5 +1 Y296,6 +1 Y297,0
  +1 Y297,1 +1 Y297,2 +1 Y297,3 +1 Y297,4 +1 Y297,5 +1 Y297,6 +1 Y299,0 +1 Y299,1 +1 Y299,2 +1 Y299,3
  +1 Y299,4 +1 Y299,5 +1 Y299,6 +1 Y300,0 +1 Y300,1 +1 Y300,2 +1 Y300,3 +1 Y300,4 +1 Y300,5 +1 Y300,6
  +1 Y301,0 +1 Y301,1 +1 Y301,2 +1 Y301,3 +1 Y301,4 +1 Y301,5 +1 Y301,6 +1 Y303,0 +1 Y303,1 +1 Y303,2
  +1 Y303,3 +1 Y303,4 +1 Y303,5 +1 Y303,6 +1 Y304,0 +1 Y304,1 +1 Y304,2 +1 Y304,3 +1 Y304,4 +1 Y304,5
  +1 Y304,6 +1 Y305,0 +1 Y305,1 +1 Y305,2 +1 Y305,3 +1 Y305,4 +1 Y305,5 +1 Y305,6 +1 Y306,0 +1 Y306,1
  +1 Y306,2 +1 Y306,3 +1 Y306,4 +1 Y306,5 +1 Y306,6 +1 Y308,0 +1 Y308,1 +1 Y308,2 +1 Y308,3 +1 Y308,4
  +1 Y308,5 +1 Y308,6 +1 Y309,0 +1 Y309,1 +1 Y309,2 +1 Y309,3 +1 Y309,4 +1 Y309,5 +1 Y309,6 +1 Y310,0
  +1 Y310,1 +1 Y310,2 +1 Y310,3 +1 Y310,4 +1 Y310,5 +1 Y310,6 +1 Y311,0 +1 Y311,1 +1 Y311,2 +1 Y311,3
  +1 Y311,4 +1 Y311,5 +1 Y311,6 +1 Y313,0 +1 Y313,1 +1 Y313,2 +1 Y313,3 +1 Y313,4 +1 Y313,5 +1 Y313,6
  +1 Y315,0 +1 Y315,1 +1 Y315,2 +1 Y315,3 +1 Y315,4 +1 Y315,5 +1 Y315,6 +1 Y317,0 +1 Y317,1 +1 Y317,2
  +1 Y317,3 +1 Y317,4 +1 Y317,5 +1 Y317,6 +1 Y318,0 +1 Y318,1 +1 Y318,2 +1 Y318,3 +1 Y318,4 +1 Y318,5
  +1 Y318,6 +1 Y320,0 +1 Y320,1 +1 Y320,2 +1 Y320,3 +1 Y320,4 +1 Y320,5 +1 Y320,6 +1 Y321,0 +1 Y321,1
  +1 Y321,2 +1 Y321,3 +1 Y321,4 +1 Y321,5 +1 Y321,6 +1 Y322,0 +1 Y322,1 +1 Y322,2 +1 Y322,3 +1 Y322,4
  +1 Y322,5 +1 Y322,6 +1 Y324,0 +1 Y324,1 +1 Y324,2 +1 Y324,3 +1 Y324,4 +1 Y324,5 +1 Y324,6 +1 Y325,0
  +1 Y325,1 +1 Y325,2 +1 Y325,3 +1 Y325,4 +1 Y325,5 +1 Y325,6 +1 Y326,0 +1 Y326,1 +1 Y326,2 +1 Y326,3
  +1 Y326,4 +1 Y326,5 +1 Y326,6 +1 Y327,0 +1 Y327,1 +1 Y327,2 +1 Y327,3 +1 Y327,4 +1 Y327,5 +1 Y327,6
  +1 Y329,0 +1 Y329,1 +1 Y329,2 +1 Y329,3 +1 Y329,4 +1 Y329,5 +1 Y329,6 +1 Y330,0 +1 Y330,1 +1 Y330,2
  +1 Y330,3 +1 Y330,4 +1 Y330,5 +1 Y330,6 +1 Y331,0 +1 Y331,1 +1 Y331,2 +1 Y331,3 +1 Y331,4 +1 Y331,5
  +1 Y331,6 +1 Y332,0 +1 Y332,1 +1 Y332,2 +1 Y332,3 +1 Y332,4 +1 Y332,5 +1 Y332,6 +1 Y333,0 +1 Y333,1
  +1 Y333,2 +1 Y333,3 +1 Y333,4 +1 Y333,5 +1 Y333,6 +1 Y335,0 +1 Y335,1 +1 Y335,2 +1 Y335,3 +1 Y335,4
  +1 Y335,5 +1 Y335,6 +1 Y336,0 +1 Y336,1 +1 Y336,2 +1 Y336,3 +1 Y336,4 +1 Y336,5 +1 Y336,6 +1 Y337,0
  +1 Y337,1 +1 Y337,2 +1 Y337,3 +1 Y337,4 +1 Y337,5 +1 Y337,6 +1 Y338,0 +1 Y338,1 +1 Y338,2 +1 Y338,3
  +1 Y338,4 +1 Y338,5 +1 Y338,6 +1 Y339,0 +1 Y339,1 +1 Y339,2 +1 Y339,3 +1 Y339,4 +1 Y339,5 +1 Y339,6
  +1 Y340,0 +1 Y340,1 +1 Y340,2 +1 Y340,3 +1 Y340,4 +1 Y340,5 +1 Y340,6 +1 Y342,0 +1 Y342,1 +1 Y342,2
  +1 Y342,3 +1 Y342,4 +1 Y342,5 +1 Y342,6 +1 Y343,0 +1 Y343,1 +1 Y343,2 +1 Y343,3 +1 Y343,4 +1 Y343,5
  +1 Y343,6 +1 Y344,0 +1 Y344,1 +1 Y344,2 +1 Y344,3 +1 Y344,4 +1 Y344,5 +1 Y344,6 +1 Y345,0 +1 Y345,1
  +1 Y345,2 +1 Y345,3 +1 Y345,4 +1 Y345,5 +1 Y345,6 +1 Y346,0 +1 Y346,1 +1 Y346,2 +1 Y346,3 +1 Y346,4
  +1 Y346,5 +1 Y346,6 +1 Y347,0 +1 Y347,1 +1 Y347,2 +1 Y347,3 +1 Y347,4 +1 Y347,5 +1 Y347,6 +1 Y348,0
  +1 Y348,1 +1 Y348,2 +1 Y348,3 +1 Y348,4 +1 Y348,5 +1 Y348,6 = +1
 c53: +1 Y101,0 +1 Y101,1 +1 Y101,2 +1 Y101,3 +1 Y101,4 +1 Y101,5 +1 Y101,6 +1 Y108,0 +1 Y108,1 +1 Y108,2
  +1 Y108,3 +1 Y108,4 +1 Y108,5 +1 Y108,6 +1 Y114,0 +1 Y114,1 +1 Y114,2 +1 Y114,3 +1 Y114,4 +1 Y114,5
  +1 Y114,6 +1 Y119,0 +1 Y119,1 +1 Y119,2 +1 Y119,3 +1 Y119,4 +1 Y119,5 +1 Y119,6 +1 Y123,0 +1 Y123,1
  +1 Y123,2 +1 Y123,3 +1 Y123,4 +1 Y123,5 +1 Y123,6 +1 Y126,0 +1 Y126,1 +1 Y126,2 +1 Y126,3 +1 Y126,4
  +1 Y126,5 +1 Y126,6 +1 Y128,0 +1 Y128,1 +1 Y128,2 +1 Y128,3 +1 Y128,4 +1 Y128,5 +1 Y128,6 +1 Y129,0
  +1 Y129,1 +1 Y129,2 +1 Y129,3 +1 Y129,4 +1 Y129,5 +1 Y129,6 +1 Y135,0 +1 Y135,1 +1 Y135,2 +1 Y135,3
  +1 Y135,4 +1 Y135,5 +1 Y135,6 +1 Y140,0 +1 Y140,1 +1 Y140,2 +1 Y140,3 +1 Y140,4 +1 Y140,5 +1 Y140,6
  +1 Y144,0 +1 Y144,1 +1 Y144,2 +1 Y144,3 +1 Y144,4 +1 Y144,5 +1 Y144,6 +1 Y147,0 +1 Y147,1 +1 Y147,2
  +1 Y147,3 +1 Y147,4 +1 Y147,5 +1 Y147,6 +1 Y149,0 +1 Y149,1 +1 Y149,2 +1 Y149,3 +1 Y149,4 +1 Y149,5
  +1 Y149,6 +1 Y150,0 +1 Y150,1 +1 Y150,2 +1 Y150,3 +1 Y150,4 +1 Y150,5 +1 Y150,6 +1 Y155,0 +1 Y155,1
  +1 Y155,2 +1 Y155,3 +1 Y155,4 +1 Y155,5 +1 Y155,6 +1 Y159,0 +1 Y159,1 +1 Y159,2 +1 Y159,3 +1 Y159,4
  +1 Y159,5 +1 Y159,6 +1 Y162,0 +1 Y162,1 +1 Y162,2 +1 Y162,3 +1 Y162,4 +1 Y162,5 +1 Y162,6 +1 Y164,0
  +1 Y164,1 +1 Y164,2 +1 Y164,3 +1 Y164,4 +1 Y164,5 +1 Y164,6 +1 Y165,0 +1 Y165,1 +1 Y165,2 +1 Y165,3
  +1 Y165,4 +1 Y165,5 +1 Y165,6 +1 Y169,0 +1 Y169,1 +1 Y169,2 +1 Y169,3 +1 Y169,4 +1 Y169,5 +1 Y169,6
  +1 Y172,0 +1 Y172,1 +1 Y172,2 +1 Y172,3 +1 Y172,4 +1 Y172,5 +1 Y172,6 +1 Y174,0 +1 Y174,1 +1 Y174,2
  +1 Y174,3 +1 Y174,4 +1 Y174,5 +1 Y174,6 +1 Y175,0 +1 Y175,1 +1 Y175,2 +1 Y175,3 +1 Y175,4 +1 Y175,5
  +1 Y175,6 +1 Y178,0 +1 Y178,1 +1 Y178,2 +1 Y178,3 +1 Y178,4 +1 Y178,5 +1 Y178,6 +1 Y180,0 +1 Y180,1
  +1 Y180,2 +1 Y180,3 +1 Y180,4 +1 Y180,5 +1 Y180,6 +1 Y181,0 +1 Y181,1 +1 Y181,2 +1 Y181,3 +1 Y181,4
  +1 Y181,5 +1 Y181,6 +1 Y183,0 +1 Y183,1 +1 Y183,2 +1 Y183,3 +1 Y183,4 +1 Y183,5 +1 Y183,6 +1 Y184,0
  +1 Y184,1 +1 Y184,2 +1 Y184,3 +1 Y184,4 +1 Y184,5 +1 Y184,6 +1 Y185,0 +1 Y185,1 +1 Y185,2 +1 Y185,3
  +1 Y185,4 +1 Y185,5 +1 Y185,6 +1 Y190,0 +1 Y190,1 +1 Y190,2 +1 Y190,3 +1 Y190,4 +1 Y190,5 +1 Y190,6
  +1 Y194,0 +1 Y194,1 +1 Y194,2 +1 Y194,3 +1 Y194,4 +1 Y194,5 +1 Y194,6 +1 Y197,0 +1 Y197,1 +1 Y197,2
  +1 Y197,3 +1 Y197,4 +1 Y197,5 +1 Y197,6 +1 Y199,0 +1 Y199,1 +1 Y199,2 +1 Y199,3 +1 Y199,4 +1 Y199,5
  +1 Y199,6 +1 Y200,0 +1 Y200,1 +1 Y200,2 +1 Y200,3 +1 Y200,4 +1 Y200,5 +1 Y200,6 +1 Y204,0 +1 Y204,1
  +1 Y204,2 +1 Y204,3 +1 Y204,4 +1 Y204,5 +1 Y204,6 +1 Y207,0 +1 Y207,1 +1 Y207,2 +1 Y207,3 +1 Y207,4
  +1 Y207,5 +1 Y207,6 +1 Y209,0 +1 Y209,1 +1 Y209,2 +1 Y209,3 +1 Y209,4 +1 Y209,5 +1 Y209,6 +1 Y210,0
  +1 Y210,1 +1 Y210,2 +1 Y210,3 +1 Y210,4 +1 Y210,5 +1 Y210,6 +1 Y213,0 +1 Y213,1 +1 Y213,2 +1 Y213,3
  +1 Y213,4 +1 Y213,5 +1 Y213,6 +1 Y215,0 +1 Y215,1 +1 Y215,2 +1 Y215,3 +1 Y215,4 +1 Y215,5 +1 Y215,6
  +1 Y216,0 +1 Y216,1 +1 Y216,2 +1 Y216,3 +1 Y216,4 +1 Y216,5 +1 Y216,6 +1 Y218,0 +1 Y218,1 +1 Y218,2
  +1 Y218,3 +1 Y218,4 +1 Y218,5 +1 Y218,6 +1 Y219,0 +1 Y219,1 +1 Y219,2 +1 Y219,3 +1 Y219,4 +1 Y219,5
  +1 Y219,6 +1 Y220,0 +1 Y220,1 +1 Y220,2 +1 Y220,3 +1 Y220,4 +1 Y220,5 +1 Y220,6 +1 Y224,0 +1 Y224,1
  +1 Y224,2 +1 Y224,3 +1 Y224,4 +1 Y224,5 +1 Y224,6 +1 Y227,0 +1 Y227,1 +1 Y227,2 +1 Y227,3 +1 Y227,4
  +1 Y227,5 +1 Y227,6 +1 Y229,0 +1 Y229,1 +1 Y229,2 +1 Y229,3 +1 Y229,4 +1 Y229,5 +1 Y229,6 +1 Y230,0
  +1 Y230,1 +1 Y230,2 +1 Y230,3 +1 Y230,4 +1 Y230,5 +1 Y230,6 +1 Y233,0 +1 Y233,1 +1 Y233,2 +1 Y233,3
  +1 Y233,4 +1 Y233,5 +1 Y233,6 +1 Y235,0 +1 Y235,1 +1 Y235,2 +1 Y235,3 +1 Y235,4 +1 Y235,5 +1 Y235,6
  +1 Y236,0 +1 Y236,1 +1 Y236,2 +1 Y236,3 +1 Y236,4 +1 Y236,5 +1 Y236,6 +1 Y238,0 +1 Y238,1 +1 Y238,2
  +1 Y238,3 +1 Y238,4 +1 Y238,5 +1 Y238,6 +1 Y239,0 +1 Y239,1 +1 Y239,2 +1 Y239,3 +1 Y239,4 +1 Y239,5
  +1 Y239,6 +1 Y240,0 +1 Y240,1 +1 Y240,2 +1 Y240,3 +1 Y240,4 +1 Y240,5 +1 Y240,6 +1 Y243,0 +1 Y243,1
  +1 Y243,2 +1 Y243,3 +1 Y243,4 +1 Y243,5 +1 Y243,6 +1 Y245,0 +1 Y245,1 +1 Y245,2 +1 Y245,3 +1 Y245,4
  +1 Y245,5 +1 Y245,6 +1 Y246,0 +1 Y246,1 +1 Y246,2 +1 Y246,3 +1 Y246,4 +1 Y246,5 +1 Y246,6 +1 Y248,0
  +1 Y248,1 +1 Y248,2 +1 Y248,3 +1 Y248,4 +1 Y248,5 +1 Y248,6 +1 Y249,0 +1 Y249,1 +1 Y249,2 +1 Y249,3
  +1 Y249,4 +1 Y249,5 +1 Y249,6 +1 Y250,0 +1 Y250,1 +1 Y250,2 +1 Y250,3 +1 Y250,4 +1 Y250,5 +1 Y250,6
  +1 Y252,0 +1 Y252,1 +1 Y252,2 +1 Y252,3 +1 Y252,4 +1 Y252,5 +1 Y252,6 +1 Y253,0 +1 Y253,1 +1 Y253,2
  +1 Y253,3 +1 Y253,4 +1 Y253,5 +1 Y253,6 +1 Y254,0 +1 Y254,1 +1 Y254,2 +1 Y254,3 +1 Y254,4 +1 Y254,5
  +1 Y254,6 +1 Y255,0 +1 Y255,1 +1 Y255,2 +1 Y255,3 +1 Y255,4 +1 Y255,5 +1 Y255,6 +1 Y259,0 +1 Y259,1
  +1 Y259,2 +1 Y259,3 +1 Y259,4 +1 Y259,5 +1 Y259,6 +1 Y262,0 +1 Y262,1 +1 Y262,2 +1 Y262,3 +1 Y262,4
  +1 Y262,5 +1 Y262,6 +1 Y264,0 +1 Y264,1 +1 Y264,2 +1 Y264,3 +1 Y264,4 +1 Y264,5 +1 Y264,6 +1 Y265,0
  +1 Y265,1 +1 Y265,2 +1 Y265,3 +1 Y265,4 +1 Y265,5 +1 Y265,6 +1 Y268,0 +1 Y268,1 +1 Y268,2 +1 Y268,3
  +1 Y268,4 +1 Y268,5 +1 Y268,6 +1 Y270,0 +1 Y270,1 +1 Y270,2 +1 Y270,3 +1 Y270,4 +1 Y270,5 +1 Y270,6
  +1 Y271,0 +1 Y271,1 +1 Y271,2 +1 Y271,3 +1 Y271,4 +1 Y271,5 +1 Y271,6 +1 Y273,0 +1 Y273,1 +1 Y273,2
  +1 Y273,3 +1 Y273,4 +1 Y273,5 +1 Y273,6 +1 Y274,0 +1 Y274,1 +1 Y274,2 +1 Y274,3 +1 Y274,4 +1 Y274,5
  +1 Y274,6 +1 Y275,0 +1 Y275,1 +1 Y275,2 +1 Y275,3 +1 Y275,4 +1 Y275,5 +1 Y275,6 +1 Y278,0 +1 Y278,1
  +1 Y278,2 +1 Y278,3 +1 Y278,4 +1 Y278,5 +1 Y278,6 +1 Y280,0 +1 Y280,1 +1 Y280,2 +1 Y280,3 +1 Y280,4
  +1 Y280,5 +1 Y280,6 +1 Y281,0 +1 Y281,1 +1 Y281,2 +1 Y281,3 +1 Y281,4 +1 Y281,5 +1 Y281,6 +1 Y283,0
  +1 Y283,1 +1 Y283,2 +1 Y283,3 +1 Y283,4 +1 Y283,5 +1 Y283,6 +1 Y284,0 +1 Y284,1 +1 Y284,2 +1 Y284,3
  +1 Y284,4 +1 Y284,5 +1 Y284,6 +1 Y285,0 +1 Y285,1 +1 Y285,2 +1 Y285,3 +1 Y285,4 +1 Y285,5 +1 Y285,6
  +1 Y287,0 +1 Y287,1 +1 Y287,2 +1 Y287,3 +1 Y287,4 +1 Y287,5 +1 Y287,6 +1 Y288,0 +1 Y288,1 +1 Y288,2
  +1 Y288,3 +1 Y288,4 +1 Y288,5 +1 Y288,6 +1 Y289,0 +1 Y289,1 +1 Y289,2 +1 Y289,3 +1 Y289,4 +1 Y289,5
  +1 Y289,6 +1 Y290,0 +1 Y290,1 +1 Y290,2 +1 Y290,3 +1 Y290,4 +1 Y290,5 +1 Y290,6 +1 Y293,0 +1 Y293,1
  +1 Y293,2 +1 Y293,3 +1 Y293,4 +1 Y293,5 +1 Y293,6 +1 Y295,0 +1 Y295,1 +1 Y295,2 +1 Y295,3 +1 Y295,4
  +1 Y295,5 +1 Y295,6 +1 Y296,0 +1 Y296,1 +1 Y296,2 +1 Y296,3 +1 Y296,4 +1 Y296,5 +1 Y296,6 +1 Y298,0
  +1 Y298,1 +1 Y298,2 +1 Y298,3 +1 Y298,4 +1 Y298,5 +1 Y298,6 +1 Y299,0 +1 Y299,1 +1 Y299,2 +1 Y299,3
  +1 Y299,4 +1 Y299,5 +1 Y299,6 +1 Y300,0 +1 Y300,1 +1 Y300,2 +1 Y300,3 +1 Y300,4 +1 Y300,5 +1 Y300,6
  +1 Y302,0 +1 Y302,1 +1 Y302,2 +1 Y302,3 +1 Y302,4 +1 Y302,5 +1 Y302,6 +1 Y303,0 +1 Y303,1 +1 Y303,2
  +1 Y303,3 +1 Y303,4 +1 Y303,5 +1 Y303,6 +1 Y304,0 +1 Y304,1 +1 Y304,2 +1 Y304,3 +1 Y304,4 +1 Y304,5
  +1 Y304,6 +1 Y305,0 +1 Y305,1 +1 Y305,2 +1 Y305,3 +1 Y305,4 +1 Y305,5 +1 Y305,6 +1 Y307,0 +1 Y307,1
  +1 Y307,2 +1 Y307,3 +1 Y307,4 +1 Y307,5 +1 Y307,6 +1 Y308,0 +1 Y308,1 +1 Y308,2 +1 Y308,3 +1 Y308,4
  +1 Y308,5 +1 Y308,6 +1 Y309,0 +1 Y309,1 +1 Y309,2 +1 Y309,3 +1 Y309,4 +1 Y309,5 +1 Y309,6 +1 Y310,0
  +1 Y310,1 +1 Y310,2 +1 Y310,3 +1 Y310,4 +1 Y310,5 +1 Y310,6 +1 Y311,0 +1 Y311,1 +1 Y311,2 +1 Y311,3
  +1 Y311,4 +1 Y311,5 +1 Y311,6 +1 Y314,0 +1 Y314,1 +1 Y314,2 +1 Y314,3 +1 Y314,4 +1 Y314,5 +1 Y314,6
  +1 Y316,0 +1 Y316,1 +1 Y316,2 +1 Y316,3 +1 Y316,4 +1 Y316,5 +1 Y316,6 +1 Y317,0 +1 Y317,1 +1 Y317,2
  +1 Y317,3 +1 Y317,4 +1 Y317,5 +1 Y317,6 +1 Y319,0 +1 Y319,1 +1 Y319,2 +1 Y319,3 +1 Y319,4 +1 Y319,5
  +1 Y319,6 +1 Y320,0 +1 Y320,1 +1 Y320,2 +1 Y320,3 +1 Y320,4 +1 Y320,5 +1 Y320,6 +1 Y321,0 +1 Y321,1
  +1 Y321,2 +1 Y321,3 +1 Y321,4 +1 Y321,5 +1 Y321,6 +1 Y323,0 +1 Y323,1 +1 Y323,2 +1 Y323,3 +1 Y323,4
  +1 Y323,5 +1 Y323,6 +1 Y324,0 +1 Y324,1 +1 Y324,2 +1 Y324,3 +1 Y324,4 +1 Y324,5 +1 Y324,6 +1 Y325,0
  +1 Y325,1 +1 Y325,2 +1 Y325,3 +1 Y325,4 +1 Y325,5 +1 Y325,6 +1 Y326,0 +1 Y326,1 +1 Y326,2 +1 Y326,3
  +1 Y326,4 +1 Y326,5 +1 Y326,6 +1 Y328,0 +1 Y328,1 +1 Y328,2 +1 Y328,3 +1 Y328,4 +1 Y328,5 +1 Y328,6
  +1 Y329,0 +1 Y329,1 +1 Y329,2 +1 Y329,3 +1 Y329,4 +1 Y329,5 +1 Y329,6 +1 Y330,0 +1 Y330,1 +1 Y330,2
  +1 Y330,3 +1 Y330,4 +1 Y330,5 +1 Y330,6 +1 Y331,0 +1 Y331,1 +1 Y331,2 +1 Y331,3 +1 Y331,4 +1 Y331,5
  +1 Y331,6 +1 Y332,0 +1 Y332,1 +1 Y332,2 +1 Y332,3 +1 Y332,4 +1 Y332,5 +1 Y332,6 +1 Y334,0 +1 Y334,1
  +1 Y334,2 +1 Y334,3 +1 Y334,4 +1 Y334,5 +1 Y334,6 +1 Y335,0 +1 Y335,1 +1 Y335,2 +1 Y335,3 +1 Y335,4
  +1 Y335,5 +1 Y335,6 +1 Y336,0 +1 Y336,1 +1 Y336,2 +1 Y336,3 +1 Y336,4 +1 Y336,5 +1 Y336,6 +1 Y337,0
  +1 Y337,1 +1 Y337,2 +1 Y337,3 +1 Y337,4 +1 Y337,5 +1 Y337,6 +1 Y338,0 +1 Y338,1 +1 Y338,2 +1 Y338,3
  +1 Y338,4 +1 Y338,5 +1 Y338,6 +1 Y339,0 +1 Y339,1 +1 Y339,2 +1 Y339,3 +1 Y339,4 +1 Y339,5 +1 Y339,6
  +1 Y341,0 +1 Y341,1 +1 Y341,2 +1 Y341,3 +1 Y341,4 +1 Y341,5 +1 Y341,6 +1 Y342,0 +1 Y342,1 +1 Y342,2
  +1 Y342,3 +1 Y342,4 +1 Y342,5 +1 Y342,6 +1 Y343,0 +1 Y343,1 +1 Y343,2 +1 Y343,3 +1 Y343,4 +1 Y343,5
  +1 Y343,6 +1 Y344,0 +1 Y344,1 +1 Y344,2 +1 Y344,3 +1 Y344,4 +1 Y344,5 +1 Y344,6 +1 Y345,0 +1 Y345,1
  +1 Y345,2 +1 Y345,3 +1 Y345,4 +1 Y345,5 +1 Y345,6 +1 Y346,0 +1 Y346,1 +1 Y346,2 +1 Y346,3 +1 Y346,4
  +1 Y346,5 +1 Y346,6 +1 Y347,0 +1 Y347,1 +1 Y347,2 +1 Y347,3 +1 Y347,4 +1 Y347,5 +1 Y347,6 +1 Y348,0
  +1 Y348,1 +1 Y348,2 +1 Y348,3 +1 Y348,4 +1 Y348,5 +1 Y348,6 = +1
 c54: +1 Y558,0 +1 Y558,1 +1 Y558,2 +1 Y558,3 +1 Y558,4 +1 Y558,5 +1 Y558,6 +1 Y562,0 +1 Y562,1 +1 Y562,2
  +1 Y562,3 +1 Y562,4 +1 Y562,5 +1 Y562,6 +1 Y565,0 +1 Y565,1 +1 Y565,2 +1 Y565,3 +1 Y565,4 +1 Y565,5
  +1 Y565,6 +1 Y567,0 +1 Y567,1 +1 Y567,2 +1 Y567,3 +1 Y567,4 +1 Y567,5 +1 Y567,6 +1 Y568,0 +1 Y568,1
  +1 Y568,2 +1 Y568,3 +1 Y568,4 +1 Y568,5 +1 Y568,6 +1 Y571,0 +1 Y571,1 +1 Y571,2 +1 Y571,3 +1 Y571,4
  +1 Y571,5 +1 Y571,6 +1 Y573,0 +1 Y573,1 +1 Y573,2 +1 Y573,3 +1 Y573,4 +1 Y573,5 +1 Y573,6 +1 Y574,0
  +1 Y574,1 +1 Y574,2 +1 Y574,3 +1 Y574,4 +1 Y574,5 +1 Y574,6 +1 Y576,0 +1 Y576,1 +1 Y576,2 +1 Y576,3
  +1 Y576,4 +1 Y576,5 +1 Y576,6 +1 Y577,0 +1 Y577,1 +1 Y577,2 +1 Y577,3 +1 Y577,4 +1 Y577,5 +1 Y577,6
  +1 Y578,0 +1 Y578,1 +1 Y578,2 +1 Y578,3 +1 Y578,4 +1 Y578,5 +1 Y578,6 +1 Y580,0 +1 Y580,1 +1 Y580,2
  +1 Y580,3 +1 Y580,4 +1 Y580,5 +1 Y580,6 +1 Y581,0 +1 Y581,1 +1 Y581,2 +1 Y581,3 +1 Y581,4 +1 Y581,5
  +1 Y581,6 +1 Y582,0 +1 Y582,1 +1 Y582,2 +1 Y582,3 +1 Y582,4 +1 Y582,5 +1 Y582,6 +1 Y583,0 +1 Y583,1
  +1 Y583,2 +1 Y583,3 +1 Y583,4 +1 Y583,5 +1 Y583,6 +1 Y584,0 +1 Y584,1 +1 Y584,2 +1 Y584,3 +1 Y584,4
  +1 Y584,5 +1 Y584,6 = +1
 c55: +1 Y481,0 +1 Y481,1 +1 Y481,2 +1 Y481,3 +1 Y481,4 +1 Y481,5 +1 Y481,6 +1 Y486,0 +1 Y486,1 +1 Y486,2
  +1 Y486,3 +1 Y486,4 +1 Y486,5 +1 Y486,6 +1 Y490,0 +1 Y490,1 +1 Y490,2 +1 Y490,3 +1 Y490,4 +1 Y490,5
  +1 Y490,6 +1 Y493,0 +1 Y493,1 +1 Y493,2 +1 Y493,3 +1 Y493,4 +1 Y493,5 +1 Y493,6 +1 Y495,0 +1 Y495,1
  +1 Y495,2 +1 Y495,3 +1 Y495,4 +1 Y495,5 +1 Y495,6 +1 Y496,0 +1 Y496,1 +1 Y496,2 +1 Y496,3 +1 Y496,4
  +1 Y496,5 +1 Y496,6 +1 Y500,0 +1 Y500,1 +1 Y500,2 +1 Y500,3 +1 Y500,4 +1 Y500,5 +1 Y500,6 +1 Y503,0
  +1 Y503,1 +1 Y503,2 +1 Y503,3 +1 Y503,4 +1 Y503,5 +1 Y503,6 +1 Y505,0 +1 Y505,1 +1 Y505,2 +1 Y505,3
  +1 Y505,4 +1 Y505,5 +1 Y505,6 +1 Y506,0 +1 Y506,1 +1 Y506,2 +1 Y506,3 +1 Y506,4 +1 Y506,5 +1 Y506,6
  +1 Y509,0 +1 Y509,1 +1 Y509,2 +1 Y509,3 +1 Y509,4 +1 Y509,5 +1 Y509,6 +1 Y511,0 +1 Y511,1 +1 Y511,2
  +1 Y511,3 +1 Y511,4 +1 Y511,5 +1 Y511,6 +1 Y512,0 +1 Y512,1 +1 Y512,2 +1 Y512,3 +1 Y512,4 +1 Y512,5
  +1 Y512,6 +1 Y514,0 +1 Y514,1 +1 Y514,2 +1 Y514,3 +1 Y514,4 +1 Y514,5 +1 Y514,6 +1 Y515,0 +1 Y515,1
  +1 Y515,2 +1 Y515,3 +1 Y515,4 +1 Y515,5 +1 Y515,6 +1 Y516,0 +1 Y516,1 +1 Y516,2 +1 Y516,3 +1 Y516,4
  +1 Y516,5 +1 Y516,6 +1 Y519,0 +1 Y519,1 +1 Y519,2 +1 Y519,3 +1 Y519,4 +1 Y519,5 +1 Y519,6 +1 Y521,0
  +1 Y521,1 +1 Y521,2 +1 Y521,3 +1 Y521,4 +1 Y521,5 +1 Y521,6 +1 Y522,0 +1 Y522,1 +1 Y522,2 +1 Y522,3
  +1 Y522,4 +1 Y522,5 +1 Y522,6 +1 Y524,0 +1 Y524,1 +1 Y524,2 +1 Y524,3 +1 Y524,4 +1 Y524,5 +1 Y524,6
  +1 Y525,0 +1 Y525,1 +1 Y525,2 +1 Y525,3 +1 Y525,4 +1 Y525,5 +1 Y525,6 +1 Y526,0 +1 Y526,1 +1 Y526,2
  +1 Y526,3 +1 Y526,4 +1 Y526,5 +1 Y526,6 +1 Y528,0 +1 Y528,1 +1 Y528,2 +1 Y528,3 +1 Y528,4 +1 Y528,5
  +1 Y528,6 +1 Y529,0 +1 Y529,1 +1 Y529,2 +1 Y529,3 +1 Y529,4 +1 Y529,5 +1 Y529,6 +1 Y530,0 +1 Y530,1
  +1 Y530,2 +1 Y530,3 +1 Y530,4 +1 Y530,5 +1 Y530,6 +1 Y531,0 +1 Y531,1 +1 Y531,2 +1 Y531,3 +1 Y531,4
  +1 Y531,5 +1 Y531,6 +1 Y533,0 +1 Y533,1 +1 Y533,2 +1 Y533,3 +1 Y533,4 +1 Y533,5 +1 Y533,6 +1 Y534,0
  +1 Y534,1 +1 Y534,2 +1 Y534,3 +1 Y534,4 +1 Y534,5 +1 Y534,6 +1 Y535,0 +1 Y535,1 +1 Y535,2 +1 Y535,3
  +1 Y535,4 +1 Y535,5 +1 Y535,6 +1 Y536,0 +1 Y536,1 +1 Y536,2 +1 Y536,3 +1 Y536,4 +1 Y536,5 +1 Y536,6
  +1 Y537,0 +1 Y537,1 +1 Y537,2 +1 Y537,3 +1 Y537,4 +1 Y537,5 +1 Y537,6 +1 Y538,0 +1 Y538,1 +1 Y538,2
  +1 Y538,3 +1 Y538,4 +1 Y538,5 +1 Y538,6 = +1
 c56: +1 Y0,1 = +0
 c57: +1 Y0,3 = +0
 c58: +1 Y0,6 = +0
 c59: +1 Y1,1 = +0
 c60: +1 Y1,3 = +0
 c61: +1 Y1,6 = +0
 c62: +1 Y2,1 = +0
 c63: +1 Y2,3 = +0
 c64: +1 Y2,6 = +0
 c65: +1 Y3,1 = +0
 c66: +1 Y3,3 = +0
 c67: +1 Y3,6 = +0
 c68: +1 Y4,1 = +0
 c69: +1 Y4,3 = +0
 c70: +1 Y4,6 = +0
 c71: +1 Y5,1 = +0
 c72: +1 Y5,3 = +0
 c73: +1 Y5,6 = +0
 c74: +1 Y6,1 = +0
 c75: +1 Y6,3 = +0
 c76: +1 Y6,6 = +0
 c77: +1 Y7,1 = +0
 c78: +1 Y7,3 = +0
 c79: +1 Y7,6 = +0
 c80: +1 Y8,1 = +0
 c81: +1 Y8,3 = +0
 c82: +1 Y8,6 = +0
 c83: +1 Y9,1 = +0
 c84: +1 Y9,3 = +0
 c85: +1 Y9,6 = +0
 c86: +1 Y10,1 = +0
 c87: +1 Y10,3 = +0
 c88: +1 Y10,6 = +0
 c89: +1 Y11,1 = +0
 c90: +1 Y11,3 = +0
 c91: +1 Y11,6 = +0
 c92: +1 Y12,1 = +0
 c93: +1 Y12,3 = +0
 c94: +1 Y12,6 = +0
 c95: +1 Y13,1 = +0
 c96: +1 Y13,3 = +0
 c97: +1 Y13,6 = +0
 c98: +1 Y14,1 = +0
 c99: +1 Y14,3 = +0
 c100: +1 Y14,6 = +0
 c101: +1 Y15,1 = +0
 c102: +1 Y15,3 = +0
 c103: +1 Y15,6 = +0
 c104: +1 Y16,1 = +0
 c105: +1 Y16,3 = +0
 c106: +1 Y16,6 = +0
 c107: +1 Y17,1 = +0
 c108: +1 Y17,3 = +0
 c109: +1 Y17,6 = +0
 c110: +1 Y18,1 = +0
 c111: +1 Y18,3 = +0
 c112: +1 Y18,6 = +0
 c113: +1 Y19,1 = +0
 c114: +1 Y19,3 = +0
 c115: +1 Y19,6 = +0
 c116: +1 Y20,1 = +0
 c117: +1 Y20,3 = +0
 c118: +1 Y20,6 = +0
 c119: +1 Y21,1 = +0
 c120: +1 Y21,3 = +0
 c121: +1 Y21,6 = +0
 c122: +1 Y22,1 = +0
 c123: +1 Y22,3 = +0
 c124: +1 Y22,6 = +0
 c125: +1 Y23,1 = +0
 c126: +1 Y23,3 = +0
 c127: +1 Y23,6 = +0
 c128: +1 Y24,1 = +0
 c129: +1 Y24,3 = +0
 c130: +1 Y24,6 = +0
 c131: +1 Y25,1 = +0
 c132: +1 Y25,3 = +0
 c133: +1 Y25,6 = +0
 c134: +1 Y26,1 = +0
 c135: +1 Y26,3 = +0
 c136: +1 Y26,6 = +0
 c137: +1 Y27,1 = +0
 c138: +1 Y27,3 = +0
 c139: +1 Y27,6 = +0
 c140: +1 Y28,1 = +0
 c141: +1 Y28,3 = +0
 c142: +1 Y28,6 = +0
 c143: +1 Y29,1 = +0
 c144: +1 Y29,3 = +0
 c145: +1 Y29,6 = +0
 c146: +1 Y30,1 = +0
 c147: +1 Y30,3 = +0
 c148: +1 Y30,6 = +0
 c149: +1 Y31,1 = +0
 c150: +1 Y31,2 = +0
 c151: +1 Y31,3 = +0
 c152: +1 Y31,5 = +0
 c153: +1 Y31,6 = +0
 c154: +1 Y32,1 = +0
 c155: +1 Y32,2 = +0
 c156: +1 Y32,3 = +0
 c157: +1 Y32,5 = +0
 c158: +1 Y32,6 = +0
 c159: +1 Y33,1 = +0
 c160: +1 Y33,2 = +0
 c161: +1 Y33,3 = +0
 c162: +1 Y33,5 = +0
 c163: +1 Y33,6 = +0
 c164: +1 Y34,1 = +0
 c165: +1 Y34,2 = +0
 c166: +1 Y34,3 = +0
 c167: +1 Y34,5 = +0
 c168: +1 Y34,6 = +0
 c169: +1 Y35,1 = +0
 c170: +1 Y35,2 = +0
 c171: +1 Y35,3 = +0
 c172: +1 Y35,5 = +0
 c173: +1 Y35,6 = +0
 c174: +1 Y36,1 = +0
 c175: +1 Y36,2 = +0
 c176: +1 Y36,3 = +0
 c177: +1 Y36,5 = +0
 c178: +1 Y36,6 = +0
 c179: +1 Y37,1 = +0
 c180: +1 Y37,2 = +0
 c181: +1 Y37,3 = +0
 c182: +1 Y37,5 = +0
 c183: +1 Y37,6 = +0
 c184: +1 Y38,1 = +0
 c185: +1 Y38,2 = +0
 c186: +1 Y38,3 = +0
 c187: +1 Y38,5 = +0
 c188: +1 Y38,6 = +0
 c189: +1 Y39,1 = +0
 c190: +1 Y39,2 = +0
 c191: +1 Y39,3 = +0
 c192: +1 Y39,5 = +0
 c193: +1 Y39,6 = +0
 c194: +1 Y40,1 = +0
 c195: +1 Y40,2 = +0
 c196: +1 Y40,3 = +0
 c197: +1 Y40,5 = +0
 c198: +1 Y40,6 = +0
 c199: +1 Y41,1 = +0
 c200: +1 Y41,2 = +0
 c201: +1 Y41,3 = +0
 c202: +1 Y41,5 = +0
 c203: +1 Y41,6 = +0
 c204: +1 Y42,1 = +0
 c205: +1 Y42,2 = +0
 c206: +1 Y42,3 = +0
 c207: +1 Y42,5 = +0
 c208: +1 Y42,6 = +0
 c209: +1 Y43,1 = +0
 c210: +1 Y43,2 = +0
 c211: +1 Y43,3 = +0
 c212: +1 Y43,5 = +0
 c213: +1 Y43,6 = +0
 c214: +1 Y44,1 = +0
 c215: +1 Y44,2 = +0
 c216: +1 Y44,3 = +0
 c217: +1 Y44,5 = +0
 c218: +1 Y44,6 = +0
 c219: +1 Y45,1 = +0
 c220: +1 Y45,2 = +0
 c221: +1 Y45,3 = +0
 c222: +1 Y45,5 = +0
 c223: +1 Y45,6 = +0
 c224: +1 Y46,1 = +0
 c225: +1 Y46,2 = +0
 c226: +1 Y46,3 = +0
 c227: +1 Y46,5 = +0
 c228: +1 Y46,6 = +0
 c229: +1 Y47,1 = +0
 c230: +1 Y47,2 = +0
 c231: +1 Y47,3 = +0
 c232: +1 Y47,5 = +0
 c233: +1 Y47,6 = +0
 c234: +1 Y48,1 = +0
 c235: +1 Y48,2 = +0
 c236: +1 Y48,3 = +0
 c237: +1 Y48,5 = +0
 c238: +1 Y48,6 = +0
 c239: +1 Y49,1 = +0
 c240: +1 Y49,2 = +0
 c241: +1 Y49,3 = +0
 c242: +1 Y49,5 = +0
 c243: +1 Y49,6 = +0
 c244: +1 Y50,1 = +0
 c245: +1 Y50,2 = +0
 c246: +1 Y50,3 = +0
 c247: +1 Y50,5 = +0
 c248: +1 Y50,6 = +0
 c249: +1 Y51,1 = +0
 c250: +1 Y51,2 = +0
 c251: +1 Y51,3 = +0
 c252: +1 Y51,5 = +0
 c253: +1 Y51,6 = +0
 c254: +1 Y52,1 = +0
 c255: +1 Y52,2 = +0
 c256: +1 Y52,3 = +0
 c257: +1 Y52,5 = +0
 c258: +1 Y52,6 = +0
 c259: +1 Y53,1 = +0
 c260: +1 Y53,2 = +0
 c261: +1 Y53,3 = +0
 c262: +1 Y53,5 = +0
 c263: +1 Y53,6 = +0
 c264: +1 Y54,1 = +0
 c265: +1 Y54,2 = +0
 c266: +1 Y54,3 = +0
 c267: +1 Y54,5 = +0
 c268: +1 Y54,6 = +0
 c269: +1 Y55,1 = +0
 c270: +1 Y55,2 = +0
 c271: +1 Y55,3 = +0
 c272: +1 Y55,5 = +0
 c273: +1 Y55,6 = +0
 c274: +1 Y56,1 = +0
 c275: +1 Y56,2 = +0
 c276: +1 Y56,3 = +0
 c277: +1 Y56,5 = +0
 c278: +1 Y56,6 = +0
 c279: +1 Y57,1 = +0
 c280: +1 Y57,2 = +0
 c281: +1 Y57,3 = +0
 c282: +1 Y57,5 = +0
 c283: +1 Y57,6 = +0
 c284: +1 Y58,1 = +0
 c285: +1 Y58,2 = +0
 c286: +1 Y58,3 = +0
 c287: +1 Y58,5 = +0
 c288: +1 Y58,6 = +0
 c289: +1 Y59,1 = +0
 c290: +1 Y59,2 = +0
 c291: +1 Y59,3 = +0
 c292: +1 Y59,5 = +0
 c293: +1 Y59,6 = +0
 c294: +1 Y60,1 = +0
 c295: +1 Y60,2 = +0
 c296: +1 Y60,3 = +0
 c297: +1 Y60,5 = +0
 c298: +1 Y60,6 = +0
 c299: +1 Y61,1 = +0
 c300: +1 Y61,2 = +0
 c301: +1 Y61,3 = +0
 c302: +1 Y61,5 = +0
 c303: +1 Y61,6 = +0
 c304: +1 Y62,1 = +0
 c305: +1 Y62,2 = +0
 c306: +1 Y62,3 = +0
 c307: +1 Y62,5 = +0
 c308: +1 Y62,6 = +0
 c309: +1 Y63,1 = +0
 c310: +1 Y63,2 = +0
 c311: +1 Y63,3 = +0
 c312: +1 Y63,5 = +0
 c313: +1 Y63,6 = +0
 c314: +1 Y64,1 = +0
 c315: +1 Y64,2 = +0
 c316: +1 Y64,3 = +0
 c317: +1 Y64,5 = +0
 c318: +1 Y64,6 = +0
 c319: +1 Y65,1 = +0
 c320: +1 Y65,2 = +0
 c321: +1 Y65,3 = +0
 c322: +1 Y65,5 = +0
 c323: +1 Y65,6 = +0
 c324: +1 Y66,1 = +0
 c325: +1 Y66,2 = +0
 c326: +1 Y66,3 = +0
 c327: +1 Y66,5 = +0
 c328: +1 Y66,6 = +0
 c329: +1 Y67,1 = +0
 c330: +1 Y67,2 = +0
 c331: +1 Y67,3 = +0
 c332: +1 Y67,5 = +0
 c333: +1 Y67,6 = +0
 c334: +1 Y68,1 = +0
 c335: +1 Y68,2 = +0
 c336: +1 Y68,3 = +0
 c337: +1 Y68,5 = +0
 c338: +1 Y68,6 = +0
 c339: +1 Y69,1 = +0
 c340: +1 Y69,2 = +0
 c341: +1 Y69,3 = +0
 c342: +1 Y69,5 = +0
 c343: +1 Y69,6 = +0
 c344: +1 Y70,1 = +0
 c345: +1 Y70,2 = +0
 c346: +1 Y70,3 = +0
 c347: +1 Y70,5 = +0
 c348: +1 Y70,6 = +0
 c349: +1 Y71,1 = +0
 c350: +1 Y71,2 = +0
 c351: +1 Y71,3 = +0
 c352: +1 Y71,5 = +0
 c353: +1 Y71,6 = +0
 c354: +1 Y72,1 = +0
 c355: +1 Y72,2 = +0
 c356: +1 Y72,3 = +0
 c357: +1 Y72,5 = +0
 c358: +1 Y72,6 = +0
 c359: +1 Y73,1 = +0
 c360: +1 Y73,2 = +0
 c361: +1 Y73,3 = +0
 c362: +1 Y73,5 = +0
 c363: +1 Y73,6 = +0
 c364: +1 Y74,1 = +0
 c365: +1 Y74,2 = +0
 c366: +1 Y74,3 = +0
 c367: +1 Y74,5 = +0
 c368: +1 Y74,6 = +0
 c369: +1 Y75,1 = +0
 c370: +1 Y75,2 = +0
 c371: +1 Y75,3 = +0
 c372: +1 Y75,5 = +0
 c373: +1 Y75,6 = +0
 c374: +1 Y76,1 = +0
 c375: +1 Y76,2 = +0
 c376: +1 Y76,3 = +0
 c377: +1 Y76,5 = +0
 c378: +1 Y76,6 = +0
 c379: +1 Y77,1 = +0
 c380: +1 Y77,2 = +0
 c381: +1 Y77,3 = +0
 c382: +1 Y77,5 = +0
 c383: +1 Y77,6 = +0
 c384: +1 Y78,1 = +0
 c385: +1 Y78,2 = +0
 c386: +1 Y78,3 = +0
 c387: +1 Y78,5 = +0
 c388: +1 Y78,6 = +0
 c389: +1 Y79,1 = +0
 c390: +1 Y79,2 = +0
 c391: +1 Y79,3 = +0
 c392: +1 Y79,5 = +0
 c393: +1 Y79,6 = +0
 c394: +1 Y80,1 = +0
 c395: +1 Y80,2 = +0
 c396: +1 Y80,3 = +0
 c397: +1 Y80,5 = +0
 c398: +1 Y80,6 = +0
 c399: +1 Y81,1 = +0
 c400: +1 Y81,2 = +0
 c401: +1 Y81,3 = +0
 c402: +1 Y81,5 = +0
 c403: +1 Y81,6 = +0
 c404: +1 Y82,1 = +0
 c405: +1 Y82,2 = +0
 c406: +1 Y82,3 = +0
 c407: +1 Y82,5 = +0
 c408: +1 Y82,6 = +0
 c409: +1 Y83,1 = +0
 c410: +1 Y83,2 = +0
 c411: +1 Y83,3 = +0
 c412: +1 Y83,5 = +0
 c413: +1 Y83,6 = +0
 c414: +1 Y84,1 = +0
 c415: +1 Y84,2 = +0
 c416: +1 Y84,3 = +0
 c417: +1 Y84,5 = +0
 c418: +1 Y84,6 = +0
 c419: +1 Y85,1 = +0
 c420: +1 Y85,2 = +0
 c421: +1 Y85,3 = +0
 c422: +1 Y85,5 = +0
 c423: +1 Y85,6 = +0
 c424: +1 Y86,1 = +0
 c425: +1 Y86,2 = +0
 c426: +1 Y86,3 = +0
 c427: +1 Y86,5 = +0
 c428: +1 Y86,6 = +0
 c429: +1 Y87,1 = +0
 c430: +1 Y87,2 = +0
 c431: +1 Y87,3 = +0
 c432: +1 Y87,5 = +0
 c433: +1 Y87,6 = +0
 c434: +1 Y88,1 = +0
 c435: +1 Y88,2 = +0
 c436: +1 Y88,3 = +0
 c437: +1 Y88,5 = +0
 c438: +1 Y88,6 = +0
 c439: +1 Y89,1 = +0
 c440: +1 Y89,2 = +0
 c441: +1 Y89,3 = +0
 c442: +1 Y89,5 = +0
 c443: +1 Y89,6 = +0
 c444: +1 Y90,1 = +0
 c445: +1 Y90,2 = +0
 c446: +1 Y90,3 = +0
 c447: +1 Y90,5 = +0
 c448: +1 Y90,6 = +0
 c449: +1 Y91,1 = +0
 c450: +1 Y91,2 = +0
 c451: +1 Y91,3 = +0
 c452: +1 Y91,5 = +0
 c453: +1 Y91,6 = +0
 c454: +1 Y92,1 = +0
 c455: +1 Y92,2 = +0
 c456: +1 Y92,3 = +0
 c457: +1 Y92,5 = +0
 c458: +1 Y92,6 = +0
 c459: +1 Y93,1 = +0
 c460: +1 Y93,2 = +0
 c461: +1 Y93,3 = +0
 c462: +1 Y93,5 = +0
 c463: +1 Y93,6 = +0
 c464: +1 Y94,1 = +0
 c465: +1 Y94,4 = +0
 c466: +1 Y94,5 = +0
 c467: +1 Y94,6 = +0
 c468: +1 Y95,1 = +0
 c469: +1 Y95,4 = +0
 c470: +1 Y95,5 = +0
 c471: +1 Y95,6 = +0
 c472: +1 Y96,1 = +0
 c473: +1 Y96,4 = +0
 c474: +1 Y96,5 = +0
 c475: +1 Y96,6 = +0
 c476: +1 Y97,1 = +0
 c477: +1 Y97,4 = +0
 c478: +1 Y97,5 = +0
 c479: +1 Y97,6 = +0
 c480: +1 Y98,1 = +0
 c481: +1 Y98,4 = +0
 c482: +1 Y98,5 = +0
 c483: +1 Y98,6 = +0
 c484: +1 Y99,1 = +0
 c485: +1 Y99,4 = +0
 c486: +1 Y99,5 = +0
 c487: +1 Y99,6 = +0
 c488: +1 Y100,1 = +0
 c489: +1 Y100,4 = +0
 c490: +1 Y100,5 = +0
 c491: +1 Y100,6 = +0
 c492: +1 Y101,1 = +0
 c493: +1 Y101,4 = +0
 c494: +1 Y101,5 = +0
 c495: +1 Y101,6 = +0
 c496: +1 Y102,1 = +0
 c497: +1 Y102,4 = +0
 c498: +1 Y102,5 = +0
 c499: +1 Y102,6 = +0
 c500: +1 Y103,1 = +0
 c501: +1 Y103,4 = +0
 c502: +1 Y103,5 = +0
 c503: +1 Y103,6 = +0
 c504: +1 Y104,1 = +0
 c505: +1 Y104,4 = +0
 c506: +1 Y104,5 = +0
 c507: +1 Y104,6 = +0
 c508: +1 Y105,1 = +0
 c509: +1 Y105,4 = +0
 c510: +1 Y105,5 = +0
 c511: +1 Y105,6 = +0
 c512: +1 Y106,1 = +0
 c513: +1 Y106,4 = +0
 c514: +1 Y106,5 = +0
 c515: +1 Y106,6 = +0
 c516: +1 Y107,1 = +0
 c517: +1 Y107,4 = +0
 c518: +1 Y107,5 = +0
 c519: +1 Y107,6 = +0
 c520: +1 Y108,1 = +0
 c521: +1 Y108,4 = +0
 c522: +1 Y108,5 = +0
 c523: +1 Y108,6 = +0
 c524: +1 Y109,1 = +0
 c525: +1 Y109,4 = +0
 c526: +1 Y109,5 = +0
 c527: +1 Y109,6 = +0
 c528: +1 Y110,1 = +0
 c529: +1 Y110,4 = +0
 c530: +1 Y110,5 = +0
 c531: +1 Y110,6 = +0
 c532: +1 Y111,1 = +0
 c533: +1 Y111,4 = +0
 c534: +1 Y111,5 = +0
 c535: +1 Y111,6 = +0
 c536: +1 Y112,1 = +0
 c537: +1 Y112,4 = +0
 c538: +1 Y112,5 = +0
 c539: +1 Y112,6 = +0
 c540: +1 Y113,1 = +0
 c541: +1 Y113,4 = +0
 c542: +1 Y113,5 = +0
 c543: +1 Y113,6 = +0
 c544: +1 Y114,1 = +0
 c545: +1 Y114,4 = +0
 c546: +1 Y114,5 = +0
 c547: +1 Y114,6 = +0
 c548: +1 Y115,1 = +0
 c549: +1 Y115,4 = +0
 c550: +1 Y115,5 = +0
 c551: +1 Y115,6 = +0
 c552: +1 Y116,1 = +0
 c553: +1 Y116,4 = +0
 c554: +1 Y116,5 = +0
 c555: +1 Y116,6 = +0
 c556: +1 Y117,1 = +0
 c557: +1 Y117,4 = +0
 c558: +1 Y117,5 = +0
 c559: +1 Y117,6 = +0
 c560: +1 Y118,1 = +0
 c561: +1 Y118,4 = +0
 c562: +1 Y118,5 = +0
 c563: +1 Y118,6 = +0
 c564: +1 Y119,1 = +0
 c565: +1 Y119,4 = +0
 c566: +1 Y119,5 = +0
 c567: +1 Y119,6 = +0
 c568: +1 Y120,1 = +0
 c569: +1 Y120,4 = +0
 c570: +1 Y120,5 = +0
 c571: +1 Y120,6 = +0
 c572: +1 Y121,1 = +0
 c573: +1 Y121,4 = +0
 c574: +1 Y121,5 = +0
 c575: +1 Y121,6 = +0
 c576: +1 Y122,1 = +0
 c577: +1 Y122,4 = +0
 c578: +1 Y122,5 = +0
 c579: +1 Y122,6 = +0
 c580: +1 Y123,1 = +0
 c581: +1 Y123,4 = +0
 c582: +1 Y123,5 = +0
 c583: +1 Y123,6 = +0
 c584: +1 Y124,1 = +0
 c585: +1 Y124,4 = +0
 c586: +1 Y124,5 = +0
 c587: +1 Y124,6 = +0
 c588: +1 Y125,1 = +0
 c589: +1 Y125,4 = +0
 c590: +1 Y125,5 = +0
 c591: +1 Y125,6 = +0
 c592: +1 Y126,1 = +0
 c593: +1 Y126,4 = +0
 c594: +1 Y126,5 = +0
 c595: +1 Y126,6 = +0
 c596: +1 Y127,1 = +0
 c597: +1 Y127,4 = +0
 c598: +1 Y127,5 = +0
 c599: +1 Y127,6 = +0
 c600: +1 Y128,1 = +0
 c601: +1 Y128,4 = +0
 c602: +1 Y128,5 = +0
 c603: +1 Y128,6 = +0
 c604: +1 Y129,1 = +0
 c605: +1 Y129,4 = +0
 c606: +1 Y129,5 = +0
 c607: +1 Y129,6 = +0
 c608: +1 Y130,1 = +0
 c609: +1 Y130,4 = +0
 c610: +1 Y130,5 = +0
 c611: +1 Y130,6 = +0
 c612: +1 Y131,1 = +0
 c613: +1 Y131,4 = +0
 c614: +1 Y131,5 = +0
 c615: +1 Y131,6 = +0
 c616: +1 Y132,1 = +0
 c617: +1 Y132,4 = +0
 c618: +1 Y132,5 = +0
 c619: +1 Y132,6 = +0
 c620: +1 Y133,1 = +0
 c621: +1 Y133,4 = +0
 c622: +1 Y133,5 = +0
 c623: +1 Y133,6 = +0
 c624: +1 Y134,1 = +0
 c625: +1 Y134,4 = +0
 c626: +1 Y134,5 = +0
 c627: +1 Y134,6 = +0
 c628: +1 Y135,1 = +0
 c629: +1 Y135,4 = +0
 c630: +1 Y135,5 = +0
 c631: +1 Y135,6 = +0
 c632: +1 Y136,1 = +0
 c633: +1 Y136,4 = +0
 c634: +1 Y136,5 = +0
 c635: +1 Y136,6 = +0
 c636: +1 Y137,1 = +0
 c637: +1 Y137,4 = +0
 c638: +1 Y137,5 = +0
 c639: +1 Y137,6 = +0
 c640: +1 Y138,1 = +0
 c641: +1 Y138,4 = +0
 c642: +1 Y138,5 = +0
 c643: +1 Y138,6 = +0
 c644: +1 Y139,1 = +0
 c645: +1 Y139,4 = +0
 c646: +1 Y139,5 = +0
 c647: +1 Y139,6 = +0
 c648: +1 Y140,1 = +0
 c649: +1 Y140,4 = +0
 c650: +1 Y140,5 = +0
 c651: +1 Y140,6 = +0
 c652: +1 Y141,1 = +0
 c653: +1 Y141,4 = +0
 c654: +1 Y141,5 = +0
 c655: +1 Y141,6 = +0
 c656: +1 Y142,1 = +0
 c657: +1 Y142,4 = +0
 c658: +1 Y142,5 = +0
 c659: +1 Y142,6 = +0
 c660: +1 Y143,1 = +0
 c661: +1 Y143,4 = +0
 c662: +1 Y143,5 = +0
 c663: +1 Y143,6 = +0
 c664: +1 Y144,1 = +0
 c665: +1 Y144,4 = +0
 c666: +1 Y144,5 = +0
 c667: +1 Y144,6 = +0
 c668: +1 Y145,1 = +0
 c669: +1 Y145,4 = +0
 c670: +1 Y145,5 = +0
 c671: +1 Y145,6 = +0
 c672: +1 Y146,1 = +0
 c673: +1 Y146,4 = +0
 c674: +1 Y146,5 = +0
 c675: +1 Y146,6 = +0
 c676: +1 Y147,1 = +0
 c677: +1 Y147,4 = +0
 c678: +1 Y147,5 = +0
 c679: +1 Y147,6 = +0
 c680: +1 Y148,1 = +0
 c681: +1 Y148,4 = +0
 c682: +1 Y148,5 = +0
 c683: +1 Y148,6 = +0
 c684: +1 Y149,1 = +0
 c685: +1 Y149,4 = +0
 c686: +1 Y149,5 = +0
 c687: +1 Y149,6 = +0
 c688: +1 Y150,1 = +0
 c689: +1 Y150,4 = +0
 c690: +1 Y150,5 = +0
 c691: +1 Y150,6 = +0
 c692: +1 Y151,1 = +0
 c693: +1 Y151,4 = +0
 c694: +1 Y151,5 = +0
 c695: +1 Y151,6 = +0
 c696: +1 Y152,1 = +0
 c697: +1 Y152,4 = +0
 c698: +1 Y152,5 = +0
 c699: +1 Y152,6 = +0
 c700: +1 Y153,1 = +0
 c701: +1 Y153,4 = +0
 c702: +1 Y153,5 = +0
 c703: +1 Y153,6 = +0
 c704: +1 Y154,1 = +0
 c705: +1 Y154,4 = +0
 c706: +1 Y154,5 = +0
 c707: +1 Y154,6 = +0
 c708: +1 Y155,1 = +0
 c709: +1 Y155,4 = +0
 c710: +1 Y155,5 = +0
 c711: +1 Y155,6 = +0
 c712: +1 Y156,1 = +0
 c713: +1 Y156,4 = +0
 c714: +1 Y156,5 = +0
 c715: +1 Y156,6 = +0
 c716: +1 Y157,1 = +0
 c717: +1 Y157,4 = +0
 c718: +1 Y157,5 = +0
 c719: +1 Y157,6 = +0
 c720: +1 Y158,1 = +0
 c721: +1 Y158,4 = +0
 c722: +1 Y158,5 = +0
 c723: +1 Y158,6 = +0
 c724: +1 Y159,1 = +0
 c725: +1 Y159,4 = +0
 c726: +1 Y159,5 = +0
 c727: +1 Y159,6 = +0
 c728: +1 Y160,1 = +0
 c729: +1 Y160,4 = +0
 c730: +1 Y160,5 = +0
 c731: +1 Y160,6 = +0
 c732: +1 Y161,1 = +0
 c733: +1 Y161,4 = +0
 c734: +1 Y161,5 = +0
 c735: +1 Y161,6 = +0
 c736: +1 Y162,1 = +0
 c737: +1 Y162,4 = +0
 c738: +1 Y162,5 = +0
 c739: +1 Y162,6 = +0
 c740: +1 Y163,1 = +0
 c741: +1 Y163,4 = +0
 c742: +1 Y163,5 = +0
 c743: +1 Y163,6 = +0
 c744: +1 Y164,1 = +0
 c745: +1 Y164,4 = +0
 c746: +1 Y164,5 = +0
 c747: +1 Y164,6 = +0
 c748: +1 Y165,1 = +0
 c749: +1 Y165,4 = +0
 c750: +1 Y165,5 = +0
 c751: +1 Y165,6 = +0
 c752: +1 Y166,1 = +0
 c753: +1 Y166,4 = +0
 c754: +1 Y166,5 = +0
 c755: +1 Y166,6 = +0
 c756: +1 Y167,1 = +0
 c757: +1 Y167,4 = +0
 c758: +1 Y167,5 = +0
 c759: +1 Y167,6 = +0
 c760: +1 Y168,1 = +0
 c761: +1 Y168,4 = +0
 c762: +1 Y168,5 = +0
 c763: +1 Y168,6 = +0
 c764: +1 Y169,1 = +0
 c765: +1 Y169,4 = +0
 c766: +1 Y169,5 = +0
 c767: +1 Y169,6 = +0
 c768: +1 Y170,1 = +0
 c769: +1 Y170,4 = +0
 c770: +1 Y170,5 = +0
 c771: +1 Y170,6 = +0
 c772: +1 Y171,1 = +0
 c773: +1 Y171,4 = +0
 c774: +1 Y171,5 = +0
 c775: +1 Y171,6 = +0
 c776: +1 Y172,1 = +0
 c777: +1 Y172,4 = +0
 c778: +1 Y172,5 = +0
 c779: +1 Y172,6 = +0
 c780: +1 Y173,1 = +0
 c781: +1 Y173,4 = +0
 c782: +1 Y173,5 = +0
 c783: +1 Y173,6 = +0
 c784: +1 Y174,1 = +0
 c785: +1 Y174,4 = +0
 c786: +1 Y174,5 = +0
 c787: +1 Y174,6 = +0
 c788: +1 Y175,1 = +0
 c789: +1 Y175,4 = +0
 c790: +1 Y175,5 = +0
 c791: +1 Y175,6 = +0
 c792: +1 Y176,1 = +0
 c793: +1 Y176,4 = +0
 c794: +1 Y176,5 = +0
 c795: +1 Y176,6 = +0
 c796: +1 Y177,1 = +0
 c797: +1 Y177,4 = +0
 c798: +1 Y177,5 = +0
 c799: +1 Y177,6 = +0
 c800: +1 Y178,1 = +0
 c801: +1 Y178,4 = +0
 c802: +1 Y178,5 = +0
 c803: +1 Y178,6 = +0
 c804: +1 Y179,1 = +0
 c805: +1 Y179,4 = +0
 c806: +1 Y179,5 = +0
 c807: +1 Y179,6 = +0
 c808: +1 Y180,1 = +0
 c809: +1 Y180,4 = +0
 c810: +1 Y180,5 = +0
 c811: +1 Y180,6 = +0
 c812: +1 Y181,1 = +0
 c813: +1 Y181,4 = +0
 c814: +1 Y181,5 = +0
 c815: +1 Y181,6 = +0
 c816: +1 Y182,1 = +0
 c817: +1 Y182,4 = +0
 c818: +1 Y182,5 = +0
 c819: +1 Y182,6 = +0
 c820: +1 Y183,1 = +0
 c821: +1 Y183,4 = +0
 c822: +1 Y183,5 = +0
 c823: +1 Y183,6 = +0
 c824: +1 Y184,1 = +0
 c825: +1 Y184,4 = +0
 c826: +1 Y184,5 = +0
 c827: +1 Y184,6 = +0
 c828: +1 Y185,1 = +0
 c829: +1 Y185,4 = +0
 c830: +1 Y185,5 = +0
 c831: +1 Y185,6 = +0
 c832: +1 Y186,1 = +0
 c833: +1 Y186,4 = +0
 c834: +1 Y186,5 = +0
 c835: +1 Y186,6 = +0
 c836: +1 Y187,1 = +0
 c837: +1 Y187,4 = +0
 c838: +1 Y187,5 = +0
 c839: +1 Y187,6 = +0
 c840: +1 Y188,1 = +0
 c841: +1 Y188,4 = +0
 c842: +1 Y188,5 = +0
 c843: +1 Y188,6 = +0
 c844: +1 Y189,1 = +0
 c845: +1 Y189,4 = +0
 c846: +1 Y189,5 = +0
 c847: +1 Y189,6 = +0
 c848: +1 Y190,1 = +0
 c849: +1 Y190,4 = +0
 c850: +1 Y190,5 = +0
 c851: +1 Y190,6 = +0
 c852: +1 Y191,1 = +0
 c853: +1 Y191,4 = +0
 c854: +1 Y191,5 = +0
 c855: +1 Y191,6 = +0
 c856: +1 Y192,1 = +0
 c857: +1 Y192,4 = +0
 c858: +1 Y192,5 = +0
 c859: +1 Y192,6 = +0
 c860: +1 Y193,1 = +0
 c861: +1 Y193,4 = +0
 c862: +1 Y193,5 = +0
 c863: +1 Y193,6 = +0
 c864: +1 Y194,1 = +0
 c865: +1 Y194,4 = +0
 c866: +1 Y194,5 = +0
 c867: +1 Y194,6 = +0
 c868: +1 Y195,1 = +0
 c869: +1 Y195,4 = +0
 c870: +1 Y195,5 = +0
 c871: +1 Y195,6 = +0
 c872: +1 Y196,1 = +0
 c873: +1 Y196,4 = +0
 c874: +1 Y196,5 = +0
 c875: +1 Y196,6 = +0
 c876: +1 Y197,1 = +0
 c877: +1 Y197,4 = +0
 c878: +1 Y197,5 = +0
 c879: +1 Y197,6 = +0
 c880: +1 Y198,1 = +0
 c881: +1 Y198,4 = +0
 c882: +1 Y198,5 = +0
 c883: +1 Y198,6 = +0
 c884: +1 Y199,1 = +0
 c885: +1 Y199,4 = +0
 c886: +1 Y199,5 = +0
 c887: +1 Y199,6 = +0
 c888: +1 Y200,1 = +0
 c889: +1 Y200,4 = +0
 c890: +1 Y200,5 = +0
 c891: +1 Y200,6 = +0
 c892: +1 Y201,1 = +0
 c893: +1 Y201,4 = +0
 c894: +1 Y201,5 = +0
 c895: +1 Y201,6 = +0
 c896: +1 Y202,1 = +0
 c897: +1 Y202,4 = +0
 c898: +1 Y202,5 = +0
 c899: +1 Y202,6 = +0
 c900: +1 Y203,1 = +0
 c901: +1 Y203,4 = +0
 c902: +1 Y203,5 = +0
 c903: +1 Y203,6 = +0
 c904: +1 Y204,1 = +0
 c905: +1 Y204,4 = +0
 c906: +1 Y204,5 = +0
 c907: +1 Y204,6 = +0
 c908: +1 Y205,1 = +0
 c909: +1 Y205,4 = +0
 c910: +1 Y205,5 = +0
 c911: +1 Y205,6 = +0
 c912: +1 Y206,1 = +0
 c913: +1 Y206,4 = +0
 c914: +1 Y206,5 = +0
 c915: +1 Y206,6 = +0
 c916: +1 Y207,1 = +0
 c917: +1 Y207,4 = +0
 c918: +1 Y207,5 = +0
 c919: +1 Y207,6 = +0
 c920: +1 Y208,1 = +0
 c921: +1 Y208,4 = +0
 c922: +1 Y208,5 = +0
 c923: +1 Y208,6 = +0
 c924: +1 Y209,1 = +0
 c925: +1 Y209,4 = +0
 c926: +1 Y209,5 = +0
 c927: +1 Y209,6 = +0
 c928: +1 Y210,1 = +0
 c929: +1 Y210,4 = +0
 c930: +1 Y210,5 = +0
 c931: +1 Y210,6 = +0
 c932: +1 Y211,1 = +0
 c933: +1 Y211,4 = +0
 c934: +1 Y211,5 = +0
 c935: +1 Y211,6 = +0
 c936: +1 Y212,1 = +0
 c937: +1 Y212,4 = +0
 c938: +1 Y212,5 = +0
 c939: +1 Y212,6 = +0
 c940: +1 Y213,1 = +0
 c941: +1 Y213,4 = +0
 c942: +1 Y213,5 = +0
 c943: +1 Y213,6 = +0
 c944: +1 Y214,1 = +0
 c945: +1 Y214,4 = +0
 c946: +1 Y214,5 = +0
 c947: +1 Y214,6 = +0
 c948: +1 Y215,1 = +0
 c949: +1 Y215,4 = +0
 c950: +1 Y215,5 = +0
 c951: +1 Y215,6 = +0
 c952: +1 Y216,1 = +0
 c953: +1 Y216,4 = +0
 c954: +1 Y216,5 = +0
 c955: +1 Y216,6 = +0
 c956: +1 Y217,1 = +0
 c957: +1 Y217,4 = +0
 c958: +1 Y217,5 = +0
 c959: +1 Y217,6 = +0
 c960: +1 Y218,1 = +0
 c961: +1 Y218,4 = +0
 c962: +1 Y218,5 = +0
 c963: +1 Y218,6 = +0
 c964: +1 Y219,1 = +0
 c965: +1 Y219,4 = +0
 c966: +1 Y219,5 = +0
 c967: +1 Y219,6 = +0
 c968: +1 Y220,1 = +0
 c969: +1 Y220,4 = +0
 c970: +1 Y220,5 = +0
 c971: +1 Y220,6 = +0
 c972: +1 Y221,1 = +0
 c973: +1 Y221,4 = +0
 c974: +1 Y221,5 = +0
 c975: +1 Y221,6 = +0
 c976: +1 Y222,1 = +0
 c977: +1 Y222,4 = +0
 c978: +1 Y222,5 = +0
 c979: +1 Y222,6 = +0
 c980: +1 Y223,1 = +0
 c981: +1 Y223,4 = +0
 c982: +1 Y223,5 = +0
 c983: +1 Y223,6 = +0
 c984: +1 Y224,1 = +0
 c985: +1 Y224,4 = +0
 c986: +1 Y224,5 = +0
 c987: +1 Y224,6 = +0
 c988: +1 Y225,1 = +0
 c989: +1 Y225,4 = +0
 c990: +1 Y225,5 = +0
 c991: +1 Y225,6 = +0
 c992: +1 Y226,1 = +0
 c993: +1 Y226,4 = +0
 c994: +1 Y226,5 = +0
 c995: +1 Y226,6 = +0
 c996: +1 Y227,1 = +0
 c997: +1 Y227,4 = +0
 c998: +1 Y227,5 = +0
 c999: +1 Y227,6 = +0
 c1000: +1 Y228,1 = +0
 c1001: +1 Y228,4 = +0
 c1002: +1 Y228,5 = +0
 c1003: +1 Y228,6 = +0
 c1004: +1 Y229,1 = +0
 c1005: +1 Y229,4 = +0
 c1006: +1 Y229,5 = +0
 c1007: +1 Y229,6 = +0
 c1008: +1 Y230,1 = +0
 c1009: +1 Y230,4 = +0
 c1010: +1 Y230,5 = +0
 c1011: +1 Y230,6 = +0
 c1012: +1 Y231,1 = +0
 c1013: +1 Y231,4 = +0
 c1014: +1 Y231,5 = +0
 c1015: +1 Y231,6 = +0
 c1016: +1 Y232,1 = +0
 c1017: +1 Y232,4 = +0
 c1018: +1 Y232,5 = +0
 c1019: +1 Y232,6 = +0
 c1020: +1 Y233,1 = +0
 c1021: +1 Y233,4 = +0
 c1022: +1 Y233,5 = +0
 c1023: +1 Y233,6 = +0
 c1024: +1 Y234,1 = +0
 c1025: +1 Y234,4 = +0
 c1026: +1 Y234,5 = +0
 c1027: +1 Y234,6 = +0
 c1028: +1 Y235,1 = +0
 c1029: +1 Y235,4 = +0
 c1030: +1 Y235,5 = +0
 c1031: +1 Y235,6 = +0
 c1032: +1 Y236,1 = +0
 c1033: +1 Y236,4 = +0
 c1034: +1 Y236,5 = +0
 c1035: +1 Y236,6 = +0
 c1036: +1 Y237,1 = +0
 c1037: +1 Y237,4 = +0
 c1038: +1 Y237,5 = +0
 c1039: +1 Y237,6 = +0
 c1040: +1 Y238,1 = +0
 c1041: +1 Y238,4 = +0
 c1042: +1 Y238,5 = +0
 c1043: +1 Y238,6 = +0
 c1044: +1 Y239,1 = +0
 c1045: +1 Y239,4 = +0
 c1046: +1 Y239,5 = +0
 c1047: +1 Y239,6 = +0
 c1048: +1 Y240,1 = +0
 c1049: +1 Y240,4 = +0
 c1050: +1 Y240,5 = +0
 c1051: +1 Y240,6 = +0
 c1052: +1 Y241,1 = +0
 c1053: +1 Y241,4 = +0
 c1054: +1 Y241,5 = +0
 c1055: +1 Y241,6 = +0
 c1056: +1 Y242,1 = +0
 c1057: +1 Y242,4 = +0
 c1058: +1 Y242,5 = +0
 c1059: +1 Y242,6 = +0
 c1060: +1 Y243,1 = +0
 c1061: +1 Y243,4 = +0
 c1062: +1 Y243,5 = +0
 c1063: +1 Y243,6 = +0
 c1064: +1 Y244,1 = +0
 c1065: +1 Y244,4 = +0
 c1066: +1 Y244,5 = +0
 c1067: +1 Y244,6 = +0
 c1068: +1 Y245,1 = +0
 c1069: +1 Y245,4 = +0
 c1070: +1 Y245,5 = +0
 c1071: +1 Y245,6 = +0
 c1072: +1 Y246,1 = +0
 c1073: +1 Y246,4 = +0
 c1074: +1 Y246,5 = +0
 c1075: +1 Y246,6 = +0
 c1076: +1 Y247,1 = +0
 c1077: +1 Y247,4 = +0
 c1078: +1 Y247,5 = +0
 c1079: +1 Y247,6 = +0
 c1080: +1 Y248,1 = +0
 c1081: +1 Y248,4 = +0
 c1082: +1 Y248,5 = +0
 c1083: +1 Y248,6 = +0
 c1084: +1 Y249,1 = +0
 c1085: +1 Y249,4 = +0
 c1086: +1 Y249,5 = +0
 c1087: +1 Y249,6 = +0
 c1088: +1 Y250,1 = +0
 c1089: +1 Y250,4 = +0
 c1090: +1 Y250,5 = +0
 c1091: +1 Y250,6 = +0
 c1092: +1 Y251,1 = +0
 c1093: +1 Y251,4 = +0
 c1094: +1 Y251,5 = +0
 c1095: +1 Y251,6 = +0
 c1096: +1 Y252,1 = +0
 c1097: +1 Y252,4 = +0
 c1098: +1 Y252,5 = +0
 c1099: +1 Y252,6 = +0
 c1100: +1 Y253,1 = +0
 c1101: +1 Y253,4 = +0
 c1102: +1 Y253,5 = +0
 c1103: +1 Y253,6 = +0
 c1104: +1 Y254,1 = +0
 c1105: +1 Y254,4 = +0
 c1106: +1 Y254,5 = +0
 c1107: +1 Y254,6 = +0
 c1108: +1 Y255,1 = +0
 c1109: +1 Y255,4 = +0
 c1110: +1 Y255,5 = +0
 c1111: +1 Y255,6 = +0
 c1112: +1 Y256,1 = +0
 c1113: +1 Y256,4 = +0
 c1114: +1 Y256,5 = +0
 c1115: +1 Y256,6 = +0
 c1116: +1 Y257,1 = +0
 c1117: +1 Y257,4 = +0
 c1118: +1 Y257,5 = +0
 c1119: +1 Y257,6 = +0
 c1120: +1 Y258,1 = +0
 c1121: +1 Y258,4 = +0
 c1122: +1 Y258,5 = +0
 c1123: +1 Y258,6 = +0
 c1124: +1 Y259,1 = +0
 c1125: +1 Y259,4 = +0
 c1126: +1 Y259,5 = +0
 c1127: +1 Y259,6 = +0
 c1128: +1 Y260,1 = +0
 c1129: +1 Y260,4 = +0
 c1130: +1 Y260,5 = +0
 c1131: +1 Y260,6 = +0
 c1132: +1 Y261,1 = +0
 c1133: +1 Y261,4 = +0
 c1134: +1 Y261,5 = +0
 c1135: +1 Y261,6 = +0
 c1136: +1 Y262,1 = +0
 c1137: +1 Y262,4 = +0
 c1138: +1 Y262,5 = +0
 c1139: +1 Y262,6 = +0
 c1140: +1 Y263,1 = +0
 c1141: +1 Y263,4 = +0
 c1142: +1 Y263,5 = +0
 c1143: +1 Y263,6 = +0
 c1144: +1 Y264,1 = +0
 c1145: +1 Y264,4 = +0
 c1146: +1 Y264,5 = +0
 c1147: +1 Y264,6 = +0
 c1148: +1 Y265,1 = +0
 c1149: +1 Y265,4 = +0
 c1150: +1 Y265,5 = +0
 c1151: +1 Y265,6 = +0
 c1152: +1 Y266,1 = +0
 c1153: +1 Y266,4 = +0
 c1154: +1 Y266,5 = +0
 c1155: +1 Y266,6 = +0
 c1156: +1 Y267,1 = +0
 c1157: +1 Y267,4 = +0
 c1158: +1 Y267,5 = +0
 c1159: +1 Y267,6 = +0
 c1160: +1 Y268,1 = +0
 c1161: +1 Y268,4 = +0
 c1162: +1 Y268,5 = +0
 c1163: +1 Y268,6 = +0
 c1164: +1 Y269,1 = +0
 c1165: +1 Y269,4 = +0
 c1166: +1 Y269,5 = +0
 c1167: +1 Y269,6 = +0
 c1168: +1 Y270,1 = +0
 c1169: +1 Y270,4 = +0
 c1170: +1 Y270,5 = +0
 c1171: +1 Y270,6 = +0
 c1172: +1 Y271,1 = +0
 c1173: +1 Y271,4 = +0
 c1174: +1 Y271,5 = +0
 c1175: +1 Y271,6 = +0
 c1176: +1 Y272,1 = +0
 c1177: +1 Y272,4 = +0
 c1178: +1 Y272,5 = +0
 c1179: +1 Y272,6 = +0
 c1180: +1 Y273,1 = +0
 c1181: +1 Y273,4 = +0
 c1182: +1 Y273,5 = +0
 c1183: +1 Y273,6 = +0
 c1184: +1 Y274,1 = +0
 c1185: +1 Y274,4 = +0
 c1186: +1 Y274,5 = +0
 c1187: +1 Y274,6 = +0
 c1188: +1 Y275,1 = +0
 c1189: +1 Y275,4 = +0
 c1190: +1 Y275,5 = +0
 c1191: +1 Y275,6 = +0
 c1192: +1 Y276,1 = +0
 c1193: +1 Y276,4 = +0
 c1194: +1 Y276,5 = +0
 c1195: +1 Y276,6 = +0
 c1196: +1 Y277,1 = +0
 c1197: +1 Y277,4 = +0
 c1198: +1 Y277,5 = +0
 c1199: +1 Y277,6 = +0
 c1200: +1 Y278,1 = +0
 c1201: +1 Y278,4 = +0
 c1202: +1 Y278,5 = +0
 c1203: +1 Y278,6 = +0
 c1204: +1 Y279,1 = +0
 c1205: +1 Y279,4 = +0
 c1206: +1 Y279,5 = +0
 c1207: +1 Y279,6 = +0
 c1208: +1 Y280,1 = +0
 c1209: +1 Y280,4 = +0
 c1210: +1 Y280,5 = +0
 c1211: +1 Y280,6 = +0
 c1212: +1 Y281,1 = +0
 c1213: +1 Y281,4 = +0
 c1214: +1 Y281,5 = +0
 c1215: +1 Y281,6 = +0
 c1216: +1 Y282,1 = +0
 c1217: +1 Y282,4 = +0
 c1218: +1 Y282,5 = +0
 c1219: +1 Y282,6 = +0
 c1220: +1 Y283,1 = +0
 c1221: +1 Y283,4 = +0
 c1222: +1 Y283,5 = +0
 c1223: +1 Y283,6 = +0
 c1224: +1 Y284,1 = +0
 c1225: +1 Y284,4 = +0
 c1226: +1 Y284,5 = +0
 c1227: +1 Y284,6 = +0
 c1228: +1 Y285,1 = +0
 c1229: +1 Y285,4 = +0
 c1230: +1 Y285,5 = +0
 c1231: +1 Y285,6 = +0
 c1232: +1 Y286,1 = +0
 c1233: +1 Y286,4 = +0
 c1234: +1 Y286,5 = +0
 c1235: +1 Y286,6 = +0
 c1236: +1 Y287,1 = +0
 c1237: +1 Y287,4 = +0
 c1238: +1 Y287,5 = +0
 c1239: +1 Y287,6 = +0
 c1240: +1 Y288,1 = +0
 c1241: +1 Y288,4 = +0
 c1242: +1 Y288,5 = +0
 c1243: +1 Y288,6 = +0
 c1244: +1 Y289,1 = +0
 c1245: +1 Y289,4 = +0
 c1246: +1 Y289,5 = +0
 c1247: +1 Y289,6 = +0
 c1248: +1 Y290,1 = +0
 c1249: +1 Y290,4 = +0
 c1250: +1 Y290,5 = +0
 c1251: +1 Y290,6 = +0
 c1252: +1 Y291,1 = +0
 c1253: +1 Y291,4 = +0
 c1254: +1 Y291,5 = +0
 c1255: +1 Y291,6 = +0
 c1256: +1 Y292,1 = +0
 c1257: +1 Y292,4 = +0
 c1258: +1 Y292,5 = +0
 c1259: +1 Y292,6 = +0
 c1260: +1 Y293,1 = +0
 c1261: +1 Y293,4 = +0
 c1262: +1 Y293,5 = +0
 c1263: +1 Y293,6 = +0
 c1264: +1 Y294,1 = +0
 c1265: +1 Y294,4 = +0
 c1266: +1 Y294,5 = +0
 c1267: +1 Y294,6 = +0
 c1268: +1 Y295,1 = +0
 c1269: +1 Y295,4 = +0
 c1270: +1 Y295,5 = +0
 c1271: +1 Y295,6 = +0
 c1272: +1 Y296,1 = +0
 c1273: +1 Y296,4 = +0
 c1274: +1 Y296,5 = +0
 c1275: +1 Y296,6 = +0
 c1276: +1 Y297,1 = +0
 c1277: +1 Y297,4 = +0
 c1278: +1 Y297,5 = +0
 c1279: +1 Y297,6 = +0
 c1280: +1 Y298,1 = +0
 c1281: +1 Y298,4 = +0
 c1282: +1 Y298,5 = +0
 c1283: +1 Y298,6 = +0
 c1284: +1 Y299,1 = +0
 c1285: +1 Y299,4 = +0
 c1286: +1 Y299,5 = +0
 c1287: +1 Y299,6 = +0
 c1288: +1 Y300,1 = +0
 c1289: +1 Y300,4 = +0
 c1290: +1 Y300,5 = +0
 c1291: +1 Y300,6 = +0
 c1292: +1 Y301,1 = +0
 c1293: +1 Y301,4 = +0
 c1294: +1 Y301,5 = +0
 c1295: +1 Y301,6 = +0
 c1296: +1 Y302,1 = +0
 c1297: +1 Y302,4 = +0
 c1298: +1 Y302,5 = +0
 c1299: +1 Y302,6 = +0
 c1300: +1 Y303,1 = +0
 c1301: +1 Y303,4 = +0
 c1302: +1 Y303,5 = +0
 c1303: +1 Y303,6 = +0
 c1304: +1 Y304,1 = +0
 c1305: +1 Y304,4 = +0
 c1306: +1 Y304,5 = +0
 c1307: +1 Y304,6 = +0
 c1308: +1 Y305,1 = +0
 c1309: +1 Y305,4 = +0
 c1310: +1 Y305,5 = +0
 c1311: +1 Y305,6 = +0
 c1312: +1 Y306,1 = +0
 c1313: +1 Y306,4 = +0
 c1314: +1 Y306,5 = +0
 c1315: +1 Y306,6 = +0
 c1316: +1 Y307,1 = +0
 c1317: +1 Y307,4 = +0
 c1318: +1 Y307,5 = +0
 c1319: +1 Y307,6 = +0
 c1320: +1 Y308,1 = +0
 c1321: +1 Y308,4 = +0
 c1322: +1 Y308,5 = +0
 c1323: +1 Y308,6 = +0
 c1324: +1 Y309,1 = +0
 c1325: +1 Y309,4 = +0
 c1326: +1 Y309,5 = +0
 c1327: +1 Y309,6 = +0
 c1328: +1 Y310,1 = +0
 c1329: +1 Y310,4 = +0
 c1330: +1 Y310,5 = +0
 c1331: +1 Y310,6 = +0
 c1332: +1 Y311,1 = +0
 c1333: +1 Y311,4 = +0
 c1334: +1 Y311,5 = +0
 c1335: +1 Y311,6 = +0
 c1336: +1 Y312,1 = +0
 c1337: +1 Y312,4 = +0
 c1338: +1 Y312,5 = +0
 c1339: +1 Y312,6 = +0
 c1340: +1 Y313,1 = +0
 c1341: +1 Y313,4 = +0
 c1342: +1 Y313,5 = +0
 c1343: +1 Y313,6 = +0
 c1344: +1 Y314,1 = +0
 c1345: +1 Y314,4 = +0
 c1346: +1 Y314,5 = +0
 c1347: +1 Y314,6 = +0
 c1348: +1 Y315,1 = +0
 c1349: +1 Y315,4 = +0
 c1350: +1 Y315,5 = +0
 c1351: +1 Y315,6 = +0
 c1352: +1 Y316,1 = +0
 c1353: +1 Y316,4 = +0
 c1354: +1 Y316,5 = +0
 c1355: +1 Y316,6 = +0
 c1356: +1 Y317,1 = +0
 c1357: +1 Y317,4 = +0
 c1358: +1 Y317,5 = +0
 c1359: +1 Y317,6 = +0
 c1360: +1 Y318,1 = +0
 c1361: +1 Y318,4 = +0
 c1362: +1 Y318,5 = +0
 c1363: +1 Y318,6 = +0
 c1364: +1 Y319,1 = +0
 c1365: +1 Y319,4 = +0
 c1366: +1 Y319,5 = +0
 c1367: +1 Y319,6 = +0
 c1368: +1 Y320,1 = +0
 c1369: +1 Y320,4 = +0
 c1370: +1 Y320,5 = +0
 c1371: +1 Y320,6 = +0
 c1372: +1 Y321,1 = +0
 c1373: +1 Y321,4 = +0
 c1374: +1 Y321,5 = +0
 c1375: +1 Y321,6 = +0
 c1376: +1 Y322,1 = +0
 c1377: +1 Y322,4 = +0
 c1378: +1 Y322,5 = +0
 c1379: +1 Y322,6 = +0
 c1380: +1 Y323,1 = +0
 c1381: +1 Y323,4 = +0
 c1382: +1 Y323,5 = +0
 c1383: +1 Y323,6 = +0
 c1384: +1 Y324,1 = +0
 c1385: +1 Y324,4 = +0
 c1386: +1 Y324,5 = +0
 c1387: +1 Y324,6 = +0
 c1388: +1 Y325,1 = +0
 c1389: +1 Y325,4 = +0
 c1390: +1 Y325,5 = +0
 c1391: +1 Y325,6 = +0
 c1392: +1 Y326,1 = +0
 c1393: +1 Y326,4 = +0
 c1394: +1 Y326,5 = +0
 c1395: +1 Y326,6 = +0
 c1396: +1 Y327,1 = +0
 c1397: +1 Y327,4 = +0
 c1398: +1 Y327,5 = +0
 c1399: +1 Y327,6 = +0
 c1400: +1 Y328,1 = +0
 c1401: +1 Y328,4 = +0
 c1402: +1 Y328,5 = +0
 c1403: +1 Y328,6 = +0
 c1404: +1 Y329,1 = +0
 c1405: +1 Y329,4 = +0
 c1406: +1 Y329,5 = +0
 c1407: +1 Y329,6 = +0
 c1408: +1 Y330,1 = +0
 c1409: +1 Y330,4 = +0
 c1410: +1 Y330,5 = +0
 c1411: +1 Y330,6 = +0
 c1412: +1 Y331,1 = +0
 c1413: +1 Y331,4 = +0
 c1414: +1 Y331,5 = +0
 c1415: +1 Y331,6 = +0
 c1416: +1 Y332,1 = +0
 c1417: +1 Y332,4 = +0
 c1418: +1 Y332,5 = +0
 c1419: +1 Y332,6 = +0
 c1420: +1 Y333,1 = +0
 c1421: +1 Y333,4 = +0
 c1422: +1 Y333,5 = +0
 c1423: +1 Y333,6 = +0
 c1424: +1 Y334,1 = +0
 c1425: +1 Y334,4 = +0
 c1426: +1 Y334,5 = +0
 c1427: +1 Y334,6 = +0
 c1428: +1 Y335,1 = +0
 c1429: +1 Y335,4 = +0
 c1430: +1 Y335,5 = +0
 c1431: +1 Y335,6 = +0
 c1432: +1 Y336,1 = +0
 c1433: +1 Y336,4 = +0
 c1434: +1 Y336,5 = +0
 c1435: +1 Y336,6 = +0
 c1436: +1 Y337,1 = +0
 c1437: +1 Y337,4 = +0
 c1438: +1 Y337,5 = +0
 c1439: +1 Y337,6 = +0
 c1440: +1 Y338,1 = +0
 c1441: +1 Y338,4 = +0
 c1442: +1 Y338,5 = +0
 c1443: +1 Y338,6 = +0
 c1444: +1 Y339,1 = +0
 c1445: +1 Y339,4 = +0
 c1446: +1 Y339,5 = +0
 c1447: +1 Y339,6 = +0
 c1448: +1 Y340,1 = +0
 c1449: +1 Y340,4 = +0
 c1450: +1 Y340,5 = +0
 c1451: +1 Y340,6 = +0
 c1452: +1 Y341,1 = +0
 c1453: +1 Y341,4 = +0
 c1454: +1 Y341,5 = +0
 c1455: +1 Y341,6 = +0
 c1456: +1 Y342,1 = +0
 c1457: +1 Y342,4 = +0
 c1458: +1 Y342,5 = +0
 c1459: +1 Y342,6 = +0
 c1460: +1 Y343,1 = +0
 c1461: +1 Y343,4 = +0
 c1462: +1 Y343,5 = +0
 c1463: +1 Y343,6 = +0
 c1464: +1 Y344,1 = +0
 c1465: +1 Y344,4 = +0
 c1466: +1 Y344,5 = +0
 c1467: +1 Y344,6 = +0
 c1468: +1 Y345,1 = +0
 c1469: +1 Y345,4 = +0
 c1470: +1 Y345,5 = +0
 c1471: +1 Y345,6 = +0
 c1472: +1 Y346,1 = +0
 c1473: +1 Y346,4 = +0
 c1474: +1 Y346,5 = +0
 c1475: +1 Y346,6 = +0
 c1476: +1 Y347,1 = +0
 c1477: +1 Y347,4 = +0
 c1478: +1 Y347,5 = +0
 c1479: +1 Y347,6 = +0
 c1480: +1 Y348,1 = +0
 c1481: +1 Y348,4 = +0
 c1482: +1 Y348,5 = +0
 c1483: +1 Y348,6 = +0
 c1484: +1 Y349,2 = +0
 c1485: +1 Y349,3 = +0
 c1486: +1 Y349,4 = +0
 c1487: +1 Y349,5 = +0
 c1488: +1 Y349,6 = +0
 c1489: +1 Y350,2 = +0
 c1490: +1 Y350,3 = +0
 c1491: +1 Y350,4 = +0
 c1492: +1 Y350,5 = +0
 c1493: +1 Y350,6 = +0
 c1494: +1 Y351,2 = +0
 c1495: +1 Y351,3 = +0
 c1496: +1 Y351,4 = +0
 c1497: +1 Y351,5 = +0
 c1498: +1 Y351,6 = +0
 c1499: +1 Y352,2 = +0
 c1500: +1 Y352,3 = +0
 c1501: +1 Y352,4 = +0
 c1502: +1 Y352,5 = +0
 c1503: +1 Y352,6 = +0
 c1504: +1 Y353,2 = +0
 c1505: +1 Y353,3 = +0
 c1506: +1 Y353,4 = +0
 c1507: +1 Y353,5 = +0
 c1508: +1 Y353,6 = +0
 c1509: +1 Y354,2 = +0
 c1510: +1 Y354,3 = +0
 c1511: +1 Y354,4 = +0
 c1512: +1 Y354,5 = +0
 c1513: +1 Y354,6 = +0
 c1514: +1 Y355,2 = +0
 c1515: +1 Y355,3 = +0
 c1516: +1 Y355,4 = +0
 c1517: +1 Y355,5 = +0
 c1518: +1 Y355,6 = +0
 c1519: +1 Y356,2 = +0
 c1520: +1 Y356,3 = +0
 c1521: +1 Y356,4 = +0
 c1522: +1 Y356,5 = +0
 c1523: +1 Y356,6 = +0
 c1524: +1 Y357,2 = +0
 c1525: +1 Y357,3 = +0
 c1526: +1 Y357,4 = +0
 c1527: +1 Y357,5 = +0
 c1528: +1 Y357,6 = +0
 c1529: +1 Y358,2 = +0
 c1530: +1 Y358,3 = +0
 c1531: +1 Y358,4 = +0
 c1532: +1 Y358,5 = +0
 c1533: +1 Y358,6 = +0
 c1534: +1 Y359,2 = +0
 c1535: +1 Y359,3 = +0
 c1536: +1 Y359,4 = +0
 c1537: +1 Y359,5 = +0
 c1538: +1 Y359,6 = +0
 c1539: +1 Y360,2 = +0
 c1540: +1 Y360,3 = +0
 c1541: +1 Y360,4 = +0
 c1542: +1 Y360,5 = +0
 c1543: +1 Y360,6 = +0
 c1544: +1 Y361,2 = +0
 c1545: +1 Y361,3 = +0
 c1546: +1 Y361,4 = +0
 c1547: +1 Y361,5 = +0
 c1548: +1 Y361,6 = +0
 c1549: +1 Y362,2 = +0
 c1550: +1 Y362,3 = +0
 c1551: +1 Y362,4 = +0
 c1552: +1 Y362,5 = +0
 c1553: +1 Y362,6 = +0
 c1554: +1 Y363,2 = +0
 c1555: +1 Y363,3 = +0
 c1556: +1 Y363,4 = +0
 c1557: +1 Y363,5 = +0
 c1558: +1 Y363,6 = +0
 c1559: +1 Y364,2 = +0
 c1560: +1 Y364,3 = +0
 c1561: +1 Y364,4 = +0
 c1562: +1 Y364,5 = +0
 c1563: +1 Y364,6 = +0
 c1564: +1 Y365,2 = +0
 c1565: +1 Y365,3 = +0
 c1566: +1 Y365,4 = +0
 c1567: +1 Y365,5 = +0
 c1568: +1 Y365,6 = +0
 c1569: +1 Y366,2 = +0
 c1570: +1 Y366,3 = +0
 c1571: +1 Y366,4 = +0
 c1572: +1 Y366,5 = +0
 c1573: +1 Y366,6 = +0
 c1574: +1 Y367,2 = +0
 c1575: +1 Y367,3 = +0
 c1576: +1 Y367,4 = +0
 c1577: +1 Y367,5 = +0
 c1578: +1 Y367,6 = +0
 c1579: +1 Y368,2 = +0
 c1580: +1 Y368,3 = +0
 c1581: +1 Y368,4 = +0
 c1582: +1 Y368,5 = +0
 c1583: +1 Y368,6 = +0
 c1584: +1 Y369,2 = +0
 c1585: +1 Y369,3 = +0
 c1586: +1 Y369,4 = +0
 c1587: +1 Y369,5 = +0
 c1588: +1 Y369,6 = +0
 c1589: +1 Y370,2 = +0
 c1590: +1 Y370,3 = +0
 c1591: +1 Y370,4 = +0
 c1592: +1 Y370,5 = +0
 c1593: +1 Y370,6 = +0
 c1594: +1 Y371,2 = +0
 c1595: +1 Y371,3 = +0
 c1596: +1 Y371,4 = +0
 c1597: +1 Y371,5 = +0
 c1598: +1 Y371,6 = +0
 c1599: +1 Y372,2 = +0
 c1600: +1 Y372,3 = +0
 c1601: +1 Y372,4 = +0
 c1602: +1 Y372,5 = +0
 c1603: +1 Y372,6 = +0
 c1604: +1 Y373,2 = +0
 c1605: +1 Y373,3 = +0
 c1606: +1 Y373,4 = +0
 c1607: +1 Y373,5 = +0
 c1608: +1 Y373,6 = +0
 c1609: +1 Y374,2 = +0
 c1610: +1 Y374,3 = +0
 c1611: +1 Y374,4 = +0
 c1612: +1 Y374,5 = +0
 c1613: +1 Y374,6 = +0
 c1614: +1 Y375,2 = +0
 c1615: +1 Y375,3 = +0
 c1616: +1 Y375,4 = +0
 c1617: +1 Y375,5 = +0
 c1618: +1 Y375,6 = +0
 c1619: +1 Y376,2 = +0
 c1620: +1 Y376,3 = +0
 c1621: +1 Y376,4 = +0
 c1622: +1 Y376,5 = +0
 c1623: +1 Y376,6 = +0
 c1624: +1 Y377,2 = +0
 c1625: +1 Y377,3 = +0
 c1626: +1 Y377,4 = +0
 c1627: +1 Y377,5 = +0
 c1628: +1 Y377,6 = +0
 c1629: +1 Y378,2 = +0
 c1630: +1 Y378,3 = +0
 c1631: +1 Y378,4 = +0
 c1632: +1 Y378,5 = +0
 c1633: +1 Y378,6 = +0
 c1634: +1 Y379,2 = +0
 c1635: +1 Y379,3 = +0
 c1636: +1 Y379,4 = +0
 c1637: +1 Y379,5 = +0
 c1638: +1 Y379,6 = +0
 c1639: +1 Y380,2 = +0
 c1640: +1 Y380,3 = +0
 c1641: +1 Y380,4 = +0
 c1642: +1 Y380,5 = +0
 c1643: +1 Y380,6 = +0
 c1644: +1 Y381,2 = +0
 c1645: +1 Y381,3 = +0
 c1646: +1 Y381,4 = +0
 c1647: +1 Y381,5 = +0
 c1648: +1 Y381,6 = +0
 c1649: +1 Y382,2 = +0
 c1650: +1 Y382,3 = +0
 c1651: +1 Y382,4 = +0
 c1652: +1 Y382,5 = +0
 c1653: +1 Y382,6 = +0
 c1654: +1 Y383,2 = +0
 c1655: +1 Y383,3 = +0
 c1656: +1 Y383,4 = +0
 c1657: +1 Y383,5 = +0
 c1658: +1 Y383,6 = +0
 c1659: +1 Y384,2 = +0
 c1660: +1 Y384,3 = +0
 c1661: +1 Y384,4 = +0
 c1662: +1 Y384,5 = +0
 c1663: +1 Y384,6 = +0
 c1664: +1 Y385,2 = +0
 c1665: +1 Y385,3 = +0
 c1666: +1 Y385,4 = +0
 c1667: +1 Y385,5 = +0
 c1668: +1 Y385,6 = +0
 c1669: +1 Y386,2 = +0
 c1670: +1 Y386,3 = +0
 c1671: +1 Y386,4 = +0
 c1672: +1 Y386,5 = +0
 c1673: +1 Y386,6 = +0
 c1674: +1 Y387,2 = +0
 c1675: +1 Y387,3 = +0
 c1676: +1 Y387,4 = +0
 c1677: +1 Y387,5 = +0
 c1678: +1 Y387,6 = +0
 c1679: +1 Y388,2 = +0
 c1680: +1 Y388,3 = +0
 c1681: +1 Y388,4 = +0
 c1682: +1 Y388,5 = +0
 c1683: +1 Y388,6 = +0
 c1684: +1 Y389,2 = +0
 c1685: +1 Y389,3 = +0
 c1686: +1 Y389,4 = +0
 c1687: +1 Y389,5 = +0
 c1688: +1 Y389,6 = +0
 c1689: +1 Y390,2 = +0
 c1690: +1 Y390,3 = +0
 c1691: +1 Y390,4 = +0
 c1692: +1 Y390,5 = +0
 c1693: +1 Y390,6 = +0
 c1694: +1 Y391,2 = +0
 c1695: +1 Y391,3 = +0
 c1696: +1 Y391,4 = +0
 c1697: +1 Y391,5 = +0
 c1698: +1 Y391,6 = +0
 c1699: +1 Y392,2 = +0
 c1700: +1 Y392,3 = +0
 c1701: +1 Y392,4 = +0
 c1702: +1 Y392,5 = +0
 c1703: +1 Y392,6 = +0
 c1704: +1 Y393,2 = +0
 c1705: +1 Y393,3 = +0
 c1706: +1 Y393,4 = +0
 c1707: +1 Y393,5 = +0
 c1708: +1 Y393,6 = +0
 c1709: +1 Y394,2 = +0
 c1710: +1 Y394,3 = +0
 c1711: +1 Y394,4 = +0
 c1712: +1 Y394,5 = +0
 c1713: +1 Y394,6 = +0
 c1714: +1 Y395,2 = +0
 c1715: +1 Y395,3 = +0
 c1716: +1 Y395,4 = +0
 c1717: +1 Y395,5 = +0
 c1718: +1 Y395,6 = +0
 c1719: +1 Y396,2 = +0
 c1720: +1 Y396,3 = +0
 c1721: +1 Y396,4 = +0
 c1722: +1 Y396,5 = +0
 c1723: +1 Y396,6 = +0
 c1724: +1 Y397,2 = +0
 c1725: +1 Y397,3 = +0
 c1726: +1 Y397,4 = +0
 c1727: +1 Y397,5 = +0
 c1728: +1 Y397,6 = +0
 c1729: +1 Y398,2 = +0
 c1730: +1 Y398,3 = +0
 c1731: +1 Y398,4 = +0
 c1732: +1 Y398,5 = +0
 c1733: +1 Y398,6 = +0
 c1734: +1 Y399,2 = +0
 c1735: +1 Y399,3 = +0
 c1736: +1 Y399,4 = +0
 c1737: +1 Y399,5 = +0
 c1738: +1 Y399,6 = +0
 c1739: +1 Y400,2 = +0
 c1740: +1 Y400,3 = +0
 c1741: +1 Y400,4 = +0
 c1742: +1 Y400,5 = +0
 c1743: +1 Y400,6 = +0
 c1744: +1 Y401,2 = +0
 c1745: +1 Y401,3 = +0
 c1746: +1 Y401,4 = +0
 c1747: +1 Y401,5 = +0
 c1748: +1 Y401,6 = +0
 c1749: +1 Y402,2 = +0
 c1750: +1 Y402,3 = +0
 c1751: +1 Y402,4 = +0
 c1752: +1 Y402,5 = +0
 c1753: +1 Y402,6 = +0
 c1754: +1 Y403,2 = +0
 c1755: +1 Y403,3 = +0
 c1756: +1 Y403,4 = +0
 c1757: +1 Y403,5 = +0
 c1758: +1 Y403,6 = +0
 c1759: +1 Y404,2 = +0
 c1760: +1 Y404,3 = +0
 c1761: +1 Y404,4 = +0
 c1762: +1 Y404,5 = +0
 c1763: +1 Y404,6 = +0
 c1764: +1 Y405,2 = +0
 c1765: +1 Y405,3 = +0
 c1766: +1 Y405,4 = +0
 c1767: +1 Y405,5 = +0
 c1768: +1 Y405,6 = +0
 c1769: +1 Y406,2 = +0
 c1770: +1 Y406,3 = +0
 c1771: +1 Y406,4 = +0
 c1772: +1 Y406,5 = +0
 c1773: +1 Y406,6 = +0
 c1774: +1 Y407,2 = +0
 c1775: +1 Y407,3 = +0
 c1776: +1 Y407,4 = +0
 c1777: +1 Y407,5 = +0
 c1778: +1 Y407,6 = +0
 c1779: +1 Y408,2 = +0
 c1780: +1 Y408,3 = +0
 c1781: +1 Y408,4 = +0
 c1782: +1 Y408,5 = +0
 c1783: +1 Y408,6 = +0
 c1784: +1 Y409,2 = +0
 c1785: +1 Y409,3 = +0
 c1786: +1 Y409,4 = +0
 c1787: +1 Y409,5 = +0
 c1788: +1 Y409,6 = +0
 c1789: +1 Y410,2 = +0
 c1790: +1 Y410,3 = +0
 c1791: +1 Y410,4 = +0
 c1792: +1 Y410,5 = +0
 c1793: +1 Y410,6 = +0
 c1794: +1 Y411,2 = +0
 c1795: +1 Y411,3 = +0
 c1796: +1 Y411,4 = +0
 c1797: +1 Y411,5 = +0
 c1798: +1 Y411,6 = +0
 c1799: +1 Y412,2 = +0
 c1800: +1 Y412,3 = +0
 c1801: +1 Y412,4 = +0
 c1802: +1 Y412,5 = +0
 c1803: +1 Y412,6 = +0
 c1804: +1 Y413,2 = +0
 c1805: +1 Y413,3 = +0
 c1806: +1 Y413,4 = +0
 c1807: +1 Y413,5 = +0
 c1808: +1 Y413,6 = +0
 c1809: +1 Y414,2 = +0
 c1810: +1 Y414,3 = +0
 c1811: +1 Y414,4 = +0
 c1812: +1 Y414,5 = +0
 c1813: +1 Y414,6 = +0
 c1814: +1 Y415,2 = +0
 c1815: +1 Y415,3 = +0
 c1816: +1 Y415,4 = +0
 c1817: +1 Y415,5 = +0
 c1818: +1 Y415,6 = +0
 c1819: +1 Y416,2 = +0
 c1820: +1 Y416,3 = +0
 c1821: +1 Y416,4 = +0
 c1822: +1 Y416,5 = +0
 c1823: +1 Y416,6 = +0
 c1824: +1 Y417,2 = +0
 c1825: +1 Y417,3 = +0
 c1826: +1 Y417,4 = +0
 c1827: +1 Y417,5 = +0
 c1828: +1 Y417,6 = +0
 c1829: +1 Y418,2 = +0
 c1830: +1 Y418,3 = +0
 c1831: +1 Y418,4 = +0
 c1832: +1 Y418,5 = +0
 c1833: +1 Y418,6 = +0
 c1834: +1 Y419,2 = +0
 c1835: +1 Y419,3 = +0
 c1836: +1 Y419,4 = +0
 c1837: +1 Y419,5 = +0
 c1838: +1 Y419,6 = +0
 c1839: +1 Y420,2 = +0
 c1840: +1 Y420,3 = +0
 c1841: +1 Y420,4 = +0
 c1842: +1 Y420,5 = +0
 c1843: +1 Y420,6 = +0
 c1844: +1 Y421,2 = +0
 c1845: +1 Y421,3 = +0
 c1846: +1 Y421,4 = +0
 c1847: +1 Y421,5 = +0
 c1848: +1 Y421,6 = +0
 c1849: +1 Y422,2 = +0
 c1850: +1 Y422,3 = +0
 c1851: +1 Y422,4 = +0
 c1852: +1 Y422,5 = +0
 c1853: +1 Y422,6 = +0
 c1854: +1 Y423,2 = +0
 c1855: +1 Y423,3 = +0
 c1856: +1 Y423,4 = +0
 c1857: +1 Y423,5 = +0
 c1858: +1 Y423,6 = +0
 c1859: +1 Y424,2 = +0
 c1860: +1 Y424,3 = +0
 c1861: +1 Y424,4 = +0
 c1862: +1 Y424,5 = +0
 c1863: +1 Y424,6 = +0
 c1864: +1 Y425,2 = +0
 c1865: +1 Y425,3 = +0
 c1866: +1 Y425,4 = +0
 c1867: +1 Y425,5 = +0
 c1868: +1 Y425,6 = +0
 c1869: +1 Y426,2 = +0
 c1870: +1 Y426,3 = +0
 c1871: +1 Y426,4 = +0
 c1872: +1 Y426,5 = +0
 c1873: +1 Y426,6 = +0
 c1874: +1 Y427,2 = +0
 c1875: +1 Y427,3 = +0
 c1876: +1 Y427,4 = +0
 c1877: +1 Y427,5 = +0
 c1878: +1 Y427,6 = +0
 c1879: +1 Y428,2 = +0
 c1880: +1 Y428,3 = +0
 c1881: +1 Y428,4 = +0
 c1882: +1 Y428,5 = +0
 c1883: +1 Y428,6 = +0
 c1884: +1 Y429,2 = +0
 c1885: +1 Y429,3 = +0
 c1886: +1 Y429,4 = +0
 c1887: +1 Y429,5 = +0
 c1888: +1 Y429,6 = +0
 c1889: +1 Y430,2 = +0
 c1890: +1 Y430,3 = +0
 c1891: +1 Y430,4 = +0
 c1892: +1 Y430,5 = +0
 c1893: +1 Y430,6 = +0
 c1894: +1 Y431,2 = +0
 c1895: +1 Y431,3 = +0
 c1896: +1 Y431,4 = +0
 c1897: +1 Y431,5 = +0
 c1898: +1 Y431,6 = +0
 c1899: +1 Y432,2 = +0
 c1900: +1 Y432,3 = +0
 c1901: +1 Y432,4 = +0
 c1902: +1 Y432,5 = +0
 c1903: +1 Y432,6 = +0
 c1904: +1 Y433,2 = +0
 c1905: +1 Y433,3 = +0
 c1906: +1 Y433,4 = +0
 c1907: +1 Y433,5 = +0
 c1908: +1 Y433,6 = +0
 c1909: +1 Y434,2 = +0
 c1910: +1 Y434,3 = +0
 c1911: +1 Y434,4 = +0
 c1912: +1 Y434,5 = +0
 c1913: +1 Y434,6 = +0
 c1914: +1 Y435,2 = +0
 c1915: +1 Y435,3 = +0
 c1916: +1 Y435,4 = +0
 c1917: +1 Y435,5 = +0
 c1918: +1 Y435,6 = +0
 c1919: +1 Y436,2 = +0
 c1920: +1 Y436,3 = +0
 c1921: +1 Y436,4 = +0
 c1922: +1 Y436,5 = +0
 c1923: +1 Y436,6 = +0
 c1924: +1 Y437,2 = +0
 c1925: +1 Y437,3 = +0
 c1926: +1 Y437,4 = +0
 c1927: +1 Y437,5 = +0
 c1928: +1 Y437,6 = +0
 c1929: +1 Y438,2 = +0
 c1930: +1 Y438,3 = +0
 c1931: +1 Y438,4 = +0
 c1932: +1 Y438,5 = +0
 c1933: +1 Y438,6 = +0
 c1934: +1 Y439,2 = +0
 c1935: +1 Y439,3 = +0
 c1936: +1 Y439,4 = +0
 c1937: +1 Y439,5 = +0
 c1938: +1 Y439,6 = +0
 c1939: +1 Y440,2 = +0
 c1940: +1 Y440,3 = +0
 c1941: +1 Y440,4 = +0
 c1942: +1 Y440,5 = +0
 c1943: +1 Y440,6 = +0
 c1944: +1 Y441,2 = +0
 c1945: +1 Y441,3 = +0
 c1946: +1 Y441,4 = +0
 c1947: +1 Y441,5 = +0
 c1948: +1 Y441,6 = +0
 c1949: +1 Y442,2 = +0
 c1950: +1 Y442,3 = +0
 c1951: +1 Y442,4 = +0
 c1952: +1 Y442,5 = +0
 c1953: +1 Y442,6 = +0
 c1954: +1 Y443,2 = +0
 c1955: +1 Y443,3 = +0
 c1956: +1 Y443,4 = +0
 c1957: +1 Y443,5 = +0
 c1958: +1 Y443,6 = +0
 c1959: +1 Y444,2 = +0
 c1960: +1 Y444,3 = +0
 c1961: +1 Y444,4 = +0
 c1962: +1 Y444,5 = +0
 c1963: +1 Y444,6 = +0
 c1964: +1 Y445,2 = +0
 c1965: +1 Y445,3 = +0
 c1966: +1 Y445,4 = +0
 c1967: +1 Y445,5 = +0
 c1968: +1 Y445,6 = +0
 c1969: +1 Y446,2 = +0
 c1970: +1 Y446,3 = +0
 c1971: +1 Y446,4 = +0
 c1972: +1 Y446,5 = +0
 c1973: +1 Y446,6 = +0
 c1974: +1 Y447,2 = +0
 c1975: +1 Y447,3 = +0
 c1976: +1 Y447,4 = +0
 c1977: +1 Y447,5 = +0
 c1978: +1 Y447,6 = +0
 c1979: +1 Y448,2 = +0
 c1980: +1 Y448,3 = +0
 c1981: +1 Y448,4 = +0
 c1982: +1 Y448,5 = +0
 c1983: +1 Y448,6 = +0
 c1984: +1 Y449,2 = +0
 c1985: +1 Y449,3 = +0
 c1986: +1 Y449,4 = +0
 c1987: +1 Y449,5 = +0
 c1988: +1 Y449,6 = +0
 c1989: +1 Y450,2 = +0
 c1990: +1 Y450,3 = +0
 c1991: +1 Y450,4 = +0
 c1992: +1 Y450,5 = +0
 c1993: +1 Y450,6 = +0
 c1994: +1 Y451,2 = +0
 c1995: +1 Y451,3 = +0
 c1996: +1 Y451,4 = +0
 c1997: +1 Y451,5 = +0
 c1998: +1 Y451,6 = +0
 c1999: +1 Y452,2 = +0
 c2000: +1 Y452,3 = +0
 c2001: +1 Y452,4 = +0
 c2002: +1 Y452,5 = +0
 c2003: +1 Y452,6 = +0
 c2004: +1 Y453,2 = +0
 c2005: +1 Y453,3 = +0
 c2006: +1 Y453,4 = +0
 c2007: +1 Y453,5 = +0
 c2008: +1 Y453,6 = +0
 c2009: +1 Y454,2 = +0
 c2010: +1 Y454,3 = +0
 c2011: +1 Y454,4 = +0
 c2012: +1 Y454,5 = +0
 c2013: +1 Y454,6 = +0
 c2014: +1 Y455,2 = +0
 c2015: +1 Y455,3 = +0
 c2016: +1 Y455,4 = +0
 c2017: +1 Y455,5 = +0
 c2018: +1 Y455,6 = +0
 c2019: +1 Y456,2 = +0
 c2020: +1 Y456,3 = +0
 c2021: +1 Y456,4 = +0
 c2022: +1 Y456,5 = +0
 c2023: +1 Y456,6 = +0
 c2024: +1 Y457,2 = +0
 c2025: +1 Y457,3 = +0
 c2026: +1 Y457,4 = +0
 c2027: +1 Y457,5 = +0
 c2028: +1 Y457,6 = +0
 c2029: +1 Y458,2 = +0
 c2030: +1 Y458,3 = +0
 c2031: +1 Y458,4 = +0
 c2032: +1 Y458,5 = +0
 c2033: +1 Y458,6 = +0
 c2034: +1 Y459,2 = +0
 c2035: +1 Y459,3 = +0
 c2036: +1 Y459,4 = +0
 c2037: +1 Y459,5 = +0
 c2038: +1 Y459,6 = +0
 c2039: +1 Y460,2 = +0
 c2040: +1 Y460,3 = +0
 c2041: +1 Y460,4 = +0
 c2042: +1 Y460,5 = +0
 c2043: +1 Y460,6 = +0
 c2044: +1 Y461,2 = +0
 c2045: +1 Y461,3 = +0
 c2046: +1 Y461,4 = +0
 c2047: +1 Y461,5 = +0
 c2048: +1 Y461,6 = +0
 c2049: +1 Y462,2 = +0
 c2050: +1 Y462,3 = +0
 c2051: +1 Y462,4 = +0
 c2052: +1 Y462,5 = +0
 c2053: +1 Y462,6 = +0
 c2054: +1 Y463,2 = +0
 c2055: +1 Y463,3 = +0
 c2056: +1 Y463,4 = +0
 c2057: +1 Y463,5 = +0
 c2058: +1 Y463,6 = +0
 c2059: +1 Y464,2 = +0
 c2060: +1 Y464,3 = +0
 c2061: +1 Y464,4 = +0
 c2062: +1 Y464,5 = +0
 c2063: +1 Y464,6 = +0
 c2064: +1 Y465,2 = +0
 c2065: +1 Y465,3 = +0
 c2066: +1 Y465,4 = +0
 c2067: +1 Y465,5 = +0
 c2068: +1 Y465,6 = +0
 c2069: +1 Y466,2 = +0
 c2070: +1 Y466,3 = +0
 c2071: +1 Y466,4 = +0
 c2072: +1 Y466,5 = +0
 c2073: +1 Y466,6 = +0
 c2074: +1 Y467,2 = +0
 c2075: +1 Y467,3 = +0
 c2076: +1 Y467,4 = +0
 c2077: +1 Y467,5 = +0
 c2078: +1 Y467,6 = +0
 c2079: +1 Y468,2 = +0
 c2080: +1 Y468,3 = +0
 c2081: +1 Y468,4 = +0
 c2082: +1 Y468,5 = +0
 c2083: +1 Y468,6 = +0
 c2084: +1 Y469,2 = +0
 c2085: +1 Y469,3 = +0
 c2086: +1 Y469,4 = +0
 c2087: +1 Y469,5 = +0
 c2088: +1 Y469,6 = +0
 c2089: +1 Y470,2 = +0
 c2090: +1 Y470,3 = +0
 c2091: +1 Y470,4 = +0
 c2092: +1 Y470,5 = +0
 c2093: +1 Y470,6 = +0
 c2094: +1 Y471,2 = +0
 c2095: +1 Y471,3 = +0
 c2096: +1 Y471,4 = +0
 c2097: +1 Y471,5 = +0
 c2098: +1 Y471,6 = +0
 c2099: +1 Y472,2 = +0
 c2100: +1 Y472,3 = +0
 c2101: +1 Y472,4 = +0
 c2102: +1 Y472,5 = +0
 c2103: +1 Y472,6 = +0
 c2104: +1 Y473,2 = +0
 c2105: +1 Y473,3 = +0
 c2106: +1 Y473,4 = +0
 c2107: +1 Y473,5 = +0
 c2108: +1 Y473,6 = +0
 c2109: +1 Y474,2 = +0
 c2110: +1 Y474,3 = +0
 c2111: +1 Y474,4 = +0
 c2112: +1 Y474,5 = +0
 c2113: +1 Y474,6 = +0
 c2114: +1 Y475,2 = +0
 c2115: +1 Y475,3 = +0
 c2116: +1 Y475,4 = +0
 c2117: +1 Y475,5 = +0
 c2118: +1 Y475,6 = +0
 c2119: +1 Y476,1 = +0
 c2120: +1 Y476,3 = +0
 c2121: +1 Y476,5 = +0
 c2122: +1 Y477,1 = +0
 c2123: +1 Y477,3 = +0
 c2124: +1 Y477,5 = +0
 c2125: +1 Y478,1 = +0
 c2126: +1 Y478,3 = +0
 c2127: +1 Y478,5 = +0
 c2128: +1 Y479,1 = +0
 c2129: +1 Y479,3 = +0
 c2130: +1 Y479,5 = +0
 c2131: +1 Y480,1 = +0
 c2132: +1 Y480,3 = +0
 c2133: +1 Y480,5 = +0
 c2134: +1 Y481,1 = +0
 c2135: +1 Y481,3 = +0
 c2136: +1 Y481,5 = +0
 c2137: +1 Y482,1 = +0
 c2138: +1 Y482,3 = +0
 c2139: +1 Y482,5 = +0
 c2140: +1 Y483,1 = +0
 c2141: +1 Y483,3 = +0
 c2142: +1 Y483,5 = +0
 c2143: +1 Y484,1 = +0
 c2144: +1 Y484,3 = +0
 c2145: +1 Y484,5 = +0
 c2146: +1 Y485,1 = +0
 c2147: +1 Y485,3 = +0
 c2148: +1 Y485,5 = +0
 c2149: +1 Y486,1 = +0
 c2150: +1 Y486,3 = +0
 c2151: +1 Y486,5 = +0
 c2152: +1 Y487,1 = +0
 c2153: +1 Y487,3 = +0
 c2154: +1 Y487,5 = +0
 c2155: +1 Y488,1 = +0
 c2156: +1 Y488,3 = +0
 c2157: +1 Y488,5 = +0
 c2158: +1 Y489,1 = +0
 c2159: +1 Y489,3 = +0
 c2160: +1 Y489,5 = +0
 c2161: +1 Y490,1 = +0
 c2162: +1 Y490,3 = +0
 c2163: +1 Y490,5 = +0
 c2164: +1 Y491,1 = +0
 c2165: +1 Y491,3 = +0
 c2166: +1 Y491,5 = +0
 c2167: +1 Y492,1 = +0
 c2168: +1 Y492,3 = +0
 c2169: +1 Y492,5 = +0
 c2170: +1 Y493,1 = +0
 c2171: +1 Y493,3 = +0
 c2172: +1 Y493,5 = +0
 c2173: +1 Y494,1 = +0
 c2174: +1 Y494,3 = +0
 c2175: +1 Y494,5 = +0
 c2176: +1 Y495,1 = +0
 c2177: +1 Y495,3 = +0
 c2178: +1 Y495,5 = +0
 c2179: +1 Y496,1 = +0
 c2180: +1 Y496,3 = +0
 c2181: +1 Y496,5 = +0
 c2182: +1 Y497,1 = +0
 c2183: +1 Y497,3 = +0
 c2184: +1 Y497,5 = +0
 c2185: +1 Y498,1 = +0
 c2186: +1 Y498,3 = +0
 c2187: +1 Y498,5 = +0
 c2188: +1 Y499,1 = +0
 c2189: +1 Y499,3 = +0
 c2190: +1 Y499,5 = +0
 c2191: +1 Y500,1 = +0
 c2192: +1 Y500,3 = +0
 c2193: +1 Y500,5 = +0
 c2194: +1 Y501,1 = +0
 c2195: +1 Y501,3 = +0
 c2196: +1 Y501,5 = +0
 c2197: +1 Y502,1 = +0
 c2198: +1 Y502,3 = +0
 c2199: +1 Y502,5 = +0
 c2200: +1 Y503,1 = +0
 c2201: +1 Y503,3 = +0
 c2202: +1 Y503,5 = +0
 c2203: +1 Y504,1 = +0
 c2204: +1 Y504,3 = +0
 c2205: +1 Y504,5 = +0
 c2206: +1 Y505,1 = +0
 c2207: +1 Y505,3 = +0
 c2208: +1 Y505,5 = +0
 c2209: +1 Y506,1 = +0
 c2210: +1 Y506,3 = +0
 c2211: +1 Y506,5 = +0
 c2212: +1 Y507,1 = +0
 c2213: +1 Y507,3 = +0
 c2214: +1 Y507,5 = +0
 c2215: +1 Y508,1 = +0
 c2216: +1 Y508,3 = +0
 c2217: +1 Y508,5 = +0
 c2218: +1 Y509,1 = +0
 c2219: +1 Y509,3 = +0
 c2220: +1 Y509,5 = +0
 c2221: +1 Y510,1 = +0
 c2222: +1 Y510,3 = +0
 c2223: +1 Y510,5 = +0
 c2224: +1 Y511,1 = +0
 c2225: +1 Y511,3 = +0
 c2226: +1 Y511,5 = +0
 c2227: +1 Y512,1 = +0
 c2228: +1 Y512,3 = +0
 c2229: +1 Y512,5 = +0
 c2230: +1 Y513,1 = +0
 c2231: +1 Y513,3 = +0
 c2232: +1 Y513,5 = +0
 c2233: +1 Y514,1 = +0
 c2234: +1 Y514,3 = +0
 c2235: +1 Y514,5 = +0
 c2236: +1 Y515,1 = +0
 c2237: +1 Y515,3 = +0
 c2238: +1 Y515,5 = +0
 c2239: +1 Y516,1 = +0
 c2240: +1 Y516,3 = +0
 c2241: +1 Y516,5 = +0
 c2242: +1 Y517,1 = +0
 c2243: +1 Y517,3 = +0
 c2244: +1 Y517,5 = +0
 c2245: +1 Y518,1 = +0
 c2246: +1 Y518,3 = +0
 c2247: +1 Y518,5 = +0
 c2248: +1 Y519,1 = +0
 c2249: +1 Y519,3 = +0
 c2250: +1 Y519,5 = +0
 c2251: +1 Y520,1 = +0
 c2252: +1 Y520,3 = +0
 c2253: +1 Y520,5 = +0
 c2254: +1 Y521,1 = +0
 c2255: +1 Y521,3 = +0
 c2256: +1 Y521,5 = +0
 c2257: +1 Y522,1 = +0
 c2258: +1 Y522,3 = +0
 c2259: +1 Y522,5 = +0
 c2260: +1 Y523,1 = +0
 c2261: +1 Y523,3 = +0
 c2262: +1 Y523,5 = +0
 c2263: +1 Y524,1 = +0
 c2264: +1 Y524,3 = +0
 c2265: +1 Y524,5 = +0
 c2266: +1 Y525,1 = +0
 c2267: +1 Y525,3 = +0
 c2268: +1 Y525,5 = +0
 c2269: +1 Y526,1 = +0
 c2270: +1 Y526,3 = +0
 c2271: +1 Y526,5 = +0
 c2272: +1 Y527,1 = +0
 c2273: +1 Y527,3 = +0
 c2274: +1 Y527,5 = +0
 c2275: +1 Y528,1 = +0
 c2276: +1 Y528,3 = +0
 c2277: +1 Y528,5 = +0
 c2278: +1 Y529,1 = +0
 c2279: +1 Y529,3 = +0
 c2280: +1 Y529,5 = +0
 c2281: +1 Y530,1 = +0
 c2282: +1 Y530,3 = +0
 c2283: +1 Y530,5 = +0
 c2284: +1 Y531,1 = +0
 c2285: +1 Y531,3 = +0
 c2286: +1 Y531,5 = +0
 c2287: +1 Y532,1 = +0
 c2288: +1 Y532,3 = +0
 c2289: +1 Y532,5 = +0
 c2290: +1 Y533,1 = +0
 c2291: +1 Y533,3 = +0
 c2292: +1 Y533,5 = +0
 c2293: +1 Y534,1 = +0
 c2294: +1 Y534,3 = +0
 c2295: +1 Y534,5 = +0
 c2296: +1 Y535,1 = +0
 c2297: +1 Y535,3 = +0
 c2298: +1 Y535,5 = +0
 c2299: +1 Y536,1 = +0
 c2300: +1 Y536,3 = +0
 c2301: +1 Y536,5 = +0
 c2302: +1 Y537,1 = +0
 c2303: +1 Y537,3 = +0
 c2304: +1 Y537,5 = +0
 c2305: +1 Y538,1 = +0
 c2306: +1 Y538,3 = +0
 c2307: +1 Y538,5 = +0
 c2308: +1 Y539,1 = +0
 c2309: +1 Y539,3 = +0
 c2310: +1 Y539,4 = +0
 c2311: +1 Y539,5 = +0
 c2312: +1 Y539,6 = +0
 c2313: +1 Y540,1 = +0
 c2314: +1 Y540,3 = +0
 c2315: +1 Y540,4 = +0
 c2316: +1 Y540,5 = +0
 c2317: +1 Y540,6 = +0
 c2318: +1 Y541,1 = +0
 c2319: +1 Y541,3 = +0
 c2320: +1 Y541,4 = +0
 c2321: +1 Y541,5 = +0
 c2322: +1 Y541,6 = +0
 c2323: +1 Y542,1 = +0
 c2324: +1 Y542,3 = +0
 c2325: +1 Y542,4 = +0
 c2326: +1 Y542,5 = +0
 c2327: +1 Y542,6 = +0
 c2328: +1 Y543,1 = +0
 c2329: +1 Y543,3 = +0
 c2330: +1 Y543,4 = +0
 c2331: +1 Y543,5 = +0
 c2332: +1 Y543,6 = +0
 c2333: +1 Y544,1 = +0
 c2334: +1 Y544,3 = +0
 c2335: +1 Y544,4 = +0
 c2336: +1 Y544,5 = +0
 c2337: +1 Y544,6 = +0
 c2338: +1 Y545,1 = +0
 c2339: +1 Y545,3 = +0
 c2340: +1 Y545,4 = +0
 c2341: +1 Y545,5 = +0
 c2342: +1 Y545,6 = +0
 c2343: +1 Y546,1 = +0
 c2344: +1 Y546,3 = +0
 c2345: +1 Y546,4 = +0
 c2346: +1 Y546,5 = +0
 c2347: +1 Y546,6 = +0
 c2348: +1 Y547,1 = +0
 c2349: +1 Y547,3 = +0
 c2350: +1 Y547,4 = +0
 c2351: +1 Y547,5 = +0
 c2352: +1 Y547,6 = +0
 c2353: +1 Y548,1 = +0
 c2354: +1 Y548,3 = +0
 c2355: +1 Y548,4 = +0
 c2356: +1 Y548,5 = +0
 c2357: +1 Y548,6 = +0
 c2358: +1 Y549,1 = +0
 c2359: +1 Y549,3 = +0
 c2360: +1 Y549,4 = +0
 c2361: +1 Y549,5 = +0
 c2362: +1 Y549,6 = +0
 c2363: +1 Y550,1 = +0
 c2364: +1 Y550,3 = +0
 c2365: +1 Y550,4 = +0
 c2366: +1 Y550,5 = +0
 c2367: +1 Y550,6 = +0
 c2368: +1 Y551,1 = +0
 c2369: +1 Y551,3 = +0
 c2370: +1 Y551,4 = +0
 c2371: +1 Y551,5 = +0
 c2372: +1 Y551,6 = +0
 c2373: +1 Y552,1 = +0
 c2374: +1 Y552,3 = +0
 c2375: +1 Y552,4 = +0
 c2376: +1 Y552,5 = +0
 c2377: +1 Y552,6 = +0
 c2378: +1 Y553,1 = +0
 c2379: +1 Y553,3 = +0
 c2380: +1 Y553,4 = +0
 c2381: +1 Y553,5 = +0
 c2382: +1 Y553,6 = +0
 c2383: +1 Y554,1 = +0
 c2384: +1 Y554,3 = +0
 c2385: +1 Y554,4 = +0
 c2386: +1 Y554,6 = +0
 c2387: +1 Y555,1 = +0
 c2388: +1 Y555,3 = +0
 c2389: +1 Y555,4 = +0
 c2390: +1 Y555,6 = +0
 c2391: +1 Y556,1 = +0
 c2392: +1 Y556,3 = +0
 c2393: +1 Y556,4 = +0
 c2394: +1 Y556,6 = +0
 c2395: +1 Y557,1 = +0
 c2396: +1 Y557,3 = +0
 c2397: +1 Y557,4 = +0
 c2398: +1 Y557,6 = +0
 c2399: +1 Y558,1 = +0
 c2400: +1 Y558,3 = +0
 c2401: +1 Y558,4 = +0
 c2402: +1 Y558,6 = +0
 c2403: +1 Y559,1 = +0
 c2404: +1 Y559,3 = +0
 c2405: +1 Y559,4 = +0
 c2406: +1 Y559,6 = +0
 c2407: +1 Y560,1 = +0
 c2408: +1 Y560,3 = +0
 c2409: +1 Y560,4 = +0
 c2410: +1 Y560,6 = +0
 c2411: +1 Y561,1 = +0
 c2412: +1 Y561,3 = +0
 c2413: +1 Y561,4 = +0
 c2414: +1 Y561,6 = +0
 c2415: +1 Y562,1 = +0
 c2416: +1 Y562,3 = +0
 c2417: +1 Y562,4 = +0
 c2418: +1 Y562,6 = +0
 c2419: +1 Y563,1 = +0
 c2420: +1 Y563,3 = +0
 c2421: +1 Y563,4 = +0
 c2422: +1 Y563,6 = +0
 c2423: +1 Y564,1 = +0
 c2424: +1 Y564,3 = +0
 c2425: +1 Y564,4 = +0
 c2426: +1 Y564,6 = +0
 c2427: +1 Y565,1 = +0
 c2428: +1 Y565,3 = +0
 c2429: +1 Y565,4 = +0
 c2430: +1 Y565,6 = +0
 c2431: +1 Y566,1 = +0
 c2432: +1 Y566,3 = +0
 c2433: +1 Y566,4 = +0
 c2434: +1 Y566,6 = +0
 c2435: +1 Y567,1 = +0
 c2436: +1 Y567,3 = +0
 c2437: +1 Y567,4 = +0
 c2438: +1 Y567,6 = +0
 c2439: +1 Y568,1 = +0
 c2440: +1 Y568,3 = +0
 c2441: +1 Y568,4 = +0
 c2442: +1 Y568,6 = +0
 c2443: +1 Y569,1 = +0
 c2444: +1 Y569,3 = +0
 c2445: +1 Y569,4 = +0
 c2446: +1 Y569,6 = +0
 c2447: +1 Y570,1 = +0
 c2448: +1 Y570,3 = +0
 c2449: +1 Y570,4 = +0
 c2450: +1 Y570,6 = +0
 c2451: +1 Y571,1 = +0
 c2452: +1 Y571,3 = +0
 c2453: +1 Y571,4 = +0
 c2454: +1 Y571,6 = +0
 c2455: +1 Y572,1 = +0
 c2456: +1 Y572,3 = +0
 c2457: +1 Y572,4 = +0
 c2458: +1 Y572,6 = +0
 c2459: +1 Y573,1 = +0
 c2460: +1 Y573,3 = +0
 c2461: +1 Y573,4 = +0
 c2462: +1 Y573,6 = +0
 c2463: +1 Y574,1 = +0
 c2464: +1 Y574,3 = +0
 c2465: +1 Y574,4 = +0
 c2466: +1 Y574,6 = +0
 c2467: +1 Y575,1 = +0
 c2468: +1 Y575,3 = +0
 c2469: +1 Y575,4 = +0
 c2470: +1 Y575,6 = +0
 c2471: +1 Y576,1 = +0
 c2472: +1 Y576,3 = +0
 c2473: +1 Y576,4 = +0
 c2474: +1 Y576,6 = +0
 c2475: +1 Y577,1 = +0
 c2476: +1 Y577,3 = +0
 c2477: +1 Y577,4 = +0
 c2478: +1 Y577,6 = +0
 c2479: +1 Y578,1 = +0
 c2480: +1 Y578,3 = +0
 c2481: +1 Y578,4 = +0
 c2482: +1 Y578,6 = +0
 c2483: +1 Y579,1 = +0
 c2484: +1 Y579,3 = +0
 c2485: +1 Y579,4 = +0
 c2486: +1 Y579,6 = +0
 c2487: +1 Y580,1 = +0
 c2488: +1 Y580,3 = +0
 c2489: +1 Y580,4 = +0
 c2490: +1 Y580,6 = +0
 c2491: +1 Y581,1 = +0
 c2492: +1 Y581,3 = +0
 c2493: +1 Y581,4 = +0
 c2494: +1 Y581,6 = +0
 c2495: +1 Y582,1 = +0
 c2496: +1 Y582,3 = +0
 c2497: +1 Y582,4 = +0
 c2498: +1 Y582,6 = +0
 c2499: +1 Y583,1 = +0
 c2500: +1 Y583,3 = +0
 c2501: +1 Y583,4 = +0
 c2502: +1 Y583,6 = +0
 c2503: +1 Y584,1 = +0
 c2504: +1 Y584,3 = +0
 c2505: +1 Y584,4 = +0
 c2506: +1 Y584,6 = +0
 c2507: +1 Y585,0 = +0
 c2508: +1 Y585,3 = +0
 c2509: +1 Y585,4 = +0
 c2510: +1 Y585,5 = +0
 c2511: +1 Y585,6 = +0
 c2512: +1 Y586,0 = +0
 c2513: +1 Y586,3 = +0
 c2514: +1 Y586,4 = +0
 c2515: +1 Y586,5 = +0
 c2516: +1 Y586,6 = +0
 c2517: +1 Y587,0 = +0
 c2518: +1 Y587,3 = +0
 c2519: +1 Y587,4 = +0
 c2520: +1 Y587,5 = +0
 c2521: +1 Y587,6 = +0
 c2522: +1 Y588,0 = +0
 c2523: +1 Y588,3 = +0
 c2524: +1 Y588,4 = +0
 c2525: +1 Y588,5 = +0
 c2526: +1 Y588,6 = +0
 c2527: +1 Y589,0 = +0
 c2528: +1 Y589,3 = +0
 c2529: +1 Y589,4 = +0
 c2530: +1 Y589,5 = +0
 c2531: +1 Y589,6 = +0
 c2532: +1 Y590,0 = +0
 c2533: +1 Y590,3 = +0
 c2534: +1 Y590,4 = +0
 c2535: +1 Y590,5 = +0
 c2536: +1 Y590,6 = +0
 c2537: +1 Y591,0 = +0
 c2538: +1 Y591,3 = +0
 c2539: +1 Y591,4 = +0
 c2540: +1 Y591,5 = +0
 c2541: +1 Y591,6 = +0
 c2542: +1 Y592,0 = +0
 c2543: +1 Y592,3 = +0
 c2544: +1 Y592,4 = +0
 c2545: +1 Y592,5 = +0
 c2546: +1 Y592,6 = +0
 c2547: +1 Y593,0 = +0
 c2548: +1 Y593,3 = +0
 c2549: +1 Y593,4 = +0
 c2550: +1 Y593,5 = +0
 c2551: +1 Y593,6 = +0
 c2552: +1 Y594,0 = +0
 c2553: +1 Y594,3 = +0
 c2554: +1 Y594,4 = +0
 c2555: +1 Y594,5 = +0
 c2556: +1 Y594,6 = +0
 c2557: +1 Y595,0 = +0
 c2558: +1 Y595,3 = +0
 c2559: +1 Y595,4 = +0
 c2560: +1 Y595,5 = +0
 c2561: +1 Y595,6 = +0
 c2562: +1 Y596,0 = +0
 c2563: +1 Y596,3 = +0
 c2564: +1 Y596,4 = +0
 c2565: +1 Y596,5 = +0
 c2566: +1 Y596,6 = +0
 c2567: +1 Y597,0 = +0
 c2568: +1 Y597,3 = +0
 c2569: +1 Y597,4 = +0
 c2570: +1 Y597,5 = +0
 c2571: +1 Y597,6 = +0
 c2572: +1 Y598,0 = +0
 c2573: +1 Y598,3 = +0
 c2574: +1 Y598,4 = +0
 c2575: +1 Y598,5 = +0
 c2576: +1 Y598,6 = +0
 c2577: +1 Y599,0 = +0
 c2578: +1 Y599,3 = +0
 c2579: +1 Y599,4 = +0
 c2580: +1 Y599,5 = +0
 c2581: +1 Y599,6 = +0
 c2582: +1 Y600,0 = +0
 c2583: +1 Y600,3 = +0
 c2584: +1 Y600,4 = +0
 c2585: +1 Y600,5 = +0
 c2586: +1 Y600,6 = +0
 c2587: +1 Y601,0 = +0
 c2588: +1 Y601,3 = +0
 c2589: +1 Y601,4 = +0
 c2590: +1 Y601,5 = +0
 c2591: +1 Y601,6 = +0
 c2592: +1 Y602,0 = +0
 c2593: +1 Y602,3 = +0
 c2594: +1 Y602,4 = +0
 c2595: +1 Y602,5 = +0
 c2596: +1 Y602,6 = +0
 c2597: +1 Y603,0 = +0
 c2598: +1 Y603,3 = +0
 c2599: +1 Y603,4 = +0
 c2600: +1 Y603,5 = +0
 c2601: +1 Y603,6 = +0
 c2602: +1 Y604,0 = +0
 c2603: +1 Y604,3 = +0
 c2604: +1 Y604,4 = +0
 c2605: +1 Y604,5 = +0
 c2606: +1 Y604,6 = +0
 c2607: +1 Y605,0 = +0
 c2608: +1 Y605,3 = +0
 c2609: +1 Y605,4 = +0
 c2610: +1 Y605,5 = +0
 c2611: +1 Y605,6 = +0
 c2612: +1 Y606,0 = +0
 c2613: +1 Y606,3 = +0
 c2614: +1 Y606,4 = +0
 c2615: +1 Y606,5 = +0
 c2616: +1 Y606,6 = +0
 c2617: +1 Y607,0 = +0
 c2618: +1 Y607,3 = +0
 c2619: +1 Y607,4 = +0
 c2620: +1 Y607,5 = +0
 c2621: +1 Y607,6 = +0
 c2622: +1 Y608,0 = +0
 c2623: +1 Y608,3 = +0
 c2624: +1 Y608,4 = +0
 c2625: +1 Y608,5 = +0
 c2626: +1 Y608,6 = +0
 c2627: +1 Y609,0 = +0
 c2628: +1 Y609,3 = +0
 c2629: +1 Y609,4 = +0
 c2630: +1 Y609,5 = +0
 c2631: +1 Y609,6 = +0
 c2632: +1 Y610,0 = +0
 c2633: +1 Y610,3 = +0
 c2634: +1 Y610,4 = +0
 c2635: +1 Y610,5 = +0
 c2636: +1 Y610,6 = +0
 c2637: +1 Y611,0 = +0
 c2638: +1 Y611,3 = +0
 c2639: +1 Y611,4 = +0
 c2640: +1 Y611,5 = +0
 c2641: +1 Y611,6 = +0
 c2642: +1 Y612,0 = +0
 c2643: +1 Y612,3 = +0
 c2644: +1 Y612,4 = +0
 c2645: +1 Y612,5 = +0
 c2646: +1 Y612,6 = +0
 c2647: +1 Y613,0 = +0
 c2648: +1 Y613,3 = +0
 c2649: +1 Y613,4 = +0
 c2650: +1 Y613,5 = +0
 c2651: +1 Y613,6 = +0
 c2652: +1 Y614,0 = +0
 c2653: +1 Y614,3 = +0
 c2654: +1 Y614,4 = +0
 c2655: +1 Y614,5 = +0
 c2656: +1 Y614,6 = +0
 c2657: +1 Y615,0 = +0
 c2658: +1 Y615,3 = +0
 c2659: +1 Y615,4 = +0
 c2660: +1 Y615,5 = +0
 c2661: +1 Y615,6 = +0
 c2662: +1 Y616,0 = +0
 c2663: +1 Y616,3 = +0
 c2664: +1 Y616,4 = +0
 c2665: +1 Y616,5 = +0
 c2666: +1 Y616,6 = +0
 c2667: +1 Y617,0 = +0
 c2668: +1 Y617,3 = +0
 c2669: +1 Y617,4 = +0
 c2670: +1 Y617,5 = +0
 c2671: +1 Y617,6 = +0
 c2672: +1 Y618,0 = +0
 c2673: +1 Y618,3 = +0
 c2674: +1 Y618,4 = +0
 c2675: +1 Y618,5 = +0
 c2676: +1 Y618,6 = +0
 c2677: +1 Y619,0 = +0
 c2678: +1 Y619,3 = +0
 c2679: +1 Y619,4 = +0
 c2680: +1 Y619,5 = +0
 c2681: +1 Y619,6 = +0
 c2682: +1 Y620,0 = +0
 c2683: +1 Y620,3 = +0
 c2684: +1 Y620,4 = +0
 c2685: +1 Y620,5 = +0
 c2686: +1 Y620,6 = +0
 c2687: +1 Y621,0 = +0
 c2688: +1 Y621,3 = +0
 c2689: +1 Y621,4 = +0
 c2690: +1 Y621,5 = +0
 c2691: +1 Y621,6 = +0
 c2692: +1 Y622,0 = +0
 c2693: +1 Y622,3 = +0
 c2694: +1 Y622,4 = +0
 c2695: +1 Y622,5 = +0
 c2696: +1 Y622,6 = +0
 c2697: +1 Y623,0 = +0
 c2698: +1 Y623,3 = +0
 c2699: +1 Y623,4 = +0
 c2700: +1 Y623,5 = +0
 c2701: +1 Y623,6 = +0
 c2702: +1 Y624,0 = +0
 c2703: +1 Y624,3 = +0
 c2704: +1 Y624,4 = +0
 c2705: +1 Y624,5 = +0
 c2706: +1 Y624,6 = +0
 c2707: +1 Y625,0 = +0
 c2708: +1 Y625,3 = +0
 c2709: +1 Y625,4 = +0
 c2710: +1 Y625,5 = +0
 c2711: +1 Y625,6 = +0
 c2712: +1 Y626,0 = +0
 c2713: +1 Y626,3 = +0
 c2714: +1 Y626,4 = +0
 c2715: +1 Y626,5 = +0
 c2716: +1 Y626,6 = +0
 c2717: +1 Y627,0 = +0
 c2718: +1 Y627,3 = +0
 c2719: +1 Y627,4 = +0
 c2720: +1 Y627,5 = +0
 c2721: +1 Y627,6 = +0
 c2722: +1 Y628,0 = +0
 c2723: +1 Y628,3 = +0
 c2724: +1 Y628,4 = +0
 c2725: +1 Y628,5 = +0
 c2726: +1 Y628,6 = +0
 c2727: +1 Y629,0 = +0
 c2728: +1 Y629,3 = +0
 c2729: +1 Y629,4 = +0
 c2730: +1 Y629,5 = +0
 c2731: +1 Y629,6 = +0
 c2732: +1 Y630,0 = +0
 c2733: +1 Y630,3 = +0
 c2734: +1 Y630,4 = +0
 c2735: +1 Y630,5 = +0
 c2736: +1 Y630,6 = +0
 c2737: +1 Y631,0 = +0
 c2738: +1 Y631,3 = +0
 c2739: +1 Y631,4 = +0
 c2740: +1 Y631,5 = +0
 c2741: +1 Y631,6 = +0
 c2742: +1 Y632,0 = +0
 c2743: +1 Y632,3 = +0
 c2744: +1 Y632,4 = +0
 c2745: +1 Y632,5 = +0
 c2746: +1 Y632,6 = +0
 c2747: +1 Y633,0 = +0
 c2748: +1 Y633,3 = +0
 c2749: +1 Y633,4 = +0
 c2750: +1 Y633,5 = +0
 c2751: +1 Y633,6 = +0
 c2752: +1 Y634,0 = +0
 c2753: +1 Y634,3 = +0
 c2754: +1 Y634,4 = +0
 c2755: +1 Y634,5 = +0
 c2756: +1 Y634,6 = +0
 c2757: +1 Y635,0 = +0
 c2758: +1 Y635,3 = +0
 c2759: +1 Y635,4 = +0
 c2760: +1 Y635,5 = +0
 c2761: +1 Y635,6 = +0
 c2762: +1 Y636,0 = +0
 c2763: +1 Y636,3 = +0
 c2764: +1 Y636,4 = +0
 c2765: +1 Y636,5 = +0
 c2766: +1 Y636,6 = +0
 c2767: +1 Y637,0 = +0
 c2768: +1 Y637,3 = +0
 c2769: +1 Y637,4 = +0
 c2770: +1 Y637,5 = +0
 c2771: +1 Y637,6 = +0
 c2772: +1 Y638,0 = +0
 c2773: +1 Y638,3 = +0
 c2774: +1 Y638,4 = +0
 c2775: +1 Y638,5 = +0
 c2776: +1 Y638,6 = +0
 c2777: +1 Y639,0 = +0
 c2778: +1 Y639,3 = +0
 c2779: +1 Y639,4 = +0
 c2780: +1 Y639,5 = +0
 c2781: +1 Y639,6 = +0
 c2782: +1 Y640,0 = +0
 c2783: +1 Y640,3 = +0
 c2784: +1 Y640,4 = +0
 c2785: +1 Y640,5 = +0
 c2786: +1 Y640,6 = +0
 c2787: +1 Y641,0 = +0
 c2788: +1 Y641,3 = +0
 c2789: +1 Y641,4 = +0
 c2790: +1 Y641,5 = +0
 c2791: +1 Y641,6 = +0
 c2792: +1 Y642,0 = +0
 c2793: +1 Y642,3 = +0
 c2794: +1 Y642,4 = +0
 c2795: +1 Y642,5 = +0
 c2796: +1 Y642,6 = +0
 c2797: +1 Y643,0 = +0
 c2798: +1 Y643,3 = +0
 c2799: +1 Y643,4 = +0
 c2800: +1 Y643,5 = +0
 c2801: +1 Y643,6 = +0
 c2802: +1 Y644,0 = +0
 c2803: +1 Y644,3 = +0
 c2804: +1 Y644,4 = +0
 c2805: +1 Y644,5 = +0
 c2806: +1 Y644,6 = +0
 c2807: +1 Y645,0 = +0
 c2808: +1 Y645,3 = +0
 c2809: +1 Y645,4 = +0
 c2810: +1 Y645,5 = +0
 c2811: +1 Y645,6 = +0
 c2812: +1 Y646,0 = +0
 c2813: +1 Y646,3 = +0
 c2814: +1 Y646,4 = +0
 c2815: +1 Y646,5 = +0
 c2816: +1 Y646,6 = +0
 c2817: +1 Y647,0 = +0
 c2818: +1 Y647,3 = +0
 c2819: +1 Y647,4 = +0
 c2820: +1 Y647,5 = +0
 c2821: +1 Y647,6 = +0
 c2822: +1 Y648,0 = +0
 c2823: +1 Y648,3 = +0
 c2824: +1 Y648,4 = +0
 c2825: +1 Y648,5 = +0
 c2826: +1 Y648,6 = +0
 c2827: +1 Y649,0 = +0
 c2828: +1 Y649,3 = +0
 c2829: +1 Y649,4 = +0
 c2830: +1 Y649,5 = +0
 c2831: +1 Y649,6 = +0
 c2832: +1 Y650,0 = +0
 c2833: +1 Y650,3 = +0
 c2834: +1 Y650,4 = +0
 c2835: +1 Y650,5 = +0
 c2836: +1 Y650,6 = +0
 c2837: +1 Y651,0 = +0
 c2838: +1 Y651,3 = +0
 c2839: +1 Y651,4 = +0
 c2840: +1 Y651,5 = +0
 c2841: +1 Y651,6 = +0
 c2842: +1 Y652,0 = +0
 c2843: +1 Y652,3 = +0
 c2844: +1 Y652,4 = +0
 c2845: +1 Y652,5 = +0
 c2846: +1 Y652,6 = +0
 c2847: +1 Y653,0 = +0
 c2848: +1 Y653,3 = +0
 c2849: +1 Y653,4 = +0
 c2850: +1 Y653,5 = +0
 c2851: +1 Y653,6 = +0
 c2852: +1 Y654,0 = +0
 c2853: +1 Y654,3 = +0
 c2854: +1 Y654,4 = +0
 c2855: +1 Y654,5 = +0
 c2856: +1 Y654,6 = +0
 c2857: +1 Y655,0 = +0
 c2858: +1 Y655,3 = +0
 c2859: +1 Y655,4 = +0
 c2860: +1 Y655,5 = +0
 c2861: +1 Y655,6 = +0
 c2862: +1 Y656,0 = +0
 c2863: +1 Y656,3 = +0
 c2864: +1 Y656,4 = +0
 c2865: +1 Y656,5 = +0
 c2866: +1 Y656,6 = +0
 c2867: +1 Y657,0 = +0
 c2868: +1 Y657,3 = +0
 c2869: +1 Y657,4 = +0
 c2870: +1 Y657,5 = +0
 c2871: +1 Y657,6 = +0
 c2872: +1 Y658,0 = +0
 c2873: +1 Y658,3 = +0
 c2874: +1 Y658,4 = +0
 c2875: +1 Y658,5 = +0
 c2876: +1 Y658,6 = +0
 c2877: +1 Y659,0 = +0
 c2878: +1 Y659,3 = +0
 c2879: +1 Y659,4 = +0
 c2880: +1 Y659,5 = +0
 c2881: +1 Y659,6 = +0
 c2882: +1 Y660,0 = +0
 c2883: +1 Y660,3 = +0
 c2884: +1 Y660,4 = +0
 c2885: +1 Y660,5 = +0
 c2886: +1 Y660,6 = +0
 c2887: +1 Y661,0 = +0
 c2888: +1 Y661,3 = +0
 c2889: +1 Y661,4 = +0
 c2890: +1 Y661,5 = +0
 c2891: +1 Y661,6 = +0
 c2892: +1 Y662,0 = +0
 c2893: +1 Y662,3 = +0
 c2894: +1 Y662,4 = +0
 c2895: +1 Y662,5 = +0
 c2896: +1 Y662,6 = +0
 c2897: +1 Y663,0 = +0
 c2898: +1 Y663,3 = +0
 c2899: +1 Y663,4 = +0
 c2900: +1 Y663,5 = +0
 c2901: +1 Y663,6 = +0
 c2902: +1 Y664,0 = +0
 c2903: +1 Y664,3 = +0
 c2904: +1 Y664,4 = +0
 c2905: +1 Y664,5 = +0
 c2906: +1 Y664,6 = +0
 c2907: +1 Y665,0 = +0
 c2908: +1 Y665,3 = +0
 c2909: +1 Y665,4 = +0
 c2910: +1 Y665,5 = +0
 c2911: +1 Y665,6 = +0
 c2912: +1 Y666,0 = +0
 c2913: +1 Y666,3 = +0
 c2914: +1 Y666,4 = +0
 c2915: +1 Y666,5 = +0
 c2916: +1 Y666,6 = +0
 c2917: +1 Y667,0 = +0
 c2918: +1 Y667,3 = +0
 c2919: +1 Y667,4 = +0
 c2920: +1 Y667,5 = +0
 c2921: +1 Y667,6 = +0
 c2922: +1 Y668,0 = +0
 c2923: +1 Y668,3 = +0
 c2924: +1 Y668,4 = +0
 c2925: +1 Y668,5 = +0
 c2926: +1 Y668,6 = +0
 c2927: +1 Y669,0 = +0
 c2928: +1 Y669,3 = +0
 c2929: +1 Y669,4 = +0
 c2930: +1 Y669,5 = +0
 c2931: +1 Y669,6 = +0
 c2932: +1 Y670,0 = +0
 c2933: +1 Y670,3 = +0
 c2934: +1 Y670,4 = +0
 c2935: +1 Y670,5 = +0
 c2936: +1 Y670,6 = +0
 c2937: +1 Y671,0 = +0
 c2938: +1 Y671,3 = +0
 c2939: +1 Y671,4 = +0
 c2940: +1 Y671,5 = +0
 c2941: +1 Y671,6 = +0
 c2942: +1 Y672,0 = +0
 c2943: +1 Y672,3 = +0
 c2944: +1 Y672,4 = +0
 c2945: +1 Y672,5 = +0
 c2946: +1 Y672,6 = +0
 c2947: +1 Y673,0 = +0
 c2948: +1 Y673,3 = +0
 c2949: +1 Y673,4 = +0
 c2950: +1 Y673,5 = +0
 c2951: +1 Y673,6 = +0
 c2952: +1 Y674,0 = +0
 c2953: +1 Y674,3 = +0
 c2954: +1 Y674,4 = +0
 c2955: +1 Y674,5 = +0
 c2956: +1 Y674,6 = +0
 c2957: +1 Y675,0 = +0
 c2958: +1 Y675,3 = +0
 c2959: +1 Y675,4 = +0
 c2960: +1 Y675,5 = +0
 c2961: +1 Y675,6 = +0
 c2962: +1 Y676,0 = +0
 c2963: +1 Y676,3 = +0
 c2964: +1 Y676,4 = +0
 c2965: +1 Y676,5 = +0
 c2966: +1 Y676,6 = +0
 c2967: +1 Y677,0 = +0
 c2968: +1 Y677,3 = +0
 c2969: +1 Y677,4 = +0
 c2970: +1 Y677,5 = +0
 c2971: +1 Y677,6 = +0
 c2972: +1 Y678,0 = +0
 c2973: +1 Y678,3 = +0
 c2974: +1 Y678,4 = +0
 c2975: +1 Y678,5 = +0
 c2976: +1 Y678,6 = +0
 c2977: +1 Y679,0 = +0
 c2978: +1 Y679,3 = +0
 c2979: +1 Y679,4 = +0
 c2980: +1 Y679,5 = +0
 c2981: +1 Y679,6 = +0
 c2982: +1 Y680,0 = +0
 c2983: +1 Y680,3 = +0
 c2984: +1 Y680,4 = +0
 c2985: +1 Y680,5 = +0
 c2986: +1 Y680,6 = +0
 c2987: +1 Y681,0 = +0
 c2988: +1 Y681,3 = +0
 c2989: +1 Y681,4 = +0
 c2990: +1 Y681,5 = +0
 c2991: +1 Y681,6 = +0
 c2992: +1 Y682,0 = +0
 c2993: +1 Y682,3 = +0
 c2994: +1 Y682,4 = +0
 c2995: +1 Y682,5 = +0
 c2996: +1 Y682,6 = +0
 c2997: +1 Y683,0 = +0
 c2998: +1 Y683,3 = +0
 c2999: +1 Y683,4 = +0
 c3000: +1 Y683,5 = +0
 c3001: +1 Y683,6 = +0
 c3002: +1 Y684,0 = +0
 c3003: +1 Y684,3 = +0
 c3004: +1 Y684,4 = +0
 c3005: +1 Y684,5 = +0
 c3006: +1 Y684,6 = +0
 c3007: +1 Y685,0 = +0
 c3008: +1 Y685,3 = +0
 c3009: +1 Y685,4 = +0
 c3010: +1 Y685,5 = +0
 c3011: +1 Y685,6 = +0
 c3012: +1 Y686,0 = +0
 c3013: +1 Y686,3 = +0
 c3014: +1 Y686,4 = +0
 c3015: +1 Y686,5 = +0
 c3016: +1 Y686,6 = +0
 c3017: +1 Y687,0 = +0
 c3018: +1 Y687,3 = +0
 c3019: +1 Y687,4 = +0
 c3020: +1 Y687,5 = +0
 c3021: +1 Y687,6 = +0
 c3022: +1 Y688,0 = +0
 c3023: +1 Y688,3 = +0
 c3024: +1 Y688,4 = +0
 c3025: +1 Y688,5 = +0
 c3026: +1 Y688,6 = +0
 c3027: +1 Y689,0 = +0
 c3028: +1 Y689,3 = +0
 c3029: +1 Y689,4 = +0
 c3030: +1 Y689,5 = +0
 c3031: +1 Y689,6 = +0
 c3032: +1 Y690,0 = +0
 c3033: +1 Y690,3 = +0
 c3034: +1 Y690,4 = +0
 c3035: +1 Y690,5 = +0
 c3036: +1 Y690,6 = +0
 c3037: +1 Y691,0 = +0
 c3038: +1 Y691,3 = +0
 c3039: +1 Y691,4 = +0
 c3040: +1 Y691,5 = +0
 c3041: +1 Y691,6 = +0
 c3042: +1 Y692,0 = +0
 c3043: +1 Y692,3 = +0
 c3044: +1 Y692,4 = +0
 c3045: +1 Y692,5 = +0
 c3046: +1 Y692,6 = +0
 c3047: +1 Y693,0 = +0
 c3048: +1 Y693,3 = +0
 c3049: +1 Y693,4 = +0
 c3050: +1 Y693,5 = +0
 c3051: +1 Y693,6 = +0
 c3052: +1 Y694,0 = +0
 c3053: +1 Y694,3 = +0
 c3054: +1 Y694,4 = +0
 c3055: +1 Y694,5 = +0
 c3056: +1 Y694,6 = +0
 c3057: +1 Y695,0 = +0
 c3058: +1 Y695,3 = +0
 c3059: +1 Y695,4 = +0
 c3060: +1 Y695,5 = +0
 c3061: +1 Y695,6 = +0
 c3062: +1 Y696,0 = +0
 c3063: +1 Y696,3 = +0
 c3064: +1 Y696,4 = +0
 c3065: +1 Y696,5 = +0
 c3066: +1 Y696,6 = +0
 c3067: +1 Y697,0 = +0
 c3068: +1 Y697,3 = +0
 c3069: +1 Y697,4 = +0
 c3070: +1 Y697,5 = +0
 c3071: +1 Y697,6 = +0
 c3072: +1 Y698,0 = +0
 c3073: +1 Y698,3 = +0
 c3074: +1 Y698,4 = +0
 c3075: +1 Y698,5 = +0
 c3076: +1 Y698,6 = +0
 c3077: +1 Y699,0 = +0
 c3078: +1 Y699,3 = +0
 c3079: +1 Y699,4 = +0
 c3080: +1 Y699,5 = +0
 c3081: +1 Y699,6 = +0
 c3082: +1 Y700,0 = +0
 c3083: +1 Y700,3 = +0
 c3084: +1 Y700,4 = +0
 c3085: +1 Y700,5 = +0
 c3086: +1 Y700,6 = +0
 c3087: +1 Y701,0 = +0
 c3088: +1 Y701,3 = +0
 c3089: +1 Y701,4 = +0
 c3090: +1 Y701,5 = +0
 c3091: +1 Y701,6 = +0
 c3092: +1 Y702,0 = +0
 c3093: +1 Y702,3 = +0
 c3094: +1 Y702,4 = +0
 c3095: +1 Y702,5 = +0
 c3096: +1 Y702,6 = +0
 c3097: +1 Y703,0 = +0
 c3098: +1 Y703,3 = +0
 c3099: +1 Y703,4 = +0
 c3100: +1 Y703,5 = +0
 c3101: +1 Y703,6 = +0
 c3102: +1 Y704,0 = +0
 c3103: +1 Y704,3 = +0
 c3104: +1 Y704,4 = +0
 c3105: +1 Y704,5 = +0
 c3106: +1 Y704,6 = +0
 c3107: +1 Y705,0 = +0
 c3108: +1 Y705,3 = +0
 c3109: +1 Y705,4 = +0
 c3110: +1 Y705,5 = +0
 c3111: +1 Y705,6 = +0
 c3112: +1 Y706,0 = +0
 c3113: +1 Y706,3 = +0
 c3114: +1 Y706,4 = +0
 c3115: +1 Y706,5 = +0
 c3116: +1 Y706,6 = +0
 c3117: +1 Y707,0 = +0
 c3118: +1 Y707,3 = +0
 c3119: +1 Y707,4 = +0
 c3120: +1 Y707,5 = +0
 c3121: +1 Y707,6 = +0
 c3122: +1 Y708,0 = +0
 c3123: +1 Y708,3 = +0
 c3124: +1 Y708,4 = +0
 c3125: +1 Y708,5 = +0
 c3126: +1 Y708,6 = +0
 c3127: +1 Y709,0 = +0
 c3128: +1 Y709,3 = +0
 c3129: +1 Y709,4 = +0
 c3130: +1 Y709,5 = +0
 c3131: +1 Y709,6 = +0
 c3132: +1 Y710,0 = +0
 c3133: +1 Y710,3 = +0
 c3134: +1 Y710,4 = +0
 c3135: +1 Y710,5 = +0
 c3136: +1 Y710,6 = +0
 c3137: +1 Y711,0 = +0
 c3138: +1 Y711,3 = +0
 c3139: +1 Y711,4 = +0
 c3140: +1 Y711,5 = +0
 c3141: +1 Y711,6 = +0
 c3142: +1 Y712,0 = +0
 c3143: +1 Y712,3 = +0
 c3144: +1 Y712,4 = +0
 c3145: +1 Y712,5 = +0
 c3146: +1 Y712,6 = +0
 c3147: +1 Y713,0 = +0
 c3148: +1 Y713,3 = +0
 c3149: +1 Y713,4 = +0
 c3150: +1 Y713,5 = +0
 c3151: +1 Y713,6 = +0
 c3152: +1 Y714,0 = +0
 c3153: +1 Y714,3 = +0
 c3154: +1 Y714,4 = +0
 c3155: +1 Y714,5 = +0
 c3156: +1 Y714,6 = +0
 c3157: +1 Y715,0 = +0
 c3158: +1 Y715,3 = +0
 c3159: +1 Y715,4 = +0
 c3160: +1 Y715,5 = +0
 c3161: +1 Y715,6 = +0
 c3162: +1 Y716,0 = +0
 c3163: +1 Y716,3 = +0
 c3164: +1 Y716,4 = +0
 c3165: +1 Y716,5 = +0
 c3166: +1 Y716,6 = +0
 c3167: +1 Y717,0 = +0
 c3168: +1 Y717,3 = +0
 c3169: +1 Y717,4 = +0
 c3170: +1 Y717,5 = +0
 c3171: +1 Y717,6 = +0
 c3172: +1 Y718,0 = +0
 c3173: +1 Y718,3 = +0
 c3174: +1 Y718,4 = +0
 c3175: +1 Y718,5 = +0
 c3176: +1 Y718,6 = +0
 c3177: +1 Y719,0 = +0
 c3178: +1 Y719,3 = +0
 c3179: +1 Y719,4 = +0
 c3180: +1 Y719,5 = +0
 c3181: +1 Y719,6 = +0
 c3182: +1 Y720,0 = +0
 c3183: +1 Y720,3 = +0
 c3184: +1 Y720,4 = +0
 c3185: +1 Y720,5 = +0
 c3186: +1 Y720,6 = +0
 c3187: +1 Y721,0 = +0
 c3188: +1 Y721,3 = +0
 c3189: +1 Y721,4 = +0
 c3190: +1 Y721,5 = +0
 c3191: +1 Y721,6 = +0
 c3192: +1 Y722,0 = +0
 c3193: +1 Y722,3 = +0
 c3194: +1 Y722,4 = +0
 c3195: +1 Y722,5 = +0
 c3196: +1 Y722,6 = +0
 c3197: +1 Y723,0 = +0
 c3198: +1 Y723,3 = +0
 c3199: +1 Y723,4 = +0
 c3200: +1 Y723,5 = +0
 c3201: +1 Y723,6 = +0
 c3202: +1 Y724,0 = +0
 c3203: +1 Y724,3 = +0
 c3204: +1 Y724,4 = +0
 c3205: +1 Y724,5 = +0
 c3206: +1 Y724,6 = +0
 c3207: +1 Y725,0 = +0
 c3208: +1 Y725,3 = +0
 c3209: +1 Y725,4 = +0
 c3210: +1 Y725,5 = +0
 c3211: +1 Y725,6 = +0
 c3212: +1 Y726,0 = +0
 c3213: +1 Y726,3 = +0
 c3214: +1 Y726,4 = +0
 c3215: +1 Y726,5 = +0
 c3216: +1 Y726,6 = +0
 c3217: +1 Y727,0 = +0
 c3218: +1 Y727,3 = +0
 c3219: +1 Y727,4 = +0
 c3220: +1 Y727,5 = +0
 c3221: +1 Y727,6 = +0
 c3222: +1 Y728,0 = +0
 c3223: +1 Y728,3 = +0
 c3224: +1 Y728,4 = +0
 c3225: +1 Y728,5 = +0
 c3226: +1 Y728,6 = +0
 c3227: +1 Y729,0 = +0
 c3228: +1 Y729,3 = +0
 c3229: +1 Y729,4 = +0
 c3230: +1 Y729,5 = +0
 c3231: +1 Y729,6 = +0
 c3232: +1 Y730,0 = +0
 c3233: +1 Y730,3 = +0
 c3234: +1 Y730,4 = +0
 c3235: +1 Y730,5 = +0
 c3236: +1 Y730,6 = +0
 c3237: +1 Y731,0 = +0
 c3238: +1 Y731,3 = +0
 c3239: +1 Y731,4 = +0
 c3240: +1 Y731,5 = +0
 c3241: +1 Y731,6 = +0
 c3242: +1 Y732,0 = +0
 c3243: +1 Y732,3 = +0
 c3244: +1 Y732,4 = +0
 c3245: +1 Y732,5 = +0
 c3246: +1 Y732,6 = +0
 c3247: +1 Y733,0 = +0
 c3248: +1 Y733,3 = +0
 c3249: +1 Y733,4 = +0
 c3250: +1 Y733,5 = +0
 c3251: +1 Y733,6 = +0
 c3252: +1 Y734,0 = +0
 c3253: +1 Y734,3 = +0
 c3254: +1 Y734,4 = +0
 c3255: +1 Y734,5 = +0
 c3256: +1 Y734,6 = +0
 c3257: +1 Y735,0 = +0
 c3258: +1 Y735,3 = +0
 c3259: +1 Y735,4 = +0
 c3260: +1 Y735,5 = +0
 c3261: +1 Y735,6 = +0
 c3262: +1 Y736,0 = +0
 c3263: +1 Y736,3 = +0
 c3264: +1 Y736,4 = +0
 c3265: +1 Y736,5 = +0
 c3266: +1 Y736,6 = +0
 c3267: +1 Y737,0 = +0
 c3268: +1 Y737,3 = +0
 c3269: +1 Y737,4 = +0
 c3270: +1 Y737,5 = +0
 c3271: +1 Y737,6 = +0
 c3272: +1 Y738,0 = +0
 c3273: +1 Y738,3 = +0
 c3274: +1 Y738,4 = +0
 c3275: +1 Y738,5 = +0
 c3276: +1 Y738,6 = +0
 c3277: +1 Y739,0 = +0
 c3278: +1 Y739,3 = +0
 c3279: +1 Y739,4 = +0
 c3280: +1 Y739,5 = +0
 c3281: +1 Y739,6 = +0
 c3282: +1 Y740,0 = +0
 c3283: +1 Y740,3 = +0
 c3284: +1 Y740,4 = +0
 c3285: +1 Y740,5 = +0
 c3286: +1 Y740,6 = +0
 c3287: +1 Y741,0 = +0
 c3288: +1 Y741,3 = +0
 c3289: +1 Y741,4 = +0
 c3290: +1 Y741,5 = +0
 c3291: +1 Y741,6 = +0
 c3292: +1 Y742,0 = +0
 c3293: +1 Y742,3 = +0
 c3294: +1 Y742,4 = +0
 c3295: +1 Y742,5 = +0
 c3296: +1 Y742,6 = +0
 c3297: +1 Y743,0 = +0
 c3298: +1 Y743,3 = +0
 c3299: +1 Y743,4 = +0
 c3300: +1 Y743,5 = +0
 c3301: +1 Y743,6 = +0
 c3302: +1 Y744,0 = +0
 c3303: +1 Y744,3 = +0
 c3304: +1 Y744,4 = +0
 c3305: +1 Y744,5 = +0
 c3306: +1 Y744,6 = +0
 c3307: +1 Y745,0 = +0
 c3308: +1 Y745,3 = +0
 c3309: +1 Y745,4 = +0
 c3310: +1 Y745,5 = +0
 c3311: +1 Y745,6 = +0
 c3312: +1 Y746,0 = +0
 c3313: +1 Y746,3 = +0
 c3314: +1 Y746,4 = +0
 c3315: +1 Y746,5 = +0
 c3316: +1 Y746,6 = +0
 c3317: +1 Y747,0 = +0
 c3318: +1 Y747,3 = +0
 c3319: +1 Y747,4 = +0
 c3320: +1 Y747,5 = +0
 c3321: +1 Y747,6 = +0
 c3322: +1 Y748,0 = +0
 c3323: +1 Y748,3 = +0
 c3324: +1 Y748,4 = +0
 c3325: +1 Y748,5 = +0
 c3326: +1 Y748,6 = +0
 c3327: +1 Y749,0 = +0
 c3328: +1 Y749,3 = +0
 c3329: +1 Y749,4 = +0
 c3330: +1 Y749,5 = +0
 c3331: +1 Y749,6 = +0
 c3332: +1 Y750,0 = +0
 c3333: +1 Y750,3 = +0
 c3334: +1 Y750,4 = +0
 c3335: +1 Y750,5 = +0
 c3336: +1 Y750,6 = +0
 c3337: +1 Y751,0 = +0
 c3338: +1 Y751,3 = +0
 c3339: +1 Y751,4 = +0
 c3340: +1 Y751,5 = +0
 c3341: +1 Y751,6 = +0
 c3342: +1 Y752,0 = +0
 c3343: +1 Y752,3 = +0
 c3344: +1 Y752,4 = +0
 c3345: +1 Y752,5 = +0
 c3346: +1 Y752,6 = +0
 c3347: +1 Y753,0 = +0
 c3348: +1 Y753,3 = +0
 c3349: +1 Y753,4 = +0
 c3350: +1 Y753,5 = +0
 c3351: +1 Y753,6 = +0
 c3352: +1 Y754,0 = +0
 c3353: +1 Y754,3 = +0
 c3354: +1 Y754,4 = +0
 c3355: +1 Y754,5 = +0
 c3356: +1 Y754,6 = +0
 c3357: +1 Y755,0 = +0
 c3358: +1 Y755,3 = +0
 c3359: +1 Y755,4 = +0
 c3360: +1 Y755,5 = +0
 c3361: +1 Y755,6 = +0
 c3362: +1 Y756,0 = +0
 c3363: +1 Y756,3 = +0
 c3364: +1 Y756,4 = +0
 c3365: +1 Y756,5 = +0
 c3366: +1 Y756,6 = +0
 c3367: +1 Y757,0 = +0
 c3368: +1 Y757,3 = +0
 c3369: +1 Y757,4 = +0
 c3370: +1 Y757,5 = +0
 c3371: +1 Y757,6 = +0
 c3372: +1 Y758,0 = +0
 c3373: +1 Y758,3 = +0
 c3374: +1 Y758,4 = +0
 c3375: +1 Y758,5 = +0
 c3376: +1 Y758,6 = +0
 c3377: +1 Y759,0 = +0
 c3378: +1 Y759,3 = +0
 c3379: +1 Y759,4 = +0
 c3380: +1 Y759,5 = +0
 c3381: +1 Y759,6 = +0
 c3382: +1 Y760,0 = +0
 c3383: +1 Y760,3 = +0
 c3384: +1 Y760,4 = +0
 c3385: +1 Y760,5 = +0
 c3386: +1 Y760,6 = +0
 c3387: +1 Y761,0 = +0
 c3388: +1 Y761,3 = +0
 c3389: +1 Y761,4 = +0
 c3390: +1 Y761,5 = +0
 c3391: +1 Y761,6 = +0
 c3392: +1 Y762,0 = +0
 c3393: +1 Y762,3 = +0
 c3394: +1 Y762,4 = +0
 c3395: +1 Y762,5 = +0
 c3396: +1 Y762,6 = +0
 c3397: +1 Y763,0 = +0
 c3398: +1 Y763,3 = +0
 c3399: +1 Y763,4 = +0
 c3400: +1 Y763,5 = +0
 c3401: +1 Y763,6 = +0
 c3402: +1 Y764,0 = +0
 c3403: +1 Y764,3 = +0
 c3404: +1 Y764,4 = +0
 c3405: +1 Y764,5 = +0
 c3406: +1 Y764,6 = +0
 c3407: +1 Y765,0 = +0
 c3408: +1 Y765,3 = +0
 c3409: +1 Y765,4 = +0
 c3410: +1 Y765,5 = +0
 c3411: +1 Y765,6 = +0
 c3412: +1 Y766,0 = +0
 c3413: +1 Y766,3 = +0
 c3414: +1 Y766,4 = +0
 c3415: +1 Y766,5 = +0
 c3416: +1 Y766,6 = +0
 c3417: +1 Y767,0 = +0
 c3418: +1 Y767,3 = +0
 c3419: +1 Y767,4 = +0
 c3420: +1 Y767,5 = +0
 c3421: +1 Y767,6 = +0
 c3422: +1 Y768,0 = +0
 c3423: +1 Y768,3 = +0
 c3424: +1 Y768,4 = +0
 c3425: +1 Y768,5 = +0
 c3426: +1 Y768,6 = +0
 c3427: +1 Y769,0 = +0
 c3428: +1 Y769,3 = +0
 c3429: +1 Y769,4 = +0
 c3430: +1 Y769,5 = +0
 c3431: +1 Y769,6 = +0
 c3432: +1 Y770,0 = +0
 c3433: +1 Y770,3 = +0
 c3434: +1 Y770,4 = +0
 c3435: +1 Y770,5 = +0
 c3436: +1 Y770,6 = +0
 c3437: +1 Y771,0 = +0
 c3438: +1 Y771,3 = +0
 c3439: +1 Y771,4 = +0
 c3440: +1 Y771,5 = +0
 c3441: +1 Y771,6 = +0
 c3442: +1 Y772,0 = +0
 c3443: +1 Y772,3 = +0
 c3444: +1 Y772,4 = +0
 c3445: +1 Y772,5 = +0
 c3446: +1 Y772,6 = +0
 c3447: +1 Y773,0 = +0
 c3448: +1 Y773,3 = +0
 c3449: +1 Y773,4 = +0
 c3450: +1 Y773,5 = +0
 c3451: +1 Y773,6 = +0
 c3452: +1 Y774,0 = +0
 c3453: +1 Y774,3 = +0
 c3454: +1 Y774,4 = +0
 c3455: +1 Y774,5 = +0
 c3456: +1 Y774,6 = +0
 c3457: +1 Y775,0 = +0
 c3458: +1 Y775,3 = +0
 c3459: +1 Y775,4 = +0
 c3460: +1 Y775,5 = +0
 c3461: +1 Y775,6 = +0
 c3462: +1 Y776,0 = +0
 c3463: +1 Y776,3 = +0
 c3464: +1 Y776,4 = +0
 c3465: +1 Y776,5 = +0
 c3466: +1 Y776,6 = +0
 c3467: +1 Y777,0 = +0
 c3468: +1 Y777,3 = +0
 c3469: +1 Y777,4 = +0
 c3470: +1 Y777,5 = +0
 c3471: +1 Y777,6 = +0
 c3472: +1 Y778,0 = +0
 c3473: +1 Y778,3 = +0
 c3474: +1 Y778,4 = +0
 c3475: +1 Y778,5 = +0
 c3476: +1 Y778,6 = +0
 c3477: +1 Y779,0 = +0
 c3478: +1 Y779,3 = +0
 c3479: +1 Y779,4 = +0
 c3480: +1 Y779,5 = +0
 c3481: +1 Y779,6 = +0
 c3482: +1 Y780,0 = +0
 c3483: +1 Y780,3 = +0
 c3484: +1 Y780,4 = +0
 c3485: +1 Y780,5 = +0
 c3486: +1 Y780,6 = +0
 c3487: +1 Y781,0 = +0
 c3488: +1 Y781,3 = +0
 c3489: +1 Y781,4 = +0
 c3490: +1 Y781,5 = +0
 c3491: +1 Y781,6 = +0
 c3492: +1 Y782,0 = +0
 c3493: +1 Y782,3 = +0
 c3494: +1 Y782,4 = +0
 c3495: +1 Y782,5 = +0
 c3496: +1 Y782,6 = +0
 c3497: +1 Y783,0 = +0
 c3498: +1 Y783,3 = +0
 c3499: +1 Y783,4 = +0
 c3500: +1 Y783,5 = +0
 c3501: +1 Y783,6 = +0
 c3502: +1 Y784,0 = +0
 c3503: +1 Y784,3 = +0
 c3504: +1 Y784,4 = +0
 c3505: +1 Y784,5 = +0
 c3506: +1 Y784,6 = +0
 c3507: +1 Y785,0 = +0
 c3508: +1 Y785,3 = +0
 c3509: +1 Y785,4 = +0
 c3510: +1 Y785,5 = +0
 c3511: +1 Y785,6 = +0
 c3512: +1 Y786,0 = +0
 c3513: +1 Y786,3 = +0
 c3514: +1 Y786,4 = +0
 c3515: +1 Y786,5 = +0
 c3516: +1 Y786,6 = +0
 c3517: +1 Y787,0 = +0
 c3518: +1 Y787,3 = +0
 c3519: +1 Y787,4 = +0
 c3520: +1 Y787,5 = +0
 c3521: +1 Y787,6 = +0
 c3522: +1 Y788,0 = +0
 c3523: +1 Y788,3 = +0
 c3524: +1 Y788,4 = +0
 c3525: +1 Y788,5 = +0
 c3526: +1 Y788,6 = +0
 c3527: +1 Y789,0 = +0
 c3528: +1 Y789,3 = +0
 c3529: +1 Y789,4 = +0
 c3530: +1 Y789,5 = +0
 c3531: +1 Y789,6 = +0
 c3532: +1 Y790,0 = +0
 c3533: +1 Y790,3 = +0
 c3534: +1 Y790,4 = +0
 c3535: +1 Y790,5 = +0
 c3536: +1 Y790,6 = +0
 c3537: +1 Y791,0 = +0
 c3538: +1 Y791,3 = +0
 c3539: +1 Y791,4 = +0
 c3540: +1 Y791,5 = +0
 c3541: +1 Y791,6 = +0
 c3542: +1 Y792,0 = +0
 c3543: +1 Y792,3 = +0
 c3544: +1 Y792,4 = +0
 c3545: +1 Y792,5 = +0
 c3546: +1 Y792,6 = +0
 c3547: +1 Y793,0 = +0
 c3548: +1 Y793,3 = +0
 c3549: +1 Y793,4 = +0
 c3550: +1 Y793,5 = +0
 c3551: +1 Y793,6 = +0
 c3552: +1 Y794,0 = +0
 c3553: +1 Y794,3 = +0
 c3554: +1 Y794,4 = +0
 c3555: +1 Y794,5 = +0
 c3556: +1 Y794,6 = +0
 c3557: +1 Y795,0 = +0
 c3558: +1 Y795,3 = +0
 c3559: +1 Y795,4 = +0
 c3560: +1 Y795,5 = +0
 c3561: +1 Y795,6 = +0
 c3562: +1 Y796,0 = +0
 c3563: +1 Y796,3 = +0
 c3564: +1 Y796,4 = +0
 c3565: +1 Y796,5 = +0
 c3566: +1 Y796,6 = +0
 c3567: +1 Y797,0 = +0
 c3568: +1 Y797,3 = +0
 c3569: +1 Y797,4 = +0
 c3570: +1 Y797,5 = +0
 c3571: +1 Y797,6 = +0
 c3572: +1 Y798,0 = +0
 c3573: +1 Y798,3 = +0
 c3574: +1 Y798,4 = +0
 c3575: +1 Y798,5 = +0
 c3576: +1 Y798,6 = +0
 c3577: +1 Y799,0 = +0
 c3578: +1 Y799,3 = +0
 c3579: +1 Y799,4 = +0
 c3580: +1 Y799,5 = +0
 c3581: +1 Y799,6 = +0
 c3582: +1 Y800,0 = +0
 c3583: +1 Y800,3 = +0
 c3584: +1 Y800,4 = +0
 c3585: +1 Y800,5 = +0
 c3586: +1 Y800,6 = +0
 c3587: +1 Y801,0 = +0
 c3588: +1 Y801,3 = +0
 c3589: +1 Y801,4 = +0
 c3590: +1 Y801,5 = +0
 c3591: +1 Y801,6 = +0
 c3592: +1 Y802,0 = +0
 c3593: +1 Y802,3 = +0
 c3594: +1 Y802,4 = +0
 c3595: +1 Y802,5 = +0
 c3596: +1 Y802,6 = +0
 c3597: +1 Y803,0 = +0
 c3598: +1 Y803,3 = +0
 c3599: +1 Y803,4 = +0
 c3600: +1 Y803,5 = +0
 c3601: +1 Y803,6 = +0
 c3602: +1 Y804,0 = +0
 c3603: +1 Y804,3 = +0
 c3604: +1 Y804,4 = +0
 c3605: +1 Y804,5 = +0
 c3606: +1 Y804,6 = +0
 c3607: +1 Y805,0 = +0
 c3608: +1 Y805,3 = +0
 c3609: +1 Y805,4 = +0
 c3610: +1 Y805,5 = +0
 c3611: +1 Y805,6 = +0
 c3612: +1 Y806,0 = +0
 c3613: +1 Y806,3 = +0
 c3614: +1 Y806,4 = +0
 c3615: +1 Y806,5 = +0
 c3616: +1 Y806,6 = +0
 c3617: +1 Y807,0 = +0
 c3618: +1 Y807,3 = +0
 c3619: +1 Y807,4 = +0
 c3620: +1 Y807,5 = +0
 c3621: +1 Y807,6 = +0
 c3622: +1 Y808,0 = +0
 c3623: +1 Y808,3 = +0
 c3624: +1 Y808,4 = +0
 c3625: +1 Y808,5 = +0
 c3626: +1 Y808,6 = +0
 c3627: +1 Y809,0 = +0
 c3628: +1 Y809,3 = +0
 c3629: +1 Y809,4 = +0
 c3630: +1 Y809,5 = +0
 c3631: +1 Y809,6 = +0
 c3632: +1 Y810,0 = +0
 c3633: +1 Y810,3 = +0
 c3634: +1 Y810,4 = +0
 c3635: +1 Y810,5 = +0
 c3636: +1 Y810,6 = +0
 c3637: +1 Y811,0 = +0
 c3638: +1 Y811,3 = +0
 c3639: +1 Y811,4 = +0
 c3640: +1 Y811,5 = +0
 c3641: +1 Y811,6 = +0
 c3642: +1 Y812,0 = +0
 c3643: +1 Y812,3 = +0
 c3644: +1 Y812,4 = +0
 c3645: +1 Y812,5 = +0
 c3646: +1 Y812,6 = +0
 c3647: +1 Y813,0 = +0
 c3648: +1 Y813,3 = +0
 c3649: +1 Y813,4 = +0
 c3650: +1 Y813,5 = +0
 c3651: +1 Y813,6 = +0
 c3652: +1 Y814,0 = +0
 c3653: +1 Y814,3 = +0
 c3654: +1 Y814,4 = +0
 c3655: +1 Y814,5 = +0
 c3656: +1 Y814,6 = +0
 c3657: +1 Y815,0 = +0
 c3658: +1 Y815,3 = +0
 c3659: +1 Y815,4 = +0
 c3660: +1 Y815,5 = +0
 c3661: +1 Y815,6 = +0
 c3662: +1 Y816,0 = +0
 c3663: +1 Y816,3 = +0
 c3664: +1 Y816,4 = +0
 c3665: +1 Y816,5 = +0
 c3666: +1 Y816,6 = +0
 c3667: +1 Y817,0 = +0
 c3668: +1 Y817,3 = +0
 c3669: +1 Y817,4 = +0
 c3670: +1 Y817,5 = +0
 c3671: +1 Y817,6 = +0
 c3672: +1 Y818,0 = +0
 c3673: +1 Y818,3 = +0
 c3674: +1 Y818,4 = +0
 c3675: +1 Y818,5 = +0
 c3676: +1 Y818,6 = +0
 c3677: +1 Y819,0 = +0
 c3678: +1 Y819,3 = +0
 c3679: +1 Y819,4 = +0
 c3680: +1 Y819,5 = +0
 c3681: +1 Y819,6 = +0
 c3682: +1 Y820,0 = +0
 c3683: +1 Y820,3 = +0
 c3684: +1 Y820,4 = +0
 c3685: +1 Y820,5 = +0
 c3686: +1 Y820,6 = +0
 c3687: +1 Y821,0 = +0
 c3688: +1 Y821,3 = +0
 c3689: +1 Y821,4 = +0
 c3690: +1 Y821,5 = +0
 c3691: +1 Y821,6 = +0
 c3692: +1 Y822,0 = +0
 c3693: +1 Y822,3 = +0
 c3694: +1 Y822,4 = +0
 c3695: +1 Y822,5 = +0
 c3696: +1 Y822,6 = +0
 c3697: +1 Y823,0 = +0
 c3698: +1 Y823,3 = +0
 c3699: +1 Y823,4 = +0
 c3700: +1 Y823,5 = +0
 c3701: +1 Y823,6 = +0
 c3702: +1 Y824,0 = +0
 c3703: +1 Y824,3 = +0
 c3704: +1 Y824,4 = +0
 c3705: +1 Y824,5 = +0
 c3706: +1 Y824,6 = +0
 c3707: +1 Y825,0 = +0
 c3708: +1 Y825,3 = +0
 c3709: +1 Y825,4 = +0
 c3710: +1 Y825,5 = +0
 c3711: +1 Y825,6 = +0
 c3712: +1 Y826,0 = +0
 c3713: +1 Y826,3 = +0
 c3714: +1 Y826,4 = +0
 c3715: +1 Y826,5 = +0
 c3716: +1 Y826,6 = +0
 c3717: +1 Y827,0 = +0
 c3718: +1 Y827,3 = +0
 c3719: +1 Y827,4 = +0
 c3720: +1 Y827,5 = +0
 c3721: +1 Y827,6 = +0
 c3722: +1 Y828,0 = +0
 c3723: +1 Y828,3 = +0
 c3724: +1 Y828,4 = +0
 c3725: +1 Y828,5 = +0
 c3726: +1 Y828,6 = +0
 c3727: +1 Y829,0 = +0
 c3728: +1 Y829,3 = +0
 c3729: +1 Y829,4 = +0
 c3730: +1 Y829,5 = +0
 c3731: +1 Y829,6 = +0
 c3732: +1 Y830,0 = +0
 c3733: +1 Y830,3 = +0
 c3734: +1 Y830,4 = +0
 c3735: +1 Y830,5 = +0
 c3736: +1 Y830,6 = +0
 c3737: +1 Y831,0 = +0
 c3738: +1 Y831,3 = +0
 c3739: +1 Y831,4 = +0
 c3740: +1 Y831,5 = +0
 c3741: +1 Y831,6 = +0
 c3742: +1 Y832,0 = +0
 c3743: +1 Y832,3 = +0
 c3744: +1 Y832,4 = +0
 c3745: +1 Y832,5 = +0
 c3746: +1 Y832,6 = +0
 c3747: +1 Y833,0 = +0
 c3748: +1 Y833,3 = +0
 c3749: +1 Y833,4 = +0
 c3750: +1 Y833,5 = +0
 c3751: +1 Y833,6 = +0
 c3752: +1 Y834,0 = +0
 c3753: +1 Y834,3 = +0
 c3754: +1 Y834,4 = +0
 c3755: +1 Y834,5 = +0
 c3756: +1 Y834,6 = +0
 c3757: +1 Y835,0 = +0
 c3758: +1 Y835,3 = +0
 c3759: +1 Y835,4 = +0
 c3760: +1 Y835,5 = +0
 c3761: +1 Y835,6 = +0
 c3762: +1 Y836,0 = +0
 c3763: +1 Y836,3 = +0
 c3764: +1 Y836,4 = +0
 c3765: +1 Y836,5 = +0
 c3766: +1 Y836,6 = +0
 c3767: +1 Y837,0 = +0
 c3768: +1 Y837,3 = +0
 c3769: +1 Y837,4 = +0
 c3770: +1 Y837,5 = +0
 c3771: +1 Y837,6 = +0
 c3772: +1 Y838,0 = +0
 c3773: +1 Y838,3 = +0
 c3774: +1 Y838,4 = +0
 c3775: +1 Y838,5 = +0
 c3776: +1 Y838,6 = +0
 c3777: +1 Y839,0 = +0
 c3778: +1 Y839,3 = +0
 c3779: +1 Y839,4 = +0
 c3780: +1 Y839,5 = +0
 c3781: +1 Y839,6 = +0
 c3782: +1 Y840,0 = +0
 c3783: +1 Y840,1 = +0
 c3784: +1 Y840,2 = +0
 c3785: +1 Y840,3 = +0
 c3786: +1 Y841,0 = +0
 c3787: +1 Y841,1 = +0
 c3788: +1 Y841,2 = +0
 c3789: +1 Y841,3 = +0
 c3790: +1 Y842,0 = +0
 c3791: +1 Y842,1 = +0
 c3792: +1 Y842,2 = +0
 c3793: +1 Y842,3 = +0
 c3794: +1 Y843,1 = +0
 c3795: +1 Y843,2 = +0
 c3796: +1 Y843,3 = +0
 c3797: +1 Y843,4 = +0
 c3798: +1 Y843,6 = +0
 c3799: +1 Y844,1 = +0
 c3800: +1 Y844,2 = +0
 c3801: +1 Y844,3 = +0
 c3802: +1 Y844,4 = +0
 c3803: +1 Y844,6 = +0
 c3804: +1 Y845,1 = +0
 c3805: +1 Y845,2 = +0
 c3806: +1 Y845,3 = +0
 c3807: +1 Y845,4 = +0
 c3808: +1 Y845,6 = +0
 c3809: +1 Y846,1 = +0
 c3810: +1 Y846,2 = +0
 c3811: +1 Y846,3 = +0
 c3812: +1 Y846,4 = +0
 c3813: +1 Y846,6 = +0
 c3814: +1 Y847,1 = +0
 c3815: +1 Y847,2 = +0
 c3816: +1 Y847,3 = +0
 c3817: +1 Y847,4 = +0
 c3818: +1 Y847,6 = +0
 c3819: +1 Y848,1 = +0
 c3820: +1 Y848,2 = +0
 c3821: +1 Y848,3 = +0
 c3822: +1 Y848,4 = +0
 c3823: +1 Y848,6 = +0
 c3824: +1 Y849,1 = +0
 c3825: +1 Y849,2 = +0
 c3826: +1 Y849,3 = +0
 c3827: +1 Y849,4 = +0
 c3828: +1 Y849,6 = +0
 c3829: +1 Y850,1 = +0
 c3830: +1 Y850,2 = +0
 c3831: +1 Y850,3 = +0
 c3832: +1 Y850,4 = +0
 c3833: +1 Y850,6 = +0
 c3834: +1 Y851,1 = +0
 c3835: +1 Y851,2 = +0
 c3836: +1 Y851,3 = +0
 c3837: +1 Y851,4 = +0
 c3838: +1 Y851,6 = +0
 c3839: +1 Y852,1 = +0
 c3840: +1 Y852,2 = +0
 c3841: +1 Y852,3 = +0
 c3842: +1 Y852,4 = +0
 c3843: +1 Y852,6 = +0
 c3844: +1 Y853,1 = +0
 c3845: +1 Y853,2 = +0
 c3846: +1 Y853,3 = +0
 c3847: +1 Y853,4 = +0
 c3848: +1 Y853,6 = +0
 c3849: +1 Y854,1 = +0
 c3850: +1 Y854,2 = +0
 c3851: +1 Y854,3 = +0
 c3852: +1 Y854,4 = +0
 c3853: +1 Y854,6 = +0
 c3854: +1 Y855,1 = +0
 c3855: +1 Y855,2 = +0
 c3856: +1 Y855,3 = +0
 c3857: +1 Y855,4 = +0
 c3858: +1 Y855,6 = +0
 c3859: +1 Y856,1 = +0
 c3860: +1 Y856,2 = +0
 c3861: +1 Y856,3 = +0
 c3862: +1 Y856,4 = +0
 c3863: +1 Y856,6 = +0
 c3864: +1 Y857,1 = +0
 c3865: +1 Y857,2 = +0
 c3866: +1 Y857,3 = +0
 c3867: +1 Y857,4 = +0
 c3868: +1 Y857,6 = +0
 c3869: +1 Cmax -117 Y0,0 -117 Y1,0 -117 Y2,0 -117 Y3,0 -117 Y4,0 -117 Y5,0 -117 Y6,0 -117 Y7,0 -117 Y8,0
  -117 Y9,0 -117 Y10,0 -117 Y11,0 -117 Y12,0 -117 Y13,0 -117 Y14,0 -117 Y15,0 -117 Y16,0 -117 Y17,0 -117 Y18,0
  -117 Y19,0 -117 Y20,0 -117 Y21,0 -117 Y22,0 -117 Y23,0 -117 Y24,0 -117 Y25,0 -117 Y26,0 -117 Y27,0 -117 Y28,0
  -117 Y29,0 -117 Y30,0 -94 Y31,0 -94 Y32,0 -94 Y33,0 -94 Y34,0 -94 Y35,0 -94 Y36,0 -94 Y37,0 -94 Y38,0
  -94 Y39,0 -94 Y40,0 -94 Y41,0 -94 Y42,0 -94 Y43,0 -94 Y44,0 -94 Y45,0 -94 Y46,0 -94 Y47,0 -94 Y48,0
  -94 Y49,0 -94 Y50,0 -94 Y51,0 -94 Y52,0 -94 Y53,0 -94 Y54,0 -94 Y55,0 -94 Y56,0 -94 Y57,0 -94 Y58,0
  -94 Y59,0 -94 Y60,0 -94 Y61,0 -94 Y62,0 -94 Y63,0 -94 Y64,0 -94 Y65,0 -94 Y66,0 -94 Y67,0 -94 Y68,0
  -94 Y69,0 -94 Y70,0 -94 Y71,0 -94 Y72,0 -94 Y73,0 -94 Y74,0 -94 Y75,0 -94 Y76,0 -94 Y77,0 -94 Y78,0
  -94 Y79,0 -94 Y80,0 -94 Y81,0 -94 Y82,0 -94 Y83,0 -94 Y84,0 -94 Y85,0 -94 Y86,0 -94 Y87,0 -94 Y88,0
  -94 Y89,0 -94 Y90,0 -94 Y91,0 -94 Y92,0 -94 Y93,0 -112 Y94,0 -112 Y95,0 -112 Y96,0 -112 Y97,0 -112 Y98,0
  -112 Y99,0 -112 Y100,0 -112 Y101,0 -112 Y102,0 -112 Y103,0 -112 Y104,0 -112 Y105,0 -112 Y106,0 -112 Y107,0
  -112 Y108,0 -112 Y109,0 -112 Y110,0 -112 Y111,0 -112 Y112,0 -112 Y113,0 -112 Y114,0 -112 Y115,0 -112 Y116,0
  -112 Y117,0 -112 Y118,0 -112 Y119,0 -112 Y120,0 -112 Y121,0 -112 Y122,0 -112 Y123,0 -112 Y124,0 -112 Y125,0
  -112 Y126,0 -112 Y127,0 -112 Y128,0 -112 Y129,0 -112 Y130,0 -112 Y131,0 -112 Y132,0 -112 Y133,0 -112 Y134,0
  -112 Y135,0 -112 Y136,0 -112 Y137,0 -112 Y138,0 -112 Y139,0 -112 Y140,0 -112 Y141,0 -112 Y142,0 -112 Y143,0
  -112 Y144,0 -112 Y145,0 -112 Y146,0 -112 Y147,0 -112 Y148,0 -112 Y149,0 -112 Y150,0 -112 Y151,0 -112 Y152,0
  -112 Y153,0 -112 Y154,0 -112 Y155,0 -112 Y156,0 -112 Y157,0 -112 Y158,0 -112 Y159,0 -112 Y160,0 -112 Y161,0
  -112 Y162,0 -112 Y163,0 -112 Y164,0 -112 Y165,0 -112 Y166,0 -112 Y167,0 -112 Y168,0 -112 Y169,0 -112 Y170,0
  -112 Y171,0 -112 Y172,0 -112 Y173,0 -112 Y174,0 -112 Y175,0 -112 Y176,0 -112 Y177,0 -112 Y178,0 -112 Y179,0
  -112 Y180,0 -112 Y181,0 -112 Y182,0 -112 Y183,0 -112 Y184,0 -112 Y185,0 -112 Y186,0 -112 Y187,0 -112 Y188,0
  -112 Y189,0 -112 Y190,0 -112 Y191,0 -112 Y192,0 -112 Y193,0 -112 Y194,0 -112 Y195,0 -112 Y196,0 -112 Y197,0
  -112 Y198,0 -112 Y199,0 -112 Y200,0 -112 Y201,0 -112 Y202,0 -112 Y203,0 -112 Y204,0 -112 Y205,0 -112 Y206,0
  -112 Y207,0 -112 Y208,0 -112 Y209,0 -112 Y210,0 -112 Y211,0 -112 Y212,0 -112 Y213,0 -112 Y214,0 -112 Y215,0
  -112 Y216,0 -112 Y217,0 -112 Y218,0 -112 Y219,0 -112 Y220,0 -112 Y221,0 -112 Y222,0 -112 Y223,0 -112 Y224,0
  -112 Y225,0 -112 Y226,0 -112 Y227,0 -112 Y228,0 -112 Y229,0 -112 Y230,0 -112 Y231,0 -112 Y232,0 -112 Y233,0
  -112 Y234,0 -112 Y235,0 -112 Y236,0 -112 Y237,0 -112 Y238,0 -112 Y239,0 -112 Y240,0 -112 Y241,0 -112 Y242,0
  -112 Y243,0 -112 Y244,0 -112 Y245,0 -112 Y246,0 -112 Y247,0 -112 Y248,0 -112 Y249,0 -112 Y250,0 -112 Y251,0
  -112 Y252,0 -112 Y253,0 -112 Y254,0 -112 Y255,0 -112 Y256,0 -112 Y257,0 -112 Y258,0 -112 Y259,0 -112 Y260,0
  -112 Y261,0 -112 Y262,0 -112 Y263,0 -112 Y264,0 -112 Y265,0 -112 Y266,0 -112 Y267,0 -112 Y268,0 -112 Y269,0
  -112 Y270,0 -112 Y271,0 -112 Y272,0 -112 Y273,0 -112 Y274,0 -112 Y275,0 -112 Y276,0 -112 Y277,0 -112 Y278,0
  -112 Y279,0 -112 Y280,0 -112 Y281,0 -112 Y282,0 -112 Y283,0 -112 Y284,0 -112 Y285,0 -112 Y286,0 -112 Y287,0
  -112 Y288,0 -112 Y289,0 -112 Y290,0 -112 Y291,0 -112 Y292,0 -112 Y293,0 -112 Y294,0 -112 Y295,0 -112 Y296,0
  -112 Y297,0 -112 Y298,0 -112 Y299,0 -112 Y300,0 -112 Y301,0 -112 Y302,0 -112 Y303,0 -112 Y304,0 -112 Y305,0
  -112 Y306,0 -112 Y307,0 -112 Y308,0 -112 Y309,0 -112 Y310,0 -112 Y311,0 -112 Y312,0 -112 Y313,0 -112 Y314,0
  -112 Y315,0 -112 Y316,0 -112 Y317,0 -112 Y318,0 -112 Y319,0 -112 Y320,0 -112 Y321,0 -112 Y322,0 -112 Y323,0
  -112 Y324,0 -112 Y325,0 -112 Y326,0 -112 Y327,0 -112 Y328,0 -112 Y329,0 -112 Y330,0 -112 Y331,0 -112 Y332,0
  -112 Y333,0 -112 Y334,0 -112 Y335,0 -112 Y336,0 -112 Y337,0 -112 Y338,0 -112 Y339,0 -112 Y340,0 -112 Y341,0
  -112 Y342,0 -112 Y343,0 -112 Y344,0 -112 Y345,0 -112 Y346,0 -112 Y347,0 -112 Y348,0 -69 Y349,0 -69 Y350,0
  -69 Y351,0 -69 Y352,0 -69 Y353,0 -69 Y354,0 -69 Y355,0 -69 Y356,0 -69 Y357,0 -69 Y358,0 -69 Y359,0 -69 Y360,0
  -69 Y361,0 -69 Y362,0 -69 Y363,0 -69 Y364,0 -69 Y365,0 -69 Y366,0 -69 Y367,0 -69 Y368,0 -69 Y369,0 -69 Y370,0
  -69 Y371,0 -69 Y372,0 -69 Y373,0 -69 Y374,0 -69 Y375,0 -69 Y376,0 -69 Y377,0 -69 Y378,0 -69 Y379,0 -69 Y380,0
  -69 Y381,0 -69 Y382,0 -69 Y383,0 -69 Y384,0 -69 Y385,0 -69 Y386,0 -69 Y387,0 -69 Y388,0 -69 Y389,0 -69 Y390,0
  -69 Y391,0 -69 Y392,0 -69 Y393,0 -69 Y394,0 -69 Y395,0 -69 Y396,0 -69 Y397,0 -69 Y398,0 -69 Y399,0 -69 Y400,0
  -69 Y401,0 -69 Y402,0 -69 Y403,0 -69 Y404,0 -69 Y405,0 -69 Y406,0 -69 Y407,0 -69 Y408,0 -69 Y409,0 -69 Y410,0
  -69 Y411,0 -69 Y412,0 -69 Y413,0 -69 Y414,0 -69 Y415,0 -69 Y416,0 -69 Y417,0 -69 Y418,0 -69 Y419,0 -69 Y420,0
  -69 Y421,0 -69 Y422,0 -69 Y423,0 -69 Y424,0 -69 Y425,0 -69 Y426,0 -69 Y427,0 -69 Y428,0 -69 Y429,0 -69 Y430,0
  -69 Y431,0 -69 Y432,0 -69 Y433,0 -69 Y434,0 -69 Y435,0 -69 Y436,0 -69 Y437,0 -69 Y438,0 -69 Y439,0 -69 Y440,0
  -69 Y441,0 -69 Y442,0 -69 Y443,0 -69 Y444,0 -69 Y445,0 -69 Y446,0 -69 Y447,0 -69 Y448,0 -69 Y449,0 -69 Y450,0
  -69 Y451,0 -69 Y452,0 -69 Y453,0 -69 Y454,0 -69 Y455,0 -69 Y456,0 -69 Y457,0 -69 Y458,0 -69 Y459,0 -69 Y460,0
  -69 Y461,0 -69 Y462,0 -69 Y463,0 -69 Y464,0 -69 Y465,0 -69 Y466,0 -69 Y467,0 -69 Y468,0 -69 Y469,0 -69 Y470,0
  -69 Y471,0 -69 Y472,0 -69 Y473,0 -69 Y474,0 -69 Y475,0 -50 Y476,0 -50 Y477,0 -50 Y478,0 -50 Y479,0 -50 Y480,0
  -50 Y481,0 -50 Y482,0 -50 Y483,0 -50 Y484,0 -50 Y485,0 -50 Y486,0 -50 Y487,0 -50 Y488,0 -50 Y489,0 -50 Y490,0
  -50 Y491,0 -50 Y492,0 -50 Y493,0 -50 Y494,0 -50 Y495,0 -50 Y496,0 -50 Y497,0 -50 Y498,0 -50 Y499,0 -50 Y500,0
  -50 Y501,0 -50 Y502,0 -50 Y503,0 -50 Y504,0 -50 Y505,0 -50 Y506,0 -50 Y507,0 -50 Y508,0 -50 Y509,0 -50 Y510,0
  -50 Y511,0 -50 Y512,0 -50 Y513,0 -50 Y514,0 -50 Y515,0 -50 Y516,0 -50 Y517,0 -50 Y518,0 -50 Y519,0 -50 Y520,0
  -50 Y521,0 -50 Y522,0 -50 Y523,0 -50 Y524,0 -50 Y525,0 -50 Y526,0 -50 Y527,0 -50 Y528,0 -50 Y529,0 -50 Y530,0
  -50 Y531,0 -50 Y532,0 -50 Y533,0 -50 Y534,0 -50 Y535,0 -50 Y536,0 -50 Y537,0 -50 Y538,0 -92 Y539,0 -92 Y540,0
  -92 Y541,0 -92 Y542,0 -92 Y543,0 -92 Y544,0 -92 Y545,0 -92 Y546,0 -92 Y547,0 -92 Y548,0 -92 Y549,0 -92 Y550,0
  -92 Y551,0 -92 Y552,0 -92 Y553,0 -50 Y554,0 -50 Y555,0 -50 Y556,0 -50 Y557,0 -50 Y558,0 -50 Y559,0 -50 Y560,0
  -50 Y561,0 -50 Y562,0 -50 Y563,0 -50 Y564,0 -50 Y565,0 -50 Y566,0 -50 Y567,0 -50 Y568,0 -50 Y569,0 -50 Y570,0
  -50 Y571,0 -50 Y572,0 -50 Y573,0 -50 Y574,0 -50 Y575,0 -50 Y576,0 -50 Y577,0 -50 Y578,0 -50 Y579,0 -50 Y580,0
  -50 Y581,0 -50 Y582,0 -50 Y583,0 -50 Y584,0 -107 Y585,0 -107 Y586,0 -107 Y587,0 -107 Y588,0 -107 Y589,0
  -107 Y590,0 -107 Y591,0 -107 Y592,0 -107 Y593,0 -107 Y594,0 -107 Y595,0 -107 Y596,0 -107 Y597,0 -107 Y598,0
  -107 Y599,0 -107 Y600,0 -107 Y601,0 -107 Y602,0 -107 Y603,0 -107 Y604,0 -107 Y605,0 -107 Y606,0 -107 Y607,0
  -107 Y608,0 -107 Y609,0 -107 Y610,0 -107 Y611,0 -107 Y612,0 -107 Y613,0 -107 Y614,0 -107 Y615,0 -107 Y616,0
  -107 Y617,0 -107 Y618,0 -107 Y619,0 -107 Y620,0 -107 Y621,0 -107 Y622,0 -107 Y623,0 -107 Y624,0 -107 Y625,0
  -107 Y626,0 -107 Y627,0 -107 Y628,0 -107 Y629,0 -107 Y630,0 -107 Y631,0 -107 Y632,0 -107 Y633,0 -107 Y634,0
  -107 Y635,0 -107 Y636,0 -107 Y637,0 -107 Y638,0 -107 Y639,0 -107 Y640,0 -107 Y641,0 -107 Y642,0 -107 Y643,0
  -107 Y644,0 -107 Y645,0 -107 Y646,0 -107 Y647,0 -107 Y648,0 -107 Y649,0 -107 Y650,0 -107 Y651,0 -107 Y652,0
  -107 Y653,0 -107 Y654,0 -107 Y655,0 -107 Y656,0 -107 Y657,0 -107 Y658,0 -107 Y659,0 -107 Y660,0 -107 Y661,0
  -107 Y662,0 -107 Y663,0 -107 Y664,0 -107 Y665,0 -107 Y666,0 -107 Y667,0 -107 Y668,0 -107 Y669,0 -107 Y670,0
  -107 Y671,0 -107 Y672,0 -107 Y673,0 -107 Y674,0 -107 Y675,0 -107 Y676,0 -107 Y677,0 -107 Y678,0 -107 Y679,0
  -107 Y680,0 -107 Y681,0 -107 Y682,0 -107 Y683,0 -107 Y684,0 -107 Y685,0 -107 Y686,0 -107 Y687,0 -107 Y688,0
  -107 Y689,0 -107 Y690,0 -107 Y691,0 -107 Y692,0 -107 Y693,0 -107 Y694,0 -107 Y695,0 -107 Y696,0 -107 Y697,0
  -107 Y698,0 -107 Y699,0 -107 Y700,0 -107 Y701,0 -107 Y702,0 -107 Y703,0 -107 Y704,0 -107 Y705,0 -107 Y706,0
  -107 Y707,0 -107 Y708,0 -107 Y709,0 -107 Y710,0 -107 Y711,0 -107 Y712,0 -107 Y713,0 -107 Y714,0 -107 Y715,0
  -107 Y716,0 -107 Y717,0 -107 Y718,0 -107 Y719,0 -107 Y720,0 -107 Y721,0 -107 Y722,0 -107 Y723,0 -107 Y724,0
  -107 Y725,0 -107 Y726,0 -107 Y727,0 -107 Y728,0 -107 Y729,0 -107 Y730,0 -107 Y731,0 -107 Y732,0 -107 Y733,0
  -107 Y734,0 -107 Y735,0 -107 Y736,0 -107 Y737,0 -107 Y738,0 -107 Y739,0 -107 Y740,0 -107 Y741,0 -107 Y742,0
  -107 Y743,0 -107 Y744,0 -107 Y745,0 -107 Y746,0 -107 Y747,0 -107 Y748,0 -107 Y749,0 -107 Y750,0 -107 Y751,0
  -107 Y752,0 -107 Y753,0 -107 Y754,0 -107 Y755,0 -107 Y756,0 -107 Y757,0 -107 Y758,0 -107 Y759,0 -107 Y760,0
  -107 Y761,0 -107 Y762,0 -107 Y763,0 -107 Y764,0 -107 Y765,0 -107 Y766,0 -107 Y767,0 -107 Y768,0 -107 Y769,0
  -107 Y770,0 -107 Y771,0 -107 Y772,0 -107 Y773,0 -107 Y774,0 -107 Y775,0 -107 Y776,0 -107 Y777,0 -107 Y778,0
  -107 Y779,0 -107 Y780,0 -107 Y781,0 -107 Y782,0 -107 Y783,0 -107 Y784,0 -107 Y785,0 -107 Y786,0 -107 Y787,0
  -107 Y788,0 -107 Y789,0 -107 Y790,0 -107 Y791,0 -107 Y792,0 -107 Y793,0 -107 Y794,0 -107 Y795,0 -107 Y796,0
  -107 Y797,0 -107 Y798,0 -107 Y799,0 -107 Y800,0 -107 Y801,0 -107 Y802,0 -107 Y803,0 -107 Y804,0 -107 Y805,0
  -107 Y806,0 -107 Y807,0 -107 Y808,0 -107 Y809,0 -107 Y810,0 -107 Y811,0 -107 Y812,0 -107 Y813,0 -107 Y814,0
  -107 Y815,0 -107 Y816,0 -107 Y817,0 -107 Y818,0 -107 Y819,0 -107 Y820,0 -107 Y821,0 -107 Y822,0 -107 Y823,0
  -107 Y824,0 -107 Y825,0 -107 Y826,0 -107 Y827,0 -107 Y828,0 -107 Y829,0 -107 Y830,0 -107 Y831,0 -107 Y832,0
  -107 Y833,0 -107 Y834,0 -107 Y835,0 -107 Y836,0 -107 Y837,0 -107 Y838,0 -107 Y839,0 -110 Y840,0 -110 Y841,0
  -110 Y842,0 -102 Y843,0 -102 Y844,0 -102 Y845,0 -102 Y846,0 -102 Y847,0 -102 Y848,0 -102 Y849,0 -102 Y850,0
  -102 Y851,0 -102 Y852,0 -102 Y853,0 -102 Y854,0 -102 Y855,0 -102 Y856,0 -102 Y857,0 >= +0
 c3870: +1 Cmax -117 Y0,1 -117 Y1,1 -117 Y2,1 -117 Y3,1 -117 Y4,1 -117 Y5,1 -117 Y6,1 -117 Y7,1 -117 Y8,1
  -117 Y9,1 -117 Y10,1 -117 Y11,1 -117 Y12,1 -117 Y13,1 -117 Y14,1 -117 Y15,1 -117 Y16,1 -117 Y17,1 -117 Y18,1
  -117 Y19,1 -117 Y20,1 -117 Y21,1 -117 Y22,1 -117 Y23,1 -117 Y24,1 -117 Y25,1 -117 Y26,1 -117 Y27,1 -117 Y28,1
  -117 Y29,1 -117 Y30,1 -94 Y31,1 -94 Y32,1 -94 Y33,1 -94 Y34,1 -94 Y35,1 -94 Y36,1 -94 Y37,1 -94 Y38,1
  -94 Y39,1 -94 Y40,1 -94 Y41,1 -94 Y42,1 -94 Y43,1 -94 Y44,1 -94 Y45,1 -94 Y46,1 -94 Y47,1 -94 Y48,1
  -94 Y49,1 -94 Y50,1 -94 Y51,1 -94 Y52,1 -94 Y53,1 -94 Y54,1 -94 Y55,1 -94 Y56,1 -94 Y57,1 -94 Y58,1
  -94 Y59,1 -94 Y60,1 -94 Y61,1 -94 Y62,1 -94 Y63,1 -94 Y64,1 -94 Y65,1 -94 Y66,1 -94 Y67,1 -94 Y68,1
  -94 Y69,1 -94 Y70,1 -94 Y71,1 -94 Y72,1 -94 Y73,1 -94 Y74,1 -94 Y75,1 -94 Y76,1 -94 Y77,1 -94 Y78,1
  -94 Y79,1 -94 Y80,1 -94 Y81,1 -94 Y82,1 -94 Y83,1 -94 Y84,1 -94 Y85,1 -94 Y86,1 -94 Y87,1 -94 Y88,1
  -94 Y89,1 -94 Y90,1 -94 Y91,1 -94 Y92,1 -94 Y93,1 -112 Y94,1 -112 Y95,1 -112 Y96,1 -112 Y97,1 -112 Y98,1
  -112 Y99,1 -112 Y100,1 -112 Y101,1 -112 Y102,1 -112 Y103,1 -112 Y104,1 -112 Y105,1 -112 Y106,1 -112 Y107,1
  -112 Y108,1 -112 Y109,1 -112 Y110,1 -112 Y111,1 -112 Y112,1 -112 Y113,1 -112 Y114,1 -112 Y115,1 -112 Y116,1
  -112 Y117,1 -112 Y118,1 -112 Y119,1 -112 Y120,1 -112 Y121,1 -112 Y122,1 -112 Y123,1 -112 Y124,1 -112 Y125,1
  -112 Y126,1 -112 Y127,1 -112 Y128,1 -112 Y129,1 -112 Y130,1 -112 Y131,1 -112 Y132,1 -112 Y133,1 -112 Y134,1
  -112 Y135,1 -112 Y136,1 -112 Y137,1 -112 Y138,1 -112 Y139,1 -112 Y140,1 -112 Y141,1 -112 Y142,1 -112 Y143,1
  -112 Y144,1 -112 Y145,1 -112 Y146,1 -112 Y147,1 -112 Y148,1 -112 Y149,1 -112 Y150,1 -112 Y151,1 -112 Y152,1
  -112 Y153,1 -112 Y154,1 -112 Y155,1 -112 Y156,1 -112 Y157,1 -112 Y158,1 -112 Y159,1 -112 Y160,1 -112 Y161,1
  -112 Y162,1 -112 Y163,1 -112 Y164,1 -112 Y165,1 -112 Y166,1 -112 Y167,1 -112 Y168,1 -112 Y169,1 -112 Y170,1
  -112 Y171,1 -112 Y172,1 -112 Y173,1 -112 Y174,1 -112 Y175,1 -112 Y176,1 -112 Y177,1 -112 Y178,1 -112 Y179,1
  -112 Y180,1 -112 Y181,1 -112 Y182,1 -112 Y183,1 -112 Y184,1 -112 Y185,1 -112 Y186,1 -112 Y187,1 -112 Y188,1
  -112 Y189,1 -112 Y190,1 -112 Y191,1 -112 Y192,1 -112 Y193,1 -112 Y194,1 -112 Y195,1 -112 Y196,1 -112 Y197,1
  -112 Y198,1 -112 Y199,1 -112 Y200,1 -112 Y201,1 -112 Y202,1 -112 Y203,1 -112 Y204,1 -112 Y205,1 -112 Y206,1
  -112 Y207,1 -112 Y208,1 -112 Y209,1 -112 Y210,1 -112 Y211,1 -112 Y212,1 -112 Y213,1 -112 Y214,1 -112 Y215,1
  -112 Y216,1 -112 Y217,1 -112 Y218,1 -112 Y219,1 -112 Y220,1 -112 Y221,1 -112 Y222,1 -112 Y223,1 -112 Y224,1
  -112 Y225,1 -112 Y226,1 -112 Y227,1 -112 Y228,1 -112 Y229,1 -112 Y230,1 -112 Y231,1 -112 Y232,1 -112 Y233,1
  -112 Y234,1 -112 Y235,1 -112 Y236,1 -112 Y237,1 -112 Y238,1 -112 Y239,1 -112 Y240,1 -112 Y241,1 -112 Y242,1
  -112 Y243,1 -112 Y244,1 -112 Y245,1 -112 Y246,1 -112 Y247,1 -112 Y248,1 -112 Y249,1 -112 Y250,1 -112 Y251,1
  -112 Y252,1 -112 Y253,1 -112 Y254,1 -112 Y255,1 -112 Y256,1 -112 Y257,1 -112 Y258,1 -112 Y259,1 -112 Y260,1
  -112 Y261,1 -112 Y262,1 -112 Y263,1 -112 Y264,1 -112 Y265,1 -112 Y266,1 -112 Y267,1 -112 Y268,1 -112 Y269,1
  -112 Y270,1 -112 Y271,1 -112 Y272,1 -112 Y273,1 -112 Y274,1 -112 Y275,1 -112 Y276,1 -112 Y277,1 -112 Y278,1
  -112 Y279,1 -112 Y280,1 -112 Y281,1 -112 Y282,1 -112 Y283,1 -112 Y284,1 -112 Y285,1 -112 Y286,1 -112 Y287,1
  -112 Y288,1 -112 Y289,1 -112 Y290,1 -112 Y291,1 -112 Y292,1 -112 Y293,1 -112 Y294,1 -112 Y295,1 -112 Y296,1
  -112 Y297,1 -112 Y298,1 -112 Y299,1 -112 Y300,1 -112 Y301,1 -112 Y302,1 -112 Y303,1 -112 Y304,1 -112 Y305,1
  -112 Y306,1 -112 Y307,1 -112 Y308,1 -112 Y309,1 -112 Y310,1 -112 Y311,1 -112 Y312,1 -112 Y313,1 -112 Y314,1
  -112 Y315,1 -112 Y316,1 -112 Y317,1 -112 Y318,1 -112 Y319,1 -112 Y320,1 -112 Y321,1 -112 Y322,1 -112 Y323,1
  -112 Y324,1 -112 Y325,1 -112 Y326,1 -112 Y327,1 -112 Y328,1 -112 Y329,1 -112 Y330,1 -112 Y331,1 -112 Y332,1
  -112 Y333,1 -112 Y334,1 -112 Y335,1 -112 Y336,1 -112 Y337,1 -112 Y338,1 -112 Y339,1 -112 Y340,1 -112 Y341,1
  -112 Y342,1 -112 Y343,1 -112 Y344,1 -112 Y345,1 -112 Y346,1 -112 Y347,1 -112 Y348,1 -69 Y349,1 -69 Y350,1
  -69 Y351,1 -69 Y352,1 -69 Y353,1 -69 Y354,1 -69 Y355,1 -69 Y356,1 -69 Y357,1 -69 Y358,1 -69 Y359,1 -69 Y360,1
  -69 Y361,1 -69 Y362,1 -69 Y363,1 -69 Y364,1 -69 Y365,1 -69 Y366,1 -69 Y367,1 -69 Y368,1 -69 Y369,1 -69 Y370,1
  -69 Y371,1 -69 Y372,1 -69 Y373,1 -69 Y374,1 -69 Y375,1 -69 Y376,1 -69 Y377,1 -69 Y378,1 -69 Y379,1 -69 Y380,1
  -69 Y381,1 -69 Y382,1 -69 Y383,1 -69 Y384,1 -69 Y385,1 -69 Y386,1 -69 Y387,1 -69 Y388,1 -69 Y389,1 -69 Y390,1
  -69 Y391,1 -69 Y392,1 -69 Y393,1 -69 Y394,1 -69 Y395,1 -69 Y396,1 -69 Y397,1 -69 Y398,1 -69 Y399,1 -69 Y400,1
  -69 Y401,1 -69 Y402,1 -69 Y403,1 -69 Y404,1 -69 Y405,1 -69 Y406,1 -69 Y407,1 -69 Y408,1 -69 Y409,1 -69 Y410,1
  -69 Y411,1 -69 Y412,1 -69 Y413,1 -69 Y414,1 -69 Y415,1 -69 Y416,1 -69 Y417,1 -69 Y418,1 -69 Y419,1 -69 Y420,1
  -69 Y421,1 -69 Y422,1 -69 Y423,1 -69 Y424,1 -69 Y425,1 -69 Y426,1 -69 Y427,1 -69 Y428,1 -69 Y429,1 -69 Y430,1
  -69 Y431,1 -69 Y432,1 -69 Y433,1 -69 Y434,1 -69 Y435,1 -69 Y436,1 -69 Y437,1 -69 Y438,1 -69 Y439,1 -69 Y440,1
  -69 Y441,1 -69 Y442,1 -69 Y443,1 -69 Y444,1 -69 Y445,1 -69 Y446,1 -69 Y447,1 -69 Y448,1 -69 Y449,1 -69 Y450,1
  -69 Y451,1 -69 Y452,1 -69 Y453,1 -69 Y454,1 -69 Y455,1 -69 Y456,1 -69 Y457,1 -69 Y458,1 -69 Y459,1 -69 Y460,1
  -69 Y461,1 -69 Y462,1 -69 Y463,1 -69 Y464,1 -69 Y465,1 -69 Y466,1 -69 Y467,1 -69 Y468,1 -69 Y469,1 -69 Y470,1
  -69 Y471,1 -69 Y472,1 -69 Y473,1 -69 Y474,1 -69 Y475,1 -50 Y476,1 -50 Y477,1 -50 Y478,1 -50 Y479,1 -50 Y480,1
  -50 Y481,1 -50 Y482,1 -50 Y483,1 -50 Y484,1 -50 Y485,1 -50 Y486,1 -50 Y487,1 -50 Y488,1 -50 Y489,1 -50 Y490,1
  -50 Y491,1 -50 Y492,1 -50 Y493,1 -50 Y494,1 -50 Y495,1 -50 Y496,1 -50 Y497,1 -50 Y498,1 -50 Y499,1 -50 Y500,1
  -50 Y501,1 -50 Y502,1 -50 Y503,1 -50 Y504,1 -50 Y505,1 -50 Y506,1 -50 Y507,1 -50 Y508,1 -50 Y509,1 -50 Y510,1
  -50 Y511,1 -50 Y512,1 -50 Y513,1 -50 Y514,1 -50 Y515,1 -50 Y516,1 -50 Y517,1 -50 Y518,1 -50 Y519,1 -50 Y520,1
  -50 Y521,1 -50 Y522,1 -50 Y523,1 -50 Y524,1 -50 Y525,1 -50 Y526,1 -50 Y527,1 -50 Y528,1 -50 Y529,1 -50 Y530,1
  -50 Y531,1 -50 Y532,1 -50 Y533,1 -50 Y534,1 -50 Y535,1 -50 Y536,1 -50 Y537,1 -50 Y538,1 -92 Y539,1 -92 Y540,1
  -92 Y541,1 -92 Y542,1 -92 Y543,1 -92 Y544,1 -92 Y545,1 -92 Y546,1 -92 Y547,1 -92 Y548,1 -92 Y549,1 -92 Y550,1
  -92 Y551,1 -92 Y552,1 -92 Y553,1 -50 Y554,1 -50 Y555,1 -50 Y556,1 -50 Y557,1 -50 Y558,1 -50 Y559,1 -50 Y560,1
  -50 Y561,1 -50 Y562,1 -50 Y563,1 -50 Y564,1 -50 Y565,1 -50 Y566,1 -50 Y567,1 -50 Y568,1 -50 Y569,1 -50 Y570,1
  -50 Y571,1 -50 Y572,1 -50 Y573,1 -50 Y574,1 -50 Y575,1 -50 Y576,1 -50 Y577,1 -50 Y578,1 -50 Y579,1 -50 Y580,1
  -50 Y581,1 -50 Y582,1 -50 Y583,1 -50 Y584,1 -107 Y585,1 -107 Y586,1 -107 Y587,1 -107 Y588,1 -107 Y589,1
  -107 Y590,1 -107 Y591,1 -107 Y592,1 -107 Y593,1 -107 Y594,1 -107 Y595,1 -107 Y596,1 -107 Y597,1 -107 Y598,1
  -107 Y599,1 -107 Y600,1 -107 Y601,1 -107 Y602,1 -107 Y603,1 -107 Y604,1 -107 Y605,1 -107 Y606,1 -107 Y607,1
  -107 Y608,1 -107 Y609,1 -107 Y610,1 -107 Y611,1 -107 Y612,1 -107 Y613,1 -107 Y614,1 -107 Y615,1 -107 Y616,1
  -107 Y617,1 -107 Y618,1 -107 Y619,1 -107 Y620,1 -107 Y621,1 -107 Y622,1 -107 Y623,1 -107 Y624,1 -107 Y625,1
  -107 Y626,1 -107 Y627,1 -107 Y628,1 -107 Y629,1 -107 Y630,1 -107 Y631,1 -107 Y632,1 -107 Y633,1 -107 Y634,1
  -107 Y635,1 -107 Y636,1 -107 Y637,1 -107 Y638,1 -107 Y639,1 -107 Y640,1 -107 Y641,1 -107 Y642,1 -107 Y643,1
  -107 Y644,1 -107 Y645,1 -107 Y646,1 -107 Y647,1 -107 Y648,1 -107 Y649,1 -107 Y650,1 -107 Y651,1 -107 Y652,1
  -107 Y653,1 -107 Y654,1 -107 Y655,1 -107 Y656,1 -107 Y657,1 -107 Y658,1 -107 Y659,1 -107 Y660,1 -107 Y661,1
  -107 Y662,1 -107 Y663,1 -107 Y664,1 -107 Y665,1 -107 Y666,1 -107 Y667,1 -107 Y668,1 -107 Y669,1 -107 Y670,1
  -107 Y671,1 -107 Y672,1 -107 Y673,1 -107 Y674,1 -107 Y675,1 -107 Y676,1 -107 Y677,1 -107 Y678,1 -107 Y679,1
  -107 Y680,1 -107 Y681,1 -107 Y682,1 -107 Y683,1 -107 Y684,1 -107 Y685,1 -107 Y686,1 -107 Y687,1 -107 Y688,1
  -107 Y689,1 -107 Y690,1 -107 Y691,1 -107 Y692,1 -107 Y693,1 -107 Y694,1 -107 Y695,1 -107 Y696,1 -107 Y697,1
  -107 Y698,1 -107 Y699,1 -107 Y700,1 -107 Y701,1 -107 Y702,1 -107 Y703,1 -107 Y704,1 -107 Y705,1 -107 Y706,1
  -107 Y707,1 -107 Y708,1 -107 Y709,1 -107 Y710,1 -107 Y711,1 -107 Y712,1 -107 Y713,1 -107 Y714,1 -107 Y715,1
  -107 Y716,1 -107 Y717,1 -107 Y718,1 -107 Y719,1 -107 Y720,1 -107 Y721,1 -107 Y722,1 -107 Y723,1 -107 Y724,1
  -107 Y725,1 -107 Y726,1 -107 Y727,1 -107 Y728,1 -107 Y729,1 -107 Y730,1 -107 Y731,1 -107 Y732,1 -107 Y733,1
  -107 Y734,1 -107 Y735,1 -107 Y736,1 -107 Y737,1 -107 Y738,1 -107 Y739,1 -107 Y740,1 -107 Y741,1 -107 Y742,1
  -107 Y743,1 -107 Y744,1 -107 Y745,1 -107 Y746,1 -107 Y747,1 -107 Y748,1 -107 Y749,1 -107 Y750,1 -107 Y751,1
  -107 Y752,1 -107 Y753,1 -107 Y754,1 -107 Y755,1 -107 Y756,1 -107 Y757,1 -107 Y758,1 -107 Y759,1 -107 Y760,1
  -107 Y761,1 -107 Y762,1 -107 Y763,1 -107 Y764,1 -107 Y765,1 -107 Y766,1 -107 Y767,1 -107 Y768,1 -107 Y769,1
  -107 Y770,1 -107 Y771,1 -107 Y772,1 -107 Y773,1 -107 Y774,1 -107 Y775,1 -107 Y776,1 -107 Y777,1 -107 Y778,1
  -107 Y779,1 -107 Y780,1 -107 Y781,1 -107 Y782,1 -107 Y783,1 -107 Y784,1 -107 Y785,1 -107 Y786,1 -107 Y787,1
  -107 Y788,1 -107 Y789,1 -107 Y790,1 -107 Y791,1 -107 Y792,1 -107 Y793,1 -107 Y794,1 -107 Y795,1 -107 Y796,1
  -107 Y797,1 -107 Y798,1 -107 Y799,1 -107 Y800,1 -107 Y801,1 -107 Y802,1 -107 Y803,1 -107 Y804,1 -107 Y805,1
  -107 Y806,1 -107 Y807,1 -107 Y808,1 -107 Y809,1 -107 Y810,1 -107 Y811,1 -107 Y812,1 -107 Y813,1 -107 Y814,1
  -107 Y815,1 -107 Y816,1 -107 Y817,1 -107 Y818,1 -107 Y819,1 -107 Y820,1 -107 Y821,1 -107 Y822,1 -107 Y823,1
  -107 Y824,1 -107 Y825,1 -107 Y826,1 -107 Y827,1 -107 Y828,1 -107 Y829,1 -107 Y830,1 -107 Y831,1 -107 Y832,1
  -107 Y833,1 -107 Y834,1 -107 Y835,1 -107 Y836,1 -107 Y837,1 -107 Y838,1 -107 Y839,1 -110 Y840,1 -110 Y841,1
  -110 Y842,1 -102 Y843,1 -102 Y844,1 -102 Y845,1 -102 Y846,1 -102 Y847,1 -102 Y848,1 -102 Y849,1 -102 Y850,1
  -102 Y851,1 -102 Y852,1 -102 Y853,1 -102 Y854,1 -102 Y855,1 -102 Y856,1 -102 Y857,1 >= +0
 c3871: +1 Cmax -117 Y0,2 -117 Y1,2 -117 Y2,2 -117 Y3,2 -117 Y4,2 -117 Y5,2 -117 Y6,2 -117 Y7,2 -117 Y8,2
  -117 Y9,2 -117 Y10,2 -117 Y11,2 -117 Y12,2 -117 Y13,2 -117 Y14,2 -117 Y15,2 -117 Y16,2 -117 Y17,2 -117 Y18,2
  -117 Y19,2 -117 Y20,2 -117 Y21,2 -117 Y22,2 -117 Y23,2 -117 Y24,2 -117 Y25,2 -117 Y26,2 -117 Y27,2 -117 Y28,2
  -117 Y29,2 -117 Y30,2 -94 Y31,2 -94 Y32,2 -94 Y33,2 -94 Y34,2 -94 Y35,2 -94 Y36,2 -94 Y37,2 -94 Y38,2
  -94 Y39,2 -94 Y40,2 -94 Y41,2 -94 Y42,2 -94 Y43,2 -94 Y44,2 -94 Y45,2 -94 Y46,2 -94 Y47,2 -94 Y48,2
  -94 Y49,2 -94 Y50,2 -94 Y51,2 -94 Y52,2 -94 Y53,2 -94 Y54,2 -94 Y55,2 -94 Y56,2 -94 Y57,2 -94 Y58,2
  -94 Y59,2 -94 Y60,2 -94 Y61,2 -94 Y62,2 -94 Y63,2 -94 Y64,2 -94 Y65,2 -94 Y66,2 -94 Y67,2 -94 Y68,2
  -94 Y69,2 -94 Y70,2 -94 Y71,2 -94 Y72,2 -94 Y73,2 -94 Y74,2 -94 Y75,2 -94 Y76,2 -94 Y77,2 -94 Y78,2
  -94 Y79,2 -94 Y80,2 -94 Y81,2 -94 Y82,2 -94 Y83,2 -94 Y84,2 -94 Y85,2 -94 Y86,2 -94 Y87,2 -94 Y88,2
  -94 Y89,2 -94 Y90,2 -94 Y91,2 -94 Y92,2 -94 Y93,2 -112 Y94,2 -112 Y95,2 -112 Y96,2 -112 Y97,2 -112 Y98,2
  -112 Y99,2 -112 Y100,2 -112 Y101,2 -112 Y102,2 -112 Y103,2 -112 Y104,2 -112 Y105,2 -112 Y106,2 -112 Y107,2
  -112 Y108,2 -112 Y109,2 -112 Y110,2 -112 Y111,2 -112 Y112,2 -112 Y113,2 -112 Y114,2 -112 Y115,2 -112 Y116,2
  -112 Y117,2 -112 Y118,2 -112 Y119,2 -112 Y120,2 -112 Y121,2 -112 Y122,2 -112 Y123,2 -112 Y124,2 -112 Y125,2
  -112 Y126,2 -112 Y127,2 -112 Y128,2 -112 Y129,2 -112 Y130,2 -112 Y131,2 -112 Y132,2 -112 Y133,2 -112 Y134,2
  -112 Y135,2 -112 Y136,2 -112 Y137,2 -112 Y138,2 -112 Y139,2 -112 Y140,2 -112 Y141,2 -112 Y142,2 -112 Y143,2
  -112 Y144,2 -112 Y145,2 -112 Y146,2 -112 Y147,2 -112 Y148,2 -112 Y149,2 -112 Y150,2 -112 Y151,2 -112 Y152,2
  -112 Y153,2 -112 Y154,2 -112 Y155,2 -112 Y156,2 -112 Y157,2 -112 Y158,2 -112 Y159,2 -112 Y160,2 -112 Y161,2
  -112 Y162,2 -112 Y163,2 -112 Y164,2 -112 Y165,2 -112 Y166,2 -112 Y167,2 -112 Y168,2 -112 Y169,2 -112 Y170,2
  -112 Y171,2 -112 Y172,2 -112 Y173,2 -112 Y174,2 -112 Y175,2 -112 Y176,2 -112 Y177,2 -112 Y178,2 -112 Y179,2
  -112 Y180,2 -112 Y181,2 -112 Y182,2 -112 Y183,2 -112 Y184,2 -112 Y185,2 -112 Y186,2 -112 Y187,2 -112 Y188,2
  -112 Y189,2 -112 Y190,2 -112 Y191,2 -112 Y192,2 -112 Y193,2 -112 Y194,2 -112 Y195,2 -112 Y196,2 -112 Y197,2
  -112 Y198,2 -112 Y199,2 -112 Y200,2 -112 Y201,2 -112 Y202,2 -112 Y203,2 -112 Y204,2 -112 Y205,2 -112 Y206,2
  -112 Y207,2 -112 Y208,2 -112 Y209,2 -112 Y210,2 -112 Y211,2 -112 Y212,2 -112 Y213,2 -112 Y214,2 -112 Y215,2
  -112 Y216,2 -112 Y217,2 -112 Y218,2 -112 Y219,2 -112 Y220,2 -112 Y221,2 -112 Y222,2 -112 Y223,2 -112 Y224,2
  -112 Y225,2 -112 Y226,2 -112 Y227,2 -112 Y228,2 -112 Y229,2 -112 Y230,2 -112 Y231,2 -112 Y232,2 -112 Y233,2
  -112 Y234,2 -112 Y235,2 -112 Y236,2 -112 Y237,2 -112 Y238,2 -112 Y239,2 -112 Y240,2 -112 Y241,2 -112 Y242,2
  -112 Y243,2 -112 Y244,2 -112 Y245,2 -112 Y246,2 -112 Y247,2 -112 Y248,2 -112 Y249,2 -112 Y250,2 -112 Y251,2
  -112 Y252,2 -112 Y253,2 -112 Y254,2 -112 Y255,2 -112 Y256,2 -112 Y257,2 -112 Y258,2 -112 Y259,2 -112 Y260,2
  -112 Y261,2 -112 Y262,2 -112 Y263,2 -112 Y264,2 -112 Y265,2 -112 Y266,2 -112 Y267,2 -112 Y268,2 -112 Y269,2
  -112 Y270,2 -112 Y271,2 -112 Y272,2 -112 Y273,2 -112 Y274,2 -112 Y275,2 -112 Y276,2 -112 Y277,2 -112 Y278,2
  -112 Y279,2 -112 Y280,2 -112 Y281,2 -112 Y282,2 -112 Y283,2 -112 Y284,2 -112 Y285,2 -112 Y286,2 -112 Y287,2
  -112 Y288,2 -112 Y289,2 -112 Y290,2 -112 Y291,2 -112 Y292,2 -112 Y293,2 -112 Y294,2 -112 Y295,2 -112 Y296,2
  -112 Y297,2 -112 Y298,2 -112 Y299,2 -112 Y300,2 -112 Y301,2 -112 Y302,2 -112 Y303,2 -112 Y304,2 -112 Y305,2
  -112 Y306,2 -112 Y307,2 -112 Y308,2 -112 Y309,2 -112 Y310,2 -112 Y311,2 -112 Y312,2 -112 Y313,2 -112 Y314,2
  -112 Y315,2 -112 Y316,2 -112 Y317,2 -112 Y318,2 -112 Y319,2 -112 Y320,2 -112 Y321,2 -112 Y322,2 -112 Y323,2
  -112 Y324,2 -112 Y325,2 -112 Y326,2 -112 Y327,2 -112 Y328,2 -112 Y329,2 -112 Y330,2 -112 Y331,2 -112 Y332,2
  -112 Y333,2 -112 Y334,2 -112 Y335,2 -112 Y336,2 -112 Y337,2 -112 Y338,2 -112 Y339,2 -112 Y340,2 -112 Y341,2
  -112 Y342,2 -112 Y343,2 -112 Y344,2 -112 Y345,2 -112 Y346,2 -112 Y347,2 -112 Y348,2 -69 Y349,2 -69 Y350,2
  -69 Y351,2 -69 Y352,2 -69 Y353,2 -69 Y354,2 -69 Y355,2 -69 Y356,2 -69 Y357,2 -69 Y358,2 -69 Y359,2 -69 Y360,2
  -69 Y361,2 -69 Y362,2 -69 Y363,2 -69 Y364,2 -69 Y365,2 -69 Y366,2 -69 Y367,2 -69 Y368,2 -69 Y369,2 -69 Y370,2
  -69 Y371,2 -69 Y372,2 -69 Y373,2 -69 Y374,2 -69 Y375,2 -69 Y376,2 -69 Y377,2 -69 Y378,2 -69 Y379,2 -69 Y380,2
  -69 Y381,2 -69 Y382,2 -69 Y383,2 -69 Y384,2 -69 Y385,2 -69 Y386,2 -69 Y387,2 -69 Y388,2 -69 Y389,2 -69 Y390,2
  -69 Y391,2 -69 Y392,2 -69 Y393,2 -69 Y394,2 -69 Y395,2 -69 Y396,2 -69 Y397,2 -69 Y398,2 -69 Y399,2 -69 Y400,2
  -69 Y401,2 -69 Y402,2 -69 Y403,2 -69 Y404,2 -69 Y405,2 -69 Y406,2 -69 Y407,2 -69 Y408,2 -69 Y409,2 -69 Y410,2
  -69 Y411,2 -69 Y412,2 -69 Y413,2 -69 Y414,2 -69 Y415,2 -69 Y416,2 -69 Y417,2 -69 Y418,2 -69 Y419,2 -69 Y420,2
  -69 Y421,2 -69 Y422,2 -69 Y423,2 -69 Y424,2 -69 Y425,2 -69 Y426,2 -69 Y427,2 -69 Y428,2 -69 Y429,2 -69 Y430,2
  -69 Y431,2 -69 Y432,2 -69 Y433,2 -69 Y434,2 -69 Y435,2 -69 Y436,2 -69 Y437,2 -69 Y438,2 -69 Y439,2 -69 Y440,2
  -69 Y441,2 -69 Y442,2 -69 Y443,2 -69 Y444,2 -69 Y445,2 -69 Y446,2 -69 Y447,2 -69 Y448,2 -69 Y449,2 -69 Y450,2
  -69 Y451,2 -69 Y452,2 -69 Y453,2 -69 Y454,2 -69 Y455,2 -69 Y456,2 -69 Y457,2 -69 Y458,2 -69 Y459,2 -69 Y460,2
  -69 Y461,2 -69 Y462,2 -69 Y463,2 -69 Y464,2 -69 Y465,2 -69 Y466,2 -69 Y467,2 -69 Y468,2 -69 Y469,2 -69 Y470,2
  -69 Y471,2 -69 Y472,2 -69 Y473,2 -69 Y474,2 -69 Y475,2 -50 Y476,2 -50 Y477,2 -50 Y478,2 -50 Y479,2 -50 Y480,2
  -50 Y481,2 -50 Y482,2 -50 Y483,2 -50 Y484,2 -50 Y485,2 -50 Y486,2 -50 Y487,2 -50 Y488,2 -50 Y489,2 -50 Y490,2
  -50 Y491,2 -50 Y492,2 -50 Y493,2 -50 Y494,2 -50 Y495,2 -50 Y496,2 -50 Y497,2 -50 Y498,2 -50 Y499,2 -50 Y500,2
  -50 Y501,2 -50 Y502,2 -50 Y503,2 -50 Y504,2 -50 Y505,2 -50 Y506,2 -50 Y507,2 -50 Y508,2 -50 Y509,2 -50 Y510,2
  -50 Y511,2 -50 Y512,2 -50 Y513,2 -50 Y514,2 -50 Y515,2 -50 Y516,2 -50 Y517,2 -50 Y518,2 -50 Y519,2 -50 Y520,2
  -50 Y521,2 -50 Y522,2 -50 Y523,2 -50 Y524,2 -50 Y525,2 -50 Y526,2 -50 Y527,2 -50 Y528,2 -50 Y529,2 -50 Y530,2
  -50 Y531,2 -50 Y532,2 -50 Y533,2 -50 Y534,2 -50 Y535,2 -50 Y536,2 -50 Y537,2 -50 Y538,2 -92 Y539,2 -92 Y540,2
  -92 Y541,2 -92 Y542,2 -92 Y543,2 -92 Y544,2 -92 Y545,2 -92 Y546,2 -92 Y547,2 -92 Y548,2 -92 Y549,2 -92 Y550,2
  -92 Y551,2 -92 Y552,2 -92 Y553,2 -50 Y554,2 -50 Y555,2 -50 Y556,2 -50 Y557,2 -50 Y558,2 -50 Y559,2 -50 Y560,2
  -50 Y561,2 -50 Y562,2 -50 Y563,2 -50 Y564,2 -50 Y565,2 -50 Y566,2 -50 Y567,2 -50 Y568,2 -50 Y569,2 -50 Y570,2
  -50 Y571,2 -50 Y572,2 -50 Y573,2 -50 Y574,2 -50 Y575,2 -50 Y576,2 -50 Y577,2 -50 Y578,2 -50 Y579,2 -50 Y580,2
  -50 Y581,2 -50 Y582,2 -50 Y583,2 -50 Y584,2 -107 Y585,2 -107 Y586,2 -107 Y587,2 -107 Y588,2 -107 Y589,2
  -107 Y590,2 -107 Y591,2 -107 Y592,2 -107 Y593,2 -107 Y594,2 -107 Y595,2 -107 Y596,2 -107 Y597,2 -107 Y598,2
  -107 Y599,2 -107 Y600,2 -107 Y601,2 -107 Y602,2 -107 Y603,2 -107 Y604,2 -107 Y605,2 -107 Y606,2 -107 Y607,2
  -107 Y608,2 -107 Y609,2 -107 Y610,2 -107 Y611,2 -107 Y612,2 -107 Y613,2 -107 Y614,2 -107 Y615,2 -107 Y616,2
  -107 Y617,2 -107 Y618,2 -107 Y619,2 -107 Y620,2 -107 Y621,2 -107 Y622,2 -107 Y623,2 -107 Y624,2 -107 Y625,2
  -107 Y626,2 -107 Y627,2 -107 Y628,2 -107 Y629,2 -107 Y630,2 -107 Y631,2 -107 Y632,2 -107 Y633,2 -107 Y634,2
  -107 Y635,2 -107 Y636,2 -107 Y637,2 -107 Y638,2 -107 Y639,2 -107 Y640,2 -107 Y641,2 -107 Y642,2 -107 Y643,2
  -107 Y644,2 -107 Y645,2 -107 Y646,2 -107 Y647,2 -107 Y648,2 -107 Y649,2 -107 Y650,2 -107 Y651,2 -107 Y652,2
  -107 Y653,2 -107 Y654,2 -107 Y655,2 -107 Y656,2 -107 Y657,2 -107 Y658,2 -107 Y659,2 -107 Y660,2 -107 Y661,2
  -107 Y662,2 -107 Y663,2 -107 Y664,2 -107 Y665,2 -107 Y666,2 -107 Y667,2 -107 Y668,2 -107 Y669,2 -107 Y670,2
  -107 Y671,2 -107 Y672,2 -107 Y673,2 -107 Y674,2 -107 Y675,2 -107 Y676,2 -107 Y677,2 -107 Y678,2 -107 Y679,2
  -107 Y680,2 -107 Y681,2 -107 Y682,2 -107 Y683,2 -107 Y684,2 -107 Y685,2 -107 Y686,2 -107 Y687,2 -107 Y688,2
  -107 Y689,2 -107 Y690,2 -107 Y691,2 -107 Y692,2 -107 Y693,2 -107 Y694,2 -107 Y695,2 -107 Y696,2 -107 Y697,2
  -107 Y698,2 -107 Y699,2 -107 Y700,2 -107 Y701,2 -107 Y702,2 -107 Y703,2 -107 Y704,2 -107 Y705,2 -107 Y706,2
  -107 Y707,2 -107 Y708,2 -107 Y709,2 -107 Y710,2 -107 Y711,2 -107 Y712,2 -107 Y713,2 -107 Y714,2 -107 Y715,2
  -107 Y716,2 -107 Y717,2 -107 Y718,2 -107 Y719,2 -107 Y720,2 -107 Y721,2 -107 Y722,2 -107 Y723,2 -107 Y724,2
  -107 Y725,2 -107 Y726,2 -107 Y727,2 -107 Y728,2 -107 Y729,2 -107 Y730,2 -107 Y731,2 -107 Y732,2 -107 Y733,2
  -107 Y734,2 -107 Y735,2 -107 Y736,2 -107 Y737,2 -107 Y738,2 -107 Y739,2 -107 Y740,2 -107 Y741,2 -107 Y742,2
  -107 Y743,2 -107 Y744,2 -107 Y745,2 -107 Y746,2 -107 Y747,2 -107 Y748,2 -107 Y749,2 -107 Y750,2 -107 Y751,2
  -107 Y752,2 -107 Y753,2 -107 Y754,2 -107 Y755,2 -107 Y756,2 -107 Y757,2 -107 Y758,2 -107 Y759,2 -107 Y760,2
  -107 Y761,2 -107 Y762,2 -107 Y763,2 -107 Y764,2 -107 Y765,2 -107 Y766,2 -107 Y767,2 -107 Y768,2 -107 Y769,2
  -107 Y770,2 -107 Y771,2 -107 Y772,2 -107 Y773,2 -107 Y774,2 -107 Y775,2 -107 Y776,2 -107 Y777,2 -107 Y778,2
  -107 Y779,2 -107 Y780,2 -107 Y781,2 -107 Y782,2 -107 Y783,2 -107 Y784,2 -107 Y785,2 -107 Y786,2 -107 Y787,2
  -107 Y788,2 -107 Y789,2 -107 Y790,2 -107 Y791,2 -107 Y792,2 -107 Y793,2 -107 Y794,2 -107 Y795,2 -107 Y796,2
  -107 Y797,2 -107 Y798,2 -107 Y799,2 -107 Y800,2 -107 Y801,2 -107 Y802,2 -107 Y803,2 -107 Y804,2 -107 Y805,2
  -107 Y806,2 -107 Y807,2 -107 Y808,2 -107 Y809,2 -107 Y810,2 -107 Y811,2 -107 Y812,2 -107 Y813,2 -107 Y814,2
  -107 Y815,2 -107 Y816,2 -107 Y817,2 -107 Y818,2 -107 Y819,2 -107 Y820,2 -107 Y821,2 -107 Y822,2 -107 Y823,2
  -107 Y824,2 -107 Y825,2 -107 Y826,2 -107 Y827,2 -107 Y828,2 -107 Y829,2 -107 Y830,2 -107 Y831,2 -107 Y832,2
  -107 Y833,2 -107 Y834,2 -107 Y835,2 -107 Y836,2 -107 Y837,2 -107 Y838,2 -107 Y839,2 -110 Y840,2 -110 Y841,2
  -110 Y842,2 -102 Y843,2 -102 Y844,2 -102 Y845,2 -102 Y846,2 -102 Y847,2 -102 Y848,2 -102 Y849,2 -102 Y850,2
  -102 Y851,2 -102 Y852,2 -102 Y853,2 -102 Y854,2 -102 Y855,2 -102 Y856,2 -102 Y857,2 >= +0
 c3872: +1 Cmax -117 Y0,3 -117 Y1,3 -117 Y2,3 -117 Y3,3 -117 Y4,3 -117 Y5,3 -117 Y6,3 -117 Y7,3 -117 Y8,3
  -117 Y9,3 -117 Y10,3 -117 Y11,3 -117 Y12,3 -117 Y13,3 -117 Y14,3 -117 Y15,3 -117 Y16,3 -117 Y17,3 -117 Y18,3
  -117 Y19,3 -117 Y20,3 -117 Y21,3 -117 Y22,3 -117 Y23,3 -117 Y24,3 -117 Y25,3 -117 Y26,3 -117 Y27,3 -117 Y28,3
  -117 Y29,3 -117 Y30,3 -94 Y31,3 -94 Y32,3 -94 Y33,3 -94 Y34,3 -94 Y35,3 -94 Y36,3 -94 Y37,3 -94 Y38,3
  -94 Y39,3 -94 Y40,3 -94 Y41,3 -94 Y42,3 -94 Y43,3 -94 Y44,3 -94 Y45,3 -94 Y46,3 -94 Y47,3 -94 Y48,3
  -94 Y49,3 -94 Y50,3 -94 Y51,3 -94 Y52,3 -94 Y53,3 -94 Y54,3 -94 Y55,3 -94 Y56,3 -94 Y57,3 -94 Y58,3
  -94 Y59,3 -94 Y60,3 -94 Y61,3 -94 Y62,3 -94 Y63,3 -94 Y64,3 -94 Y65,3 -94 Y66,3 -94 Y67,3 -94 Y68,3
  -94 Y69,3 -94 Y70,3 -94 Y71,3 -94 Y72,3 -94 Y73,3 -94 Y74,3 -94 Y75,3 -94 Y76,3 -94 Y77,3 -94 Y78,3
  -94 Y79,3 -94 Y80,3 -94 Y81,3 -94 Y82,3 -94 Y83,3 -94 Y84,3 -94 Y85,3 -94 Y86,3 -94 Y87,3 -94 Y88,3
  -94 Y89,3 -94 Y90,3 -94 Y91,3 -94 Y92,3 -94 Y93,3 -112 Y94,3 -112 Y95,3 -112 Y96,3 -112 Y97,3 -112 Y98,3
  -112 Y99,3 -112 Y100,3 -112 Y101,3 -112 Y102,3 -112 Y103,3 -112 Y104,3 -112 Y105,3 -112 Y106,3 -112 Y107,3
  -112 Y108,3 -112 Y109,3 -112 Y110,3 -112 Y111,3 -112 Y112,3 -112 Y113,3 -112 Y114,3 -112 Y115,3 -112 Y116,3
  -112 Y117,3 -112 Y118,3 -112 Y119,3 -112 Y120,3 -112 Y121,3 -112 Y122,3 -112 Y123,3 -112 Y124,3 -112 Y125,3
  -112 Y126,3 -112 Y127,3 -112 Y128,3 -112 Y129,3 -112 Y130,3 -112 Y131,3 -112 Y132,3 -112 Y133,3 -112 Y134,3
  -112 Y135,3 -112 Y136,3 -112 Y137,3 -112 Y138,3 -112 Y139,3 -112 Y140,3 -112 Y141,3 -112 Y142,3 -112 Y143,3
  -112 Y144,3 -112 Y145,3 -112 Y146,3 -112 Y147,3 -112 Y148,3 -112 Y149,3 -112 Y150,3 -112 Y151,3 -112 Y152,3
  -112 Y153,3 -112 Y154,3 -112 Y155,3 -112 Y156,3 -112 Y157,3 -112 Y158,3 -112 Y159,3 -112 Y160,3 -112 Y161,3
  -112 Y162,3 -112 Y163,3 -112 Y164,3 -112 Y165,3 -112 Y166,3 -112 Y167,3 -112 Y168,3 -112 Y169,3 -112 Y170,3
  -112 Y171,3 -112 Y172,3 -112 Y173,3 -112 Y174,3 -112 Y175,3 -112 Y176,3 -112 Y177,3 -112 Y178,3 -112 Y179,3
  -112 Y180,3 -112 Y181,3 -112 Y182,3 -112 Y183,3 -112 Y184,3 -112 Y185,3 -112 Y186,3 -112 Y187,3 -112 Y188,3
  -112 Y189,3 -112 Y190,3 -112 Y191,3 -112 Y192,3 -112 Y193,3 -112 Y194,3 -112 Y195,3 -112 Y196,3 -112 Y197,3
  -112 Y198,3 -112 Y199,3 -112 Y200,3 -112 Y201,3 -112 Y202,3 -112 Y203,3 -112 Y204,3 -112 Y205,3 -112 Y206,3
  -112 Y207,3 -112 Y208,3 -112 Y209,3 -112 Y210,3 -112 Y211,3 -112 Y212,3 -112 Y213,3 -112 Y214,3 -112 Y215,3
  -112 Y216,3 -112 Y217,3 -112 Y218,3 -112 Y219,3 -112 Y220,3 -112 Y221,3 -112 Y222,3 -112 Y223,3 -112 Y224,3
  -112 Y225,3 -112 Y226,3 -112 Y227,3 -112 Y228,3 -112 Y229,3 -112 Y230,3 -112 Y231,3 -112 Y232,3 -112 Y233,3
  -112 Y234,3 -112 Y235,3 -112 Y236,3 -112 Y237,3 -112 Y238,3 -112 Y239,3 -112 Y240,3 -112 Y241,3 -112 Y242,3
  -112 Y243,3 -112 Y244,3 -112 Y245,3 -112 Y246,3 -112 Y247,3 -112 Y248,3 -112 Y249,3 -112 Y250,3 -112 Y251,3
  -112 Y252,3 -112 Y253,3 -112 Y254,3 -112 Y255,3 -112 Y256,3 -112 Y257,3 -112 Y258,3 -112 Y259,3 -112 Y260,3
  -112 Y261,3 -112 Y262,3 -112 Y263,3 -112 Y264,3 -112 Y265,3 -112 Y266,3 -112 Y267,3 -112 Y268,3 -112 Y269,3
  -112 Y270,3 -112 Y271,3 -112 Y272,3 -112 Y273,3 -112 Y274,3 -112 Y275,3 -112 Y276,3 -112 Y277,3 -112 Y278,3
  -112 Y279,3 -112 Y280,3 -112 Y281,3 -112 Y282,3 -112 Y283,3 -112 Y284,3 -112 Y285,3 -112 Y286,3 -112 Y287,3
  -112 Y288,3 -112 Y289,3 -112 Y290,3 -112 Y291,3 -112 Y292,3 -112 Y293,3 -112 Y294,3 -112 Y295,3 -112 Y296,3
  -112 Y297,3 -112 Y298,3 -112 Y299,3 -112 Y300,3 -112 Y301,3 -112 Y302,3 -112 Y303,3 -112 Y304,3 -112 Y305,3
  -112 Y306,3 -112 Y307,3 -112 Y308,3 -112 Y309,3 -112 Y310,3 -112 Y311,3 -112 Y312,3 -112 Y313,3 -112 Y314,3
  -112 Y315,3 -112 Y316,3 -112 Y317,3 -112 Y318,3 -112 Y319,3 -112 Y320,3 -112 Y321,3 -112 Y322,3 -112 Y323,3
  -112 Y324,3 -112 Y325,3 -112 Y326,3 -112 Y327,3 -112 Y328,3 -112 Y329,3 -112 Y330,3 -112 Y331,3 -112 Y332,3
  -112 Y333,3 -112 Y334,3 -112 Y335,3 -112 Y336,3 -112 Y337,3 -112 Y338,3 -112 Y339,3 -112 Y340,3 -112 Y341,3
  -112 Y342,3 -112 Y343,3 -112 Y344,3 -112 Y345,3 -112 Y346,3 -112 Y347,3 -112 Y348,3 -69 Y349,3 -69 Y350,3
  -69 Y351,3 -69 Y352,3 -69 Y353,3 -69 Y354,3 -69 Y355,3 -69 Y356,3 -69 Y357,3 -69 Y358,3 -69 Y359,3 -69 Y360,3
  -69 Y361,3 -69 Y362,3 -69 Y363,3 -69 Y364,3 -69 Y365,3 -69 Y366,3 -69 Y367,3 -69 Y368,3 -69 Y369,3 -69 Y370,3
  -69 Y371,3 -69 Y372,3 -69 Y373,3 -69 Y374,3 -69 Y375,3 -69 Y376,3 -69 Y377,3 -69 Y378,3 -69 Y379,3 -69 Y380,3
  -69 Y381,3 -69 Y382,3 -69 Y383,3 -69 Y384,3 -69 Y385,3 -69 Y386,3 -69 Y387,3 -69 Y388,3 -69 Y389,3 -69 Y390,3
  -69 Y391,3 -69 Y392,3 -69 Y393,3 -69 Y394,3 -69 Y395,3 -69 Y396,3 -69 Y397,3 -69 Y398,3 -69 Y399,3 -69 Y400,3
  -69 Y401,3 -69 Y402,3 -69 Y403,3 -69 Y404,3 -69 Y405,3 -69 Y406,3 -69 Y407,3 -69 Y408,3 -69 Y409,3 -69 Y410,3
  -69 Y411,3 -69 Y412,3 -69 Y413,3 -69 Y414,3 -69 Y415,3 -69 Y416,3 -69 Y417,3 -69 Y418,3 -69 Y419,3 -69 Y420,3
  -69 Y421,3 -69 Y422,3 -69 Y423,3 -69 Y424,3 -69 Y425,3 -69 Y426,3 -69 Y427,3 -69 Y428,3 -69 Y429,3 -69 Y430,3
  -69 Y431,3 -69 Y432,3 -69 Y433,3 -69 Y434,3 -69 Y435,3 -69 Y436,3 -69 Y437,3 -69 Y438,3 -69 Y439,3 -69 Y440,3
  -69 Y441,3 -69 Y442,3 -69 Y443,3 -69 Y444,3 -69 Y445,3 -69 Y446,3 -69 Y447,3 -69 Y448,3 -69 Y449,3 -69 Y450,3
  -69 Y451,3 -69 Y452,3 -69 Y453,3 -69 Y454,3 -69 Y455,3 -69 Y456,3 -69 Y457,3 -69 Y458,3 -69 Y459,3 -69 Y460,3
  -69 Y461,3 -69 Y462,3 -69 Y463,3 -69 Y464,3 -69 Y465,3 -69 Y466,3 -69 Y467,3 -69 Y468,3 -69 Y469,3 -69 Y470,3
  -69 Y471,3 -69 Y472,3 -69 Y473,3 -69 Y474,3 -69 Y475,3 -50 Y476,3 -50 Y477,3 -50 Y478,3 -50 Y479,3 -50 Y480,3
  -50 Y481,3 -50 Y482,3 -50 Y483,3 -50 Y484,3 -50 Y485,3 -50 Y486,3 -50 Y487,3 -50 Y488,3 -50 Y489,3 -50 Y490,3
  -50 Y491,3 -50 Y492,3 -50 Y493,3 -50 Y494,3 -50 Y495,3 -50 Y496,3 -50 Y497,3 -50 Y498,3 -50 Y499,3 -50 Y500,3
  -50 Y501,3 -50 Y502,3 -50 Y503,3 -50 Y504,3 -50 Y505,3 -50 Y506,3 -50 Y507,3 -50 Y508,3 -50 Y509,3 -50 Y510,3
  -50 Y511,3 -50 Y512,3 -50 Y513,3 -50 Y514,3 -50 Y515,3 -50 Y516,3 -50 Y517,3 -50 Y518,3 -50 Y519,3 -50 Y520,3
  -50 Y521,3 -50 Y522,3 -50 Y523,3 -50 Y524,3 -50 Y525,3 -50 Y526,3 -50 Y527,3 -50 Y528,3 -50 Y529,3 -50 Y530,3
  -50 Y531,3 -50 Y532,3 -50 Y533,3 -50 Y534,3 -50 Y535,3 -50 Y536,3 -50 Y537,3 -50 Y538,3 -92 Y539,3 -92 Y540,3
  -92 Y541,3 -92 Y542,3 -92 Y543,3 -92 Y544,3 -92 Y545,3 -92 Y546,3 -92 Y547,3 -92 Y548,3 -92 Y549,3 -92 Y550,3
  -92 Y551,3 -92 Y552,3 -92 Y553,3 -50 Y554,3 -50 Y555,3 -50 Y556,3 -50 Y557,3 -50 Y558,3 -50 Y559,3 -50 Y560,3
  -50 Y561,3 -50 Y562,3 -50 Y563,3 -50 Y564,3 -50 Y565,3 -50 Y566,3 -50 Y567,3 -50 Y568,3 -50 Y569,3 -50 Y570,3
  -50 Y571,3 -50 Y572,3 -50 Y573,3 -50 Y574,3 -50 Y575,3 -50 Y576,3 -50 Y577,3 -50 Y578,3 -50 Y579,3 -50 Y580,3
  -50 Y581,3 -50 Y582,3 -50 Y583,3 -50 Y584,3 -107 Y585,3 -107 Y586,3 -107 Y587,3 -107 Y588,3 -107 Y589,3
  -107 Y590,3 -107 Y591,3 -107 Y592,3 -107 Y593,3 -107 Y594,3 -107 Y595,3 -107 Y596,3 -107 Y597,3 -107 Y598,3
  -107 Y599,3 -107 Y600,3 -107 Y601,3 -107 Y602,3 -107 Y603,3 -107 Y604,3 -107 Y605,3 -107 Y606,3 -107 Y607,3
  -107 Y608,3 -107 Y609,3 -107 Y610,3 -107 Y611,3 -107 Y612,3 -107 Y613,3 -107 Y614,3 -107 Y615,3 -107 Y616,3
  -107 Y617,3 -107 Y618,3 -107 Y619,3 -107 Y620,3 -107 Y621,3 -107 Y622,3 -107 Y623,3 -107 Y624,3 -107 Y625,3
  -107 Y626,3 -107 Y627,3 -107 Y628,3 -107 Y629,3 -107 Y630,3 -107 Y631,3 -107 Y632,3 -107 Y633,3 -107 Y634,3
  -107 Y635,3 -107 Y636,3 -107 Y637,3 -107 Y638,3 -107 Y639,3 -107 Y640,3 -107 Y641,3 -107 Y642,3 -107 Y643,3
  -107 Y644,3 -107 Y645,3 -107 Y646,3 -107 Y647,3 -107 Y648,3 -107 Y649,3 -107 Y650,3 -107 Y651,3 -107 Y652,3
  -107 Y653,3 -107 Y654,3 -107 Y655,3 -107 Y656,3 -107 Y657,3 -107 Y658,3 -107 Y659,3 -107 Y660,3 -107 Y661,3
  -107 Y662,3 -107 Y663,3 -107 Y664,3 -107 Y665,3 -107 Y666,3 -107 Y667,3 -107 Y668,3 -107 Y669,3 -107 Y670,3
  -107 Y671,3 -107 Y672,3 -107 Y673,3 -107 Y674,3 -107 Y675,3 -107 Y676,3 -107 Y677,3 -107 Y678,3 -107 Y679,3
  -107 Y680,3 -107 Y681,3 -107 Y682,3 -107 Y683,3 -107 Y684,3 -107 Y685,3 -107 Y686,3 -107 Y687,3 -107 Y688,3
  -107 Y689,3 -107 Y690,3 -107 Y691,3 -107 Y692,3 -107 Y693,3 -107 Y694,3 -107 Y695,3 -107 Y696,3 -107 Y697,3
  -107 Y698,3 -107 Y699,3 -107 Y700,3 -107 Y701,3 -107 Y702,3 -107 Y703,3 -107 Y704,3 -107 Y705,3 -107 Y706,3
  -107 Y707,3 -107 Y708,3 -107 Y709,3 -107 Y710,3 -107 Y711,3 -107 Y712,3 -107 Y713,3 -107 Y714,3 -107 Y715,3
  -107 Y716,3 -107 Y717,3 -107 Y718,3 -107 Y719,3 -107 Y720,3 -107 Y721,3 -107 Y722,3 -107 Y723,3 -107 Y724,3
  -107 Y725,3 -107 Y726,3 -107 Y727,3 -107 Y728,3 -107 Y729,3 -107 Y730,3 -107 Y731,3 -107 Y732,3 -107 Y733,3
  -107 Y734,3 -107 Y735,3 -107 Y736,3 -107 Y737,3 -107 Y738,3 -107 Y739,3 -107 Y740,3 -107 Y741,3 -107 Y742,3
  -107 Y743,3 -107 Y744,3 -107 Y745,3 -107 Y746,3 -107 Y747,3 -107 Y748,3 -107 Y749,3 -107 Y750,3 -107 Y751,3
  -107 Y752,3 -107 Y753,3 -107 Y754,3 -107 Y755,3 -107 Y756,3 -107 Y757,3 -107 Y758,3 -107 Y759,3 -107 Y760,3
  -107 Y761,3 -107 Y762,3 -107 Y763,3 -107 Y764,3 -107 Y765,3 -107 Y766,3 -107 Y767,3 -107 Y768,3 -107 Y769,3
  -107 Y770,3 -107 Y771,3 -107 Y772,3 -107 Y773,3 -107 Y774,3 -107 Y775,3 -107 Y776,3 -107 Y777,3 -107 Y778,3
  -107 Y779,3 -107 Y780,3 -107 Y781,3 -107 Y782,3 -107 Y783,3 -107 Y784,3 -107 Y785,3 -107 Y786,3 -107 Y787,3
  -107 Y788,3 -107 Y789,3 -107 Y790,3 -107 Y791,3 -107 Y792,3 -107 Y793,3 -107 Y794,3 -107 Y795,3 -107 Y796,3
  -107 Y797,3 -107 Y798,3 -107 Y799,3 -107 Y800,3 -107 Y801,3 -107 Y802,3 -107 Y803,3 -107 Y804,3 -107 Y805,3
  -107 Y806,3 -107 Y807,3 -107 Y808,3 -107 Y809,3 -107 Y810,3 -107 Y811,3 -107 Y812,3 -107 Y813,3 -107 Y814,3
  -107 Y815,3 -107 Y816,3 -107 Y817,3 -107 Y818,3 -107 Y819,3 -107 Y820,3 -107 Y821,3 -107 Y822,3 -107 Y823,3
  -107 Y824,3 -107 Y825,3 -107 Y826,3 -107 Y827,3 -107 Y828,3 -107 Y829,3 -107 Y830,3 -107 Y831,3 -107 Y832,3
  -107 Y833,3 -107 Y834,3 -107 Y835,3 -107 Y836,3 -107 Y837,3 -107 Y838,3 -107 Y839,3 -110 Y840,3 -110 Y841,3
  -110 Y842,3 -102 Y843,3 -102 Y844,3 -102 Y845,3 -102 Y846,3 -102 Y847,3 -102 Y848,3 -102 Y849,3 -102 Y850,3
  -102 Y851,3 -102 Y852,3 -102 Y853,3 -102 Y854,3 -102 Y855,3 -102 Y856,3 -102 Y857,3 >= +0
 c3873: +1 Cmax -117 Y0,4 -117 Y1,4 -117 Y2,4 -117 Y3,4 -117 Y4,4 -117 Y5,4 -117 Y6,4 -117 Y7,4 -117 Y8,4
  -117 Y9,4 -117 Y10,4 -117 Y11,4 -117 Y12,4 -117 Y13,4 -117 Y14,4 -117 Y15,4 -117 Y16,4 -117 Y17,4 -117 Y18,4
  -117 Y19,4 -117 Y20,4 -117 Y21,4 -117 Y22,4 -117 Y23,4 -117 Y24,4 -117 Y25,4 -117 Y26,4 -117 Y27,4 -117 Y28,4
  -117 Y29,4 -117 Y30,4 -94 Y31,4 -94 Y32,4 -94 Y33,4 -94 Y34,4 -94 Y35,4 -94 Y36,4 -94 Y37,4 -94 Y38,4
  -94 Y39,4 -94 Y40,4 -94 Y41,4 -94 Y42,4 -94 Y43,4 -94 Y44,4 -94 Y45,4 -94 Y46,4 -94 Y47,4 -94 Y48,4
  -94 Y49,4 -94 Y50,4 -94 Y51,4 -94 Y52,4 -94 Y53,4 -94 Y54,4 -94 Y55,4 -94 Y56,4 -94 Y57,4 -94 Y58,4
  -94 Y59,4 -94 Y60,4 -94 Y61,4 -94 Y62,4 -94 Y63,4 -94 Y64,4 -94 Y65,4 -94 Y66,4 -94 Y67,4 -94 Y68,4
  -94 Y69,4 -94 Y70,4 -94 Y71,4 -94 Y72,4 -94 Y73,4 -94 Y74,4 -94 Y75,4 -94 Y76,4 -94 Y77,4 -94 Y78,4
  -94 Y79,4 -94 Y80,4 -94 Y81,4 -94 Y82,4 -94 Y83,4 -94 Y84,4 -94 Y85,4 -94 Y86,4 -94 Y87,4 -94 Y88,4
  -94 Y89,4 -94 Y90,4 -94 Y91,4 -94 Y92,4 -94 Y93,4 -112 Y94,4 -112 Y95,4 -112 Y96,4 -112 Y97,4 -112 Y98,4
  -112 Y99,4 -112 Y100,4 -112 Y101,4 -112 Y102,4 -112 Y103,4 -112 Y104,4 -112 Y105,4 -112 Y106,4 -112 Y107,4
  -112 Y108,4 -112 Y109,4 -112 Y110,4 -112 Y111,4 -112 Y112,4 -112 Y113,4 -112 Y114,4 -112 Y115,4 -112 Y116,4
  -112 Y117,4 -112 Y118,4 -112 Y119,4 -112 Y120,4 -112 Y121,4 -112 Y122,4 -112 Y123,4 -112 Y124,4 -112 Y125,4
  -112 Y126,4 -112 Y127,4 -112 Y128,4 -112 Y129,4 -112 Y130,4 -112 Y131,4 -112 Y132,4 -112 Y133,4 -112 Y134,4
  -112 Y135,4 -112 Y136,4 -112 Y137,4 -112 Y138,4 -112 Y139,4 -112 Y140,4 -112 Y141,4 -112 Y142,4 -112 Y143,4
  -112 Y144,4 -112 Y145,4 -112 Y146,4 -112 Y147,4 -112 Y148,4 -112 Y149,4 -112 Y150,4 -112 Y151,4 -112 Y152,4
  -112 Y153,4 -112 Y154,4 -112 Y155,4 -112 Y156,4 -112 Y157,4 -112 Y158,4 -112 Y159,4 -112 Y160,4 -112 Y161,4
  -112 Y162,4 -112 Y163,4 -112 Y164,4 -112 Y165,4 -112 Y166,4 -112 Y167,4 -112 Y168,4 -112 Y169,4 -112 Y170,4
  -112 Y171,4 -112 Y172,4 -112 Y173,4 -112 Y174,4 -112 Y175,4 -112 Y176,4 -112 Y177,4 -112 Y178,4 -112 Y179,4
  -112 Y180,4 -112 Y181,4 -112 Y182,4 -112 Y183,4 -112 Y184,4 -112 Y185,4 -112 Y186,4 -112 Y187,4 -112 Y188,4
  -112 Y189,4 -112 Y190,4 -112 Y191,4 -112 Y192,4 -112 Y193,4 -112 Y194,4 -112 Y195,4 -112 Y196,4 -112 Y197,4
  -112 Y198,4 -112 Y199,4 -112 Y200,4 -112 Y201,4 -112 Y202,4 -112 Y203,4 -112 Y204,4 -112 Y205,4 -112 Y206,4
  -112 Y207,4 -112 Y208,4 -112 Y209,4 -112 Y210,4 -112 Y211,4 -112 Y212,4 -112 Y213,4 -112 Y214,4 -112 Y215,4
  -112 Y216,4 -112 Y217,4 -112 Y218,4 -112 Y219,4 -112 Y220,4 -112 Y221,4 -112 Y222,4 -112 Y223,4 -112 Y224,4
  -112 Y225,4 -112 Y226,4 -112 Y227,4 -112 Y228,4 -112 Y229,4 -112 Y230,4 -112 Y231,4 -112 Y232,4 -112 Y233,4
  -112 Y234,4 -112 Y235,4 -112 Y236,4 -112 Y237,4 -112 Y238,4 -112 Y239,4 -112 Y240,4 -112 Y241,4 -112 Y242,4
  -112 Y243,4 -112 Y244,4 -112 Y245,4 -112 Y246,4 -112 Y247,4 -112 Y248,4 -112 Y249,4 -112 Y250,4 -112 Y251,4
  -112 Y252,4 -112 Y253,4 -112 Y254,4 -112 Y255,4 -112 Y256,4 -112 Y257,4 -112 Y258,4 -112 Y259,4 -112 Y260,4
  -112 Y261,4 -112 Y262,4 -112 Y263,4 -112 Y264,4 -112 Y265,4 -112 Y266,4 -112 Y267,4 -112 Y268,4 -112 Y269,4
  -112 Y270,4 -112 Y271,4 -112 Y272,4 -112 Y273,4 -112 Y274,4 -112 Y275,4 -112 Y276,4 -112 Y277,4 -112 Y278,4
  -112 Y279,4 -112 Y280,4 -112 Y281,4 -112 Y282,4 -112 Y283,4 -112 Y284,4 -112 Y285,4 -112 Y286,4 -112 Y287,4
  -112 Y288,4 -112 Y289,4 -112 Y290,4 -112 Y291,4 -112 Y292,4 -112 Y293,4 -112 Y294,4 -112 Y295,4 -112 Y296,4
  -112 Y297,4 -112 Y298,4 -112 Y299,4 -112 Y300,4 -112 Y301,4 -112 Y302,4 -112 Y303,4 -112 Y304,4 -112 Y305,4
  -112 Y306,4 -112 Y307,4 -112 Y308,4 -112 Y309,4 -112 Y310,4 -112 Y311,4 -112 Y312,4 -112 Y313,4 -112 Y314,4
  -112 Y315,4 -112 Y316,4 -112 Y317,4 -112 Y318,4 -112 Y319,4 -112 Y320,4 -112 Y321,4 -112 Y322,4 -112 Y323,4
  -112 Y324,4 -112 Y325,4 -112 Y326,4 -112 Y327,4 -112 Y328,4 -112 Y329,4 -112 Y330,4 -112 Y331,4 -112 Y332,4
  -112 Y333,4 -112 Y334,4 -112 Y335,4 -112 Y336,4 -112 Y337,4 -112 Y338,4 -112 Y339,4 -112 Y340,4 -112 Y341,4
  -112 Y342,4 -112 Y343,4 -112 Y344,4 -112 Y345,4 -112 Y346,4 -112 Y347,4 -112 Y348,4 -69 Y349,4 -69 Y350,4
  -69 Y351,4 -69 Y352,4 -69 Y353,4 -69 Y354,4 -69 Y355,4 -69 Y356,4 -69 Y357,4 -69 Y358,4 -69 Y359,4 -69 Y360,4
  -69 Y361,4 -69 Y362,4 -69 Y363,4 -69 Y364,4 -69 Y365,4 -69 Y366,4 -69 Y367,4 -69 Y368,4 -69 Y369,4 -69 Y370,4
  -69 Y371,4 -69 Y372,4 -69 Y373,4 -69 Y374,4 -69 Y375,4 -69 Y376,4 -69 Y377,4 -69 Y378,4 -69 Y379,4 -69 Y380,4
  -69 Y381,4 -69 Y382,4 -69 Y383,4 -69 Y384,4 -69 Y385,4 -69 Y386,4 -69 Y387,4 -69 Y388,4 -69 Y389,4 -69 Y390,4
  -69 Y391,4 -69 Y392,4 -69 Y393,4 -69 Y394,4 -69 Y395,4 -69 Y396,4 -69 Y397,4 -69 Y398,4 -69 Y399,4 -69 Y400,4
  -69 Y401,4 -69 Y402,4 -69 Y403,4 -69 Y404,4 -69 Y405,4 -69 Y406,4 -69 Y407,4 -69 Y408,4 -69 Y409,4 -69 Y410,4
  -69 Y411,4 -69 Y412,4 -69 Y413,4 -69 Y414,4 -69 Y415,4 -69 Y416,4 -69 Y417,4 -69 Y418,4 -69 Y419,4 -69 Y420,4
  -69 Y421,4 -69 Y422,4 -69 Y423,4 -69 Y424,4 -69 Y425,4 -69 Y426,4 -69 Y427,4 -69 Y428,4 -69 Y429,4 -69 Y430,4
  -69 Y431,4 -69 Y432,4 -69 Y433,4 -69 Y434,4 -69 Y435,4 -69 Y436,4 -69 Y437,4 -69 Y438,4 -69 Y439,4 -69 Y440,4
  -69 Y441,4 -69 Y442,4 -69 Y443,4 -69 Y444,4 -69 Y445,4 -69 Y446,4 -69 Y447,4 -69 Y448,4 -69 Y449,4 -69 Y450,4
  -69 Y451,4 -69 Y452,4 -69 Y453,4 -69 Y454,4 -69 Y455,4 -69 Y456,4 -69 Y457,4 -69 Y458,4 -69 Y459,4 -69 Y460,4
  -69 Y461,4 -69 Y462,4 -69 Y463,4 -69 Y464,4 -69 Y465,4 -69 Y466,4 -69 Y467,4 -69 Y468,4 -69 Y469,4 -69 Y470,4
  -69 Y471,4 -69 Y472,4 -69 Y473,4 -69 Y474,4 -69 Y475,4 -50 Y476,4 -50 Y477,4 -50 Y478,4 -50 Y479,4 -50 Y480,4
  -50 Y481,4 -50 Y482,4 -50 Y483,4 -50 Y484,4 -50 Y485,4 -50 Y486,4 -50 Y487,4 -50 Y488,4 -50 Y489,4 -50 Y490,4
  -50 Y491,4 -50 Y492,4 -50 Y493,4 -50 Y494,4 -50 Y495,4 -50 Y496,4 -50 Y497,4 -50 Y498,4 -50 Y499,4 -50 Y500,4
  -50 Y501,4 -50 Y502,4 -50 Y503,4 -50 Y504,4 -50 Y505,4 -50 Y506,4 -50 Y507,4 -50 Y508,4 -50 Y509,4 -50 Y510,4
  -50 Y511,4 -50 Y512,4 -50 Y513,4 -50 Y514,4 -50 Y515,4 -50 Y516,4 -50 Y517,4 -50 Y518,4 -50 Y519,4 -50 Y520,4
  -50 Y521,4 -50 Y522,4 -50 Y523,4 -50 Y524,4 -50 Y525,4 -50 Y526,4 -50 Y527,4 -50 Y528,4 -50 Y529,4 -50 Y530,4
  -50 Y531,4 -50 Y532,4 -50 Y533,4 -50 Y534,4 -50 Y535,4 -50 Y536,4 -50 Y537,4 -50 Y538,4 -92 Y539,4 -92 Y540,4
  -92 Y541,4 -92 Y542,4 -92 Y543,4 -92 Y544,4 -92 Y545,4 -92 Y546,4 -92 Y547,4 -92 Y548,4 -92 Y549,4 -92 Y550,4
  -92 Y551,4 -92 Y552,4 -92 Y553,4 -50 Y554,4 -50 Y555,4 -50 Y556,4 -50 Y557,4 -50 Y558,4 -50 Y559,4 -50 Y560,4
  -50 Y561,4 -50 Y562,4 -50 Y563,4 -50 Y564,4 -50 Y565,4 -50 Y566,4 -50 Y567,4 -50 Y568,4 -50 Y569,4 -50 Y570,4
  -50 Y571,4 -50 Y572,4 -50 Y573,4 -50 Y574,4 -50 Y575,4 -50 Y576,4 -50 Y577,4 -50 Y578,4 -50 Y579,4 -50 Y580,4
  -50 Y581,4 -50 Y582,4 -50 Y583,4 -50 Y584,4 -107 Y585,4 -107 Y586,4 -107 Y587,4 -107 Y588,4 -107 Y589,4
  -107 Y590,4 -107 Y591,4 -107 Y592,4 -107 Y593,4 -107 Y594,4 -107 Y595,4 -107 Y596,4 -107 Y597,4 -107 Y598,4
  -107 Y599,4 -107 Y600,4 -107 Y601,4 -107 Y602,4 -107 Y603,4 -107 Y604,4 -107 Y605,4 -107 Y606,4 -107 Y607,4
  -107 Y608,4 -107 Y609,4 -107 Y610,4 -107 Y611,4 -107 Y612,4 -107 Y613,4 -107 Y614,4 -107 Y615,4 -107 Y616,4
  -107 Y617,4 -107 Y618,4 -107 Y619,4 -107 Y620,4 -107 Y621,4 -107 Y622,4 -107 Y623,4 -107 Y624,4 -107 Y625,4
  -107 Y626,4 -107 Y627,4 -107 Y628,4 -107 Y629,4 -107 Y630,4 -107 Y631,4 -107 Y632,4 -107 Y633,4 -107 Y634,4
  -107 Y635,4 -107 Y636,4 -107 Y637,4 -107 Y638,4 -107 Y639,4 -107 Y640,4 -107 Y641,4 -107 Y642,4 -107 Y643,4
  -107 Y644,4 -107 Y645,4 -107 Y646,4 -107 Y647,4 -107 Y648,4 -107 Y649,4 -107 Y650,4 -107 Y651,4 -107 Y652,4
  -107 Y653,4 -107 Y654,4 -107 Y655,4 -107 Y656,4 -107 Y657,4 -107 Y658,4 -107 Y659,4 -107 Y660,4 -107 Y661,4
  -107 Y662,4 -107 Y663,4 -107 Y664,4 -107 Y665,4 -107 Y666,4 -107 Y667,4 -107 Y668,4 -107 Y669,4 -107 Y670,4
  -107 Y671,4 -107 Y672,4 -107 Y673,4 -107 Y674,4 -107 Y675,4 -107 Y676,4 -107 Y677,4 -107 Y678,4 -107 Y679,4
  -107 Y680,4 -107 Y681,4 -107 Y682,4 -107 Y683,4 -107 Y684,4 -107 Y685,4 -107 Y686,4 -107 Y687,4 -107 Y688,4
  -107 Y689,4 -107 Y690,4 -107 Y691,4 -107 Y692,4 -107 Y693,4 -107 Y694,4 -107 Y695,4 -107 Y696,4 -107 Y697,4
  -107 Y698,4 -107 Y699,4 -107 Y700,4 -107 Y701,4 -107 Y702,4 -107 Y703,4 -107 Y704,4 -107 Y705,4 -107 Y706,4
  -107 Y707,4 -107 Y708,4 -107 Y709,4 -107 Y710,4 -107 Y711,4 -107 Y712,4 -107 Y713,4 -107 Y714,4 -107 Y715,4
  -107 Y716,4 -107 Y717,4 -107 Y718,4 -107 Y719,4 -107 Y720,4 -107 Y721,4 -107 Y722,4 -107 Y723,4 -107 Y724,4
  -107 Y725,4 -107 Y726,4 -107 Y727,4 -107 Y728,4 -107 Y729,4 -107 Y730,4 -107 Y731,4 -107 Y732,4 -107 Y733,4
  -107 Y734,4 -107 Y735,4 -107 Y736,4 -107 Y737,4 -107 Y738,4 -107 Y739,4 -107 Y740,4 -107 Y741,4 -107 Y742,4
  -107 Y743,4 -107 Y744,4 -107 Y745,4 -107 Y746,4 -107 Y747,4 -107 Y748,4 -107 Y749,4 -107 Y750,4 -107 Y751,4
  -107 Y752,4 -107 Y753,4 -107 Y754,4 -107 Y755,4 -107 Y756,4 -107 Y757,4 -107 Y758,4 -107 Y759,4 -107 Y760,4
  -107 Y761,4 -107 Y762,4 -107 Y763,4 -107 Y764,4 -107 Y765,4 -107 Y766,4 -107 Y767,4 -107 Y768,4 -107 Y769,4
  -107 Y770,4 -107 Y771,4 -107 Y772,4 -107 Y773,4 -107 Y774,4 -107 Y775,4 -107 Y776,4 -107 Y777,4 -107 Y778,4
  -107 Y779,4 -107 Y780,4 -107 Y781,4 -107 Y782,4 -107 Y783,4 -107 Y784,4 -107 Y785,4 -107 Y786,4 -107 Y787,4
  -107 Y788,4 -107 Y789,4 -107 Y790,4 -107 Y791,4 -107 Y792,4 -107 Y793,4 -107 Y794,4 -107 Y795,4 -107 Y796,4
  -107 Y797,4 -107 Y798,4 -107 Y799,4 -107 Y800,4 -107 Y801,4 -107 Y802,4 -107 Y803,4 -107 Y804,4 -107 Y805,4
  -107 Y806,4 -107 Y807,4 -107 Y808,4 -107 Y809,4 -107 Y810,4 -107 Y811,4 -107 Y812,4 -107 Y813,4 -107 Y814,4
  -107 Y815,4 -107 Y816,4 -107 Y817,4 -107 Y818,4 -107 Y819,4 -107 Y820,4 -107 Y821,4 -107 Y822,4 -107 Y823,4
  -107 Y824,4 -107 Y825,4 -107 Y826,4 -107 Y827,4 -107 Y828,4 -107 Y829,4 -107 Y830,4 -107 Y831,4 -107 Y832,4
  -107 Y833,4 -107 Y834,4 -107 Y835,4 -107 Y836,4 -107 Y837,4 -107 Y838,4 -107 Y839,4 -110 Y840,4 -110 Y841,4
  -110 Y842,4 -102 Y843,4 -102 Y844,4 -102 Y845,4 -102 Y846,4 -102 Y847,4 -102 Y848,4 -102 Y849,4 -102 Y850,4
  -102 Y851,4 -102 Y852,4 -102 Y853,4 -102 Y854,4 -102 Y855,4 -102 Y856,4 -102 Y857,4 >= +0
 c3874: +1 Cmax -117 Y0,5 -117 Y1,5 -117 Y2,5 -117 Y3,5 -117 Y4,5 -117 Y5,5 -117 Y6,5 -117 Y7,5 -117 Y8,5
  -117 Y9,5 -117 Y10,5 -117 Y11,5 -117 Y12,5 -117 Y13,5 -117 Y14,5 -117 Y15,5 -117 Y16,5 -117 Y17,5 -117 Y18,5
  -117 Y19,5 -117 Y20,5 -117 Y21,5 -117 Y22,5 -117 Y23,5 -117 Y24,5 -117 Y25,5 -117 Y26,5 -117 Y27,5 -117 Y28,5
  -117 Y29,5 -117 Y30,5 -94 Y31,5 -94 Y32,5 -94 Y33,5 -94 Y34,5 -94 Y35,5 -94 Y36,5 -94 Y37,5 -94 Y38,5
  -94 Y39,5 -94 Y40,5 -94 Y41,5 -94 Y42,5 -94 Y43,5 -94 Y44,5 -94 Y45,5 -94 Y46,5 -94 Y47,5 -94 Y48,5
  -94 Y49,5 -94 Y50,5 -94 Y51,5 -94 Y52,5 -94 Y53,5 -94 Y54,5 -94 Y55,5 -94 Y56,5 -94 Y57,5 -94 Y58,5
  -94 Y59,5 -94 Y60,5 -94 Y61,5 -94 Y62,5 -94 Y63,5 -94 Y64,5 -94 Y65,5 -94 Y66,5 -94 Y67,5 -94 Y68,5
  -94 Y69,5 -94 Y70,5 -94 Y71,5 -94 Y72,5 -94 Y73,5 -94 Y74,5 -94 Y75,5 -94 Y76,5 -94 Y77,5 -94 Y78,5
  -94 Y79,5 -94 Y80,5 -94 Y81,5 -94 Y82,5 -94 Y83,5 -94 Y84,5 -94 Y85,5 -94 Y86,5 -94 Y87,5 -94 Y88,5
  -94 Y89,5 -94 Y90,5 -94 Y91,5 -94 Y92,5 -94 Y93,5 -112 Y94,5 -112 Y95,5 -112 Y96,5 -112 Y97,5 -112 Y98,5
  -112 Y99,5 -112 Y100,5 -112 Y101,5 -112 Y102,5 -112 Y103,5 -112 Y104,5 -112 Y105,5 -112 Y106,5 -112 Y107,5
  -112 Y108,5 -112 Y109,5 -112 Y110,5 -112 Y111,5 -112 Y112,5 -112 Y113,5 -112 Y114,5 -112 Y115,5 -112 Y116,5
  -112 Y117,5 -112 Y118,5 -112 Y119,5 -112 Y120,5 -112 Y121,5 -112 Y122,5 -112 Y123,5 -112 Y124,5 -112 Y125,5
  -112 Y126,5 -112 Y127,5 -112 Y128,5 -112 Y129,5 -112 Y130,5 -112 Y131,5 -112 Y132,5 -112 Y133,5 -112 Y134,5
  -112 Y135,5 -112 Y136,5 -112 Y137,5 -112 Y138,5 -112 Y139,5 -112 Y140,5 -112 Y141,5 -112 Y142,5 -112 Y143,5
  -112 Y144,5 -112 Y145,5 -112 Y146,5 -112 Y147,5 -112 Y148,5 -112 Y149,5 -112 Y150,5 -112 Y151,5 -112 Y152,5
  -112 Y153,5 -112 Y154,5 -112 Y155,5 -112 Y156,5 -112 Y157,5 -112 Y158,5 -112 Y159,5 -112 Y160,5 -112 Y161,5
  -112 Y162,5 -112 Y163,5 -112 Y164,5 -112 Y165,5 -112 Y166,5 -112 Y167,5 -112 Y168,5 -112 Y169,5 -112 Y170,5
  -112 Y171,5 -112 Y172,5 -112 Y173,5 -112 Y174,5 -112 Y175,5 -112 Y176,5 -112 Y177,5 -112 Y178,5 -112 Y179,5
  -112 Y180,5 -112 Y181,5 -112 Y182,5 -112 Y183,5 -112 Y184,5 -112 Y185,5 -112 Y186,5 -112 Y187,5 -112 Y188,5
  -112 Y189,5 -112 Y190,5 -112 Y191,5 -112 Y192,5 -112 Y193,5 -112 Y194,5 -112 Y195,5 -112 Y196,5 -112 Y197,5
  -112 Y198,5 -112 Y199,5 -112 Y200,5 -112 Y201,5 -112 Y202,5 -112 Y203,5 -112 Y204,5 -112 Y205,5 -112 Y206,5
  -112 Y207,5 -112 Y208,5 -112 Y209,5 -112 Y210,5 -112 Y211,5 -112 Y212,5 -112 Y213,5 -112 Y214,5 -112 Y215,5
  -112 Y216,5 -112 Y217,5 -112 Y218,5 -112 Y219,5 -112 Y220,5 -112 Y221,5 -112 Y222,5 -112 Y223,5 -112 Y224,5
  -112 Y225,5 -112 Y226,5 -112 Y227,5 -112 Y228,5 -112 Y229,5 -112 Y230,5 -112 Y231,5 -112 Y232,5 -112 Y233,5
  -112 Y234,5 -112 Y235,5 -112 Y236,5 -112 Y237,5 -112 Y238,5 -112 Y239,5 -112 Y240,5 -112 Y241,5 -112 Y242,5
  -112 Y243,5 -112 Y244,5 -112 Y245,5 -112 Y246,5 -112 Y247,5 -112 Y248,5 -112 Y249,5 -112 Y250,5 -112 Y251,5
  -112 Y252,5 -112 Y253,5 -112 Y254,5 -112 Y255,5 -112 Y256,5 -112 Y257,5 -112 Y258,5 -112 Y259,5 -112 Y260,5
  -112 Y261,5 -112 Y262,5 -112 Y263,5 -112 Y264,5 -112 Y265,5 -112 Y266,5 -112 Y267,5 -112 Y268,5 -112 Y269,5
  -112 Y270,5 -112 Y271,5 -112 Y272,5 -112 Y273,5 -112 Y274,5 -112 Y275,5 -112 Y276,5 -112 Y277,5 -112 Y278,5
  -112 Y279,5 -112 Y280,5 -112 Y281,5 -112 Y282,5 -112 Y283,5 -112 Y284,5 -112 Y285,5 -112 Y286,5 -112 Y287,5
  -112 Y288,5 -112 Y289,5 -112 Y290,5 -112 Y291,5 -112 Y292,5 -112 Y293,5 -112 Y294,5 -112 Y295,5 -112 Y296,5
  -112 Y297,5 -112 Y298,5 -112 Y299,5 -112 Y300,5 -112 Y301,5 -112 Y302,5 -112 Y303,5 -112 Y304,5 -112 Y305,5
  -112 Y306,5 -112 Y307,5 -112 Y308,5 -112 Y309,5 -112 Y310,5 -112 Y311,5 -112 Y312,5 -112 Y313,5 -112 Y314,5
  -112 Y315,5 -112 Y316,5 -112 Y317,5 -112 Y318,5 -112 Y319,5 -112 Y320,5 -112 Y321,5 -112 Y322,5 -112 Y323,5
  -112 Y324,5 -112 Y325,5 -112 Y326,5 -112 Y327,5 -112 Y328,5 -112 Y329,5 -112 Y330,5 -112 Y331,5 -112 Y332,5
  -112 Y333,5 -112 Y334,5 -112 Y335,5 -112 Y336,5 -112 Y337,5 -112 Y338,5 -112 Y339,5 -112 Y340,5 -112 Y341,5
  -112 Y342,5 -112 Y343,5 -112 Y344,5 -112 Y345,5 -112 Y346,5 -112 Y347,5 -112 Y348,5 -69 Y349,5 -69 Y350,5
  -69 Y351,5 -69 Y352,5 -69 Y353,5 -69 Y354,5 -69 Y355,5 -69 Y356,5 -69 Y357,5 -69 Y358,5 -69 Y359,5 -69 Y360,5
  -69 Y361,5 -69 Y362,5 -69 Y363,5 -69 Y364,5 -69 Y365,5 -69 Y366,5 -69 Y367,5 -69 Y368,5 -69 Y369,5 -69 Y370,5
  -69 Y371,5 -69 Y372,5 -69 Y373,5 -69 Y374,5 -69 Y375,5 -69 Y376,5 -69 Y377,5 -69 Y378,5 -69 Y379,5 -69 Y380,5
  -69 Y381,5 -69 Y382,5 -69 Y383,5 -69 Y384,5 -69 Y385,5 -69 Y386,5 -69 Y387,5 -69 Y388,5 -69 Y389,5 -69 Y390,5
  -69 Y391,5 -69 Y392,5 -69 Y393,5 -69 Y394,5 -69 Y395,5 -69 Y396,5 -69 Y397,5 -69 Y398,5 -69 Y399,5 -69 Y400,5
  -69 Y401,5 -69 Y402,5 -69 Y403,5 -69 Y404,5 -69 Y405,5 -69 Y406,5 -69 Y407,5 -69 Y408,5 -69 Y409,5 -69 Y410,5
  -69 Y411,5 -69 Y412,5 -69 Y413,5 -69 Y414,5 -69 Y415,5 -69 Y416,5 -69 Y417,5 -69 Y418,5 -69 Y419,5 -69 Y420,5
  -69 Y421,5 -69 Y422,5 -69 Y423,5 -69 Y424,5 -69 Y425,5 -69 Y426,5 -69 Y427,5 -69 Y428,5 -69 Y429,5 -69 Y430,5
  -69 Y431,5 -69 Y432,5 -69 Y433,5 -69 Y434,5 -69 Y435,5 -69 Y436,5 -69 Y437,5 -69 Y438,5 -69 Y439,5 -69 Y440,5
  -69 Y441,5 -69 Y442,5 -69 Y443,5 -69 Y444,5 -69 Y445,5 -69 Y446,5 -69 Y447,5 -69 Y448,5 -69 Y449,5 -69 Y450,5
  -69 Y451,5 -69 Y452,5 -69 Y453,5 -69 Y454,5 -69 Y455,5 -69 Y456,5 -69 Y457,5 -69 Y458,5 -69 Y459,5 -69 Y460,5
  -69 Y461,5 -69 Y462,5 -69 Y463,5 -69 Y464,5 -69 Y465,5 -69 Y466,5 -69 Y467,5 -69 Y468,5 -69 Y469,5 -69 Y470,5
  -69 Y471,5 -69 Y472,5 -69 Y473,5 -69 Y474,5 -69 Y475,5 -50 Y476,5 -50 Y477,5 -50 Y478,5 -50 Y479,5 -50 Y480,5
  -50 Y481,5 -50 Y482,5 -50 Y483,5 -50 Y484,5 -50 Y485,5 -50 Y486,5 -50 Y487,5 -50 Y488,5 -50 Y489,5 -50 Y490,5
  -50 Y491,5 -50 Y492,5 -50 Y493,5 -50 Y494,5 -50 Y495,5 -50 Y496,5 -50 Y497,5 -50 Y498,5 -50 Y499,5 -50 Y500,5
  -50 Y501,5 -50 Y502,5 -50 Y503,5 -50 Y504,5 -50 Y505,5 -50 Y506,5 -50 Y507,5 -50 Y508,5 -50 Y509,5 -50 Y510,5
  -50 Y511,5 -50 Y512,5 -50 Y513,5 -50 Y514,5 -50 Y515,5 -50 Y516,5 -50 Y517,5 -50 Y518,5 -50 Y519,5 -50 Y520,5
  -50 Y521,5 -50 Y522,5 -50 Y523,5 -50 Y524,5 -50 Y525,5 -50 Y526,5 -50 Y527,5 -50 Y528,5 -50 Y529,5 -50 Y530,5
  -50 Y531,5 -50 Y532,5 -50 Y533,5 -50 Y534,5 -50 Y535,5 -50 Y536,5 -50 Y537,5 -50 Y538,5 -92 Y539,5 -92 Y540,5
  -92 Y541,5 -92 Y542,5 -92 Y543,5 -92 Y544,5 -92 Y545,5 -92 Y546,5 -92 Y547,5 -92 Y548,5 -92 Y549,5 -92 Y550,5
  -92 Y551,5 -92 Y552,5 -92 Y553,5 -50 Y554,5 -50 Y555,5 -50 Y556,5 -50 Y557,5 -50 Y558,5 -50 Y559,5 -50 Y560,5
  -50 Y561,5 -50 Y562,5 -50 Y563,5 -50 Y564,5 -50 Y565,5 -50 Y566,5 -50 Y567,5 -50 Y568,5 -50 Y569,5 -50 Y570,5
  -50 Y571,5 -50 Y572,5 -50 Y573,5 -50 Y574,5 -50 Y575,5 -50 Y576,5 -50 Y577,5 -50 Y578,5 -50 Y579,5 -50 Y580,5
  -50 Y581,5 -50 Y582,5 -50 Y583,5 -50 Y584,5 -107 Y585,5 -107 Y586,5 -107 Y587,5 -107 Y588,5 -107 Y589,5
  -107 Y590,5 -107 Y591,5 -107 Y592,5 -107 Y593,5 -107 Y594,5 -107 Y595,5 -107 Y596,5 -107 Y597,5 -107 Y598,5
  -107 Y599,5 -107 Y600,5 -107 Y601,5 -107 Y602,5 -107 Y603,5 -107 Y604,5 -107 Y605,5 -107 Y606,5 -107 Y607,5
  -107 Y608,5 -107 Y609,5 -107 Y610,5 -107 Y611,5 -107 Y612,5 -107 Y613,5 -107 Y614,5 -107 Y615,5 -107 Y616,5
  -107 Y617,5 -107 Y618,5 -107 Y619,5 -107 Y620,5 -107 Y621,5 -107 Y622,5 -107 Y623,5 -107 Y624,5 -107 Y625,5
  -107 Y626,5 -107 Y627,5 -107 Y628,5 -107 Y629,5 -107 Y630,5 -107 Y631,5 -107 Y632,5 -107 Y633,5 -107 Y634,5
  -107 Y635,5 -107 Y636,5 -107 Y637,5 -107 Y638,5 -107 Y639,5 -107 Y640,5 -107 Y641,5 -107 Y642,5 -107 Y643,5
  -107 Y644,5 -107 Y645,5 -107 Y646,5 -107 Y647,5 -107 Y648,5 -107 Y649,5 -107 Y650,5 -107 Y651,5 -107 Y652,5
  -107 Y653,5 -107 Y654,5 -107 Y655,5 -107 Y656,5 -107 Y657,5 -107 Y658,5 -107 Y659,5 -107 Y660,5 -107 Y661,5
  -107 Y662,5 -107 Y663,5 -107 Y664,5 -107 Y665,5 -107 Y666,5 -107 Y667,5 -107 Y668,5 -107 Y669,5 -107 Y670,5
  -107 Y671,5 -107 Y672,5 -107 Y673,5 -107 Y674,5 -107 Y675,5 -107 Y676,5 -107 Y677,5 -107 Y678,5 -107 Y679,5
  -107 Y680,5 -107 Y681,5 -107 Y682,5 -107 Y683,5 -107 Y684,5 -107 Y685,5 -107 Y686,5 -107 Y687,5 -107 Y688,5
  -107 Y689,5 -107 Y690,5 -107 Y691,5 -107 Y692,5 -107 Y693,5 -107 Y694,5 -107 Y695,5 -107 Y696,5 -107 Y697,5
  -107 Y698,5 -107 Y699,5 -107 Y700,5 -107 Y701,5 -107 Y702,5 -107 Y703,5 -107 Y704,5 -107 Y705,5 -107 Y706,5
  -107 Y707,5 -107 Y708,5 -107 Y709,5 -107 Y710,5 -107 Y711,5 -107 Y712,5 -107 Y713,5 -107 Y714,5 -107 Y715,5
  -107 Y716,5 -107 Y717,5 -107 Y718,5 -107 Y719,5 -107 Y720,5 -107 Y721,5 -107 Y722,5 -107 Y723,5 -107 Y724,5
  -107 Y725,5 -107 Y726,5 -107 Y727,5 -107 Y728,5 -107 Y729,5 -107 Y730,5 -107 Y731,5 -107 Y732,5 -107 Y733,5
  -107 Y734,5 -107 Y735,5 -107 Y736,5 -107 Y737,5 -107 Y738,5 -107 Y739,5 -107 Y740,5 -107 Y741,5 -107 Y742,5
  -107 Y743,5 -107 Y744,5 -107 Y745,5 -107 Y746,5 -107 Y747,5 -107 Y748,5 -107 Y749,5 -107 Y750,5 -107 Y751,5
  -107 Y752,5 -107 Y753,5 -107 Y754,5 -107 Y755,5 -107 Y756,5 -107 Y757,5 -107 Y758,5 -107 Y759,5 -107 Y760,5
  -107 Y761,5 -107 Y762,5 -107 Y763,5 -107 Y764,5 -107 Y765,5 -107 Y766,5 -107 Y767,5 -107 Y768,5 -107 Y769,5
  -107 Y770,5 -107 Y771,5 -107 Y772,5 -107 Y773,5 -107 Y774,5 -107 Y775,5 -107 Y776,5 -107 Y777,5 -107 Y778,5
  -107 Y779,5 -107 Y780,5 -107 Y781,5 -107 Y782,5 -107 Y783,5 -107 Y784,5 -107 Y785,5 -107 Y786,5 -107 Y787,5
  -107 Y788,5 -107 Y789,5 -107 Y790,5 -107 Y791,5 -107 Y792,5 -107 Y793,5 -107 Y794,5 -107 Y795,5 -107 Y796,5
  -107 Y797,5 -107 Y798,5 -107 Y799,5 -107 Y800,5 -107 Y801,5 -107 Y802,5 -107 Y803,5 -107 Y804,5 -107 Y805,5
  -107 Y806,5 -107 Y807,5 -107 Y808,5 -107 Y809,5 -107 Y810,5 -107 Y811,5 -107 Y812,5 -107 Y813,5 -107 Y814,5
  -107 Y815,5 -107 Y816,5 -107 Y817,5 -107 Y818,5 -107 Y819,5 -107 Y820,5 -107 Y821,5 -107 Y822,5 -107 Y823,5
  -107 Y824,5 -107 Y825,5 -107 Y826,5 -107 Y827,5 -107 Y828,5 -107 Y829,5 -107 Y830,5 -107 Y831,5 -107 Y832,5
  -107 Y833,5 -107 Y834,5 -107 Y835,5 -107 Y836,5 -107 Y837,5 -107 Y838,5 -107 Y839,5 -110 Y840,5 -110 Y841,5
  -110 Y842,5 -102 Y843,5 -102 Y844,5 -102 Y845,5 -102 Y846,5 -102 Y847,5 -102 Y848,5 -102 Y849,5 -102 Y850,5
  -102 Y851,5 -102 Y852,5 -102 Y853,5 -102 Y854,5 -102 Y855,5 -102 Y856,5 -102 Y857,5 >= +0
 c3875: +1 Cmax -117 Y0,6 -117 Y1,6 -117 Y2,6 -117 Y3,6 -117 Y4,6 -117 Y5,6 -117 Y6,6 -117 Y7,6 -117 Y8,6
  -117 Y9,6 -117 Y10,6 -117 Y11,6 -117 Y12,6 -117 Y13,6 -117 Y14,6 -117 Y15,6 -117 Y16,6 -117 Y17,6 -117 Y18,6
  -117 Y19,6 -117 Y20,6 -117 Y21,6 -117 Y22,6 -117 Y23,6 -117 Y24,6 -117 Y25,6 -117 Y26,6 -117 Y27,6 -117 Y28,6
  -117 Y29,6 -117 Y30,6 -94 Y31,6 -94 Y32,6 -94 Y33,6 -94 Y34,6 -94 Y35,6 -94 Y36,6 -94 Y37,6 -94 Y38,6
  -94 Y39,6 -94 Y40,6 -94 Y41,6 -94 Y42,6 -94 Y43,6 -94 Y44,6 -94 Y45,6 -94 Y46,6 -94 Y47,6 -94 Y48,6
  -94 Y49,6 -94 Y50,6 -94 Y51,6 -94 Y52,6 -94 Y53,6 -94 Y54,6 -94 Y55,6 -94 Y56,6 -94 Y57,6 -94 Y58,6
  -94 Y59,6 -94 Y60,6 -94 Y61,6 -94 Y62,6 -94 Y63,6 -94 Y64,6 -94 Y65,6 -94 Y66,6 -94 Y67,6 -94 Y68,6
  -94 Y69,6 -94 Y70,6 -94 Y71,6 -94 Y72,6 -94 Y73,6 -94 Y74,6 -94 Y75,6 -94 Y76,6 -94 Y77,6 -94 Y78,6
  -94 Y79,6 -94 Y80,6 -94 Y81,6 -94 Y82,6 -94 Y83,6 -94 Y84,6 -94 Y85,6 -94 Y86,6 -94 Y87,6 -94 Y88,6
  -94 Y89,6 -94 Y90,6 -94 Y91,6 -94 Y92,6 -94 Y93,6 -112 Y94,6 -112 Y95,6 -112 Y96,6 -112 Y97,6 -112 Y98,6
  -112 Y99,6 -112 Y100,6 -112 Y101,6 -112 Y102,6 -112 Y103,6 -112 Y104,6 -112 Y105,6 -112 Y106,6 -112 Y107,6
  -112 Y108,6 -112 Y109,6 -112 Y110,6 -112 Y111,6 -112 Y112,6 -112 Y113,6 -112 Y114,6 -112 Y115,6 -112 Y116,6
  -112 Y117,6 -112 Y118,6 -112 Y119,6 -112 Y120,6 -112 Y121,6 -112 Y122,6 -112 Y123,6 -112 Y124,6 -112 Y125,6
  -112 Y126,6 -112 Y127,6 -112 Y128,6 -112 Y129,6 -112 Y130,6 -112 Y131,6 -112 Y132,6 -112 Y133,6 -112 Y134,6
  -112 Y135,6 -112 Y136,6 -112 Y137,6 -112 Y138,6 -112 Y139,6 -112 Y140,6 -112 Y141,6 -112 Y142,6 -112 Y143,6
  -112 Y144,6 -112 Y145,6 -112 Y146,6 -112 Y147,6 -112 Y148,6 -112 Y149,6 -112 Y150,6 -112 Y151,6 -112 Y152,6
  -112 Y153,6 -112 Y154,6 -112 Y155,6 -112 Y156,6 -112 Y157,6 -112 Y158,6 -112 Y159,6 -112 Y160,6 -112 Y161,6
  -112 Y162,6 -112 Y163,6 -112 Y164,6 -112 Y165,6 -112 Y166,6 -112 Y167,6 -112 Y168,6 -112 Y169,6 -112 Y170,6
  -112 Y171,6 -112 Y172,6 -112 Y173,6 -112 Y174,6 -112 Y175,6 -112 Y176,6 -112 Y177,6 -112 Y178,6 -112 Y179,6
  -112 Y180,6 -112 Y181,6 -112 Y182,6 -112 Y183,6 -112 Y184,6 -112 Y185,6 -112 Y186,6 -112 Y187,6 -112 Y188,6
  -112 Y189,6 -112 Y190,6 -112 Y191,6 -112 Y192,6 -112 Y193,6 -112 Y194,6 -112 Y195,6 -112 Y196,6 -112 Y197,6
  -112 Y198,6 -112 Y199,6 -112 Y200,6 -112 Y201,6 -112 Y202,6 -112 Y203,6 -112 Y204,6 -112 Y205,6 -112 Y206,6
  -112 Y207,6 -112 Y208,6 -112 Y209,6 -112 Y210,6 -112 Y211,6 -112 Y212,6 -112 Y213,6 -112 Y214,6 -112 Y215,6
  -112 Y216,6 -112 Y217,6 -112 Y218,6 -112 Y219,6 -112 Y220,6 -112 Y221,6 -112 Y222,6 -112 Y223,6 -112 Y224,6
  -112 Y225,6 -112 Y226,6 -112 Y227,6 -112 Y228,6 -112 Y229,6 -112 Y230,6 -112 Y231,6 -112 Y232,6 -112 Y233,6
  -112 Y234,6 -112 Y235,6 -112 Y236,6 -112 Y237,6 -112 Y238,6 -112 Y239,6 -112 Y240,6 -112 Y241,6 -112 Y242,6
  -112 Y243,6 -112 Y244,6 -112 Y245,6 -112 Y246,6 -112 Y247,6 -112 Y248,6 -112 Y249,6 -112 Y250,6 -112 Y251,6
  -112 Y252,6 -112 Y253,6 -112 Y254,6 -112 Y255,6 -112 Y256,6 -112 Y257,6 -112 Y258,6 -112 Y259,6 -112 Y260,6
  -112 Y261,6 -112 Y262,6 -112 Y263,6 -112 Y264,6 -112 Y265,6 -112 Y266,6 -112 Y267,6 -112 Y268,6 -112 Y269,6
  -112 Y270,6 -112 Y271,6 -112 Y272,6 -112 Y273,6 -112 Y274,6 -112 Y275,6 -112 Y276,6 -112 Y277,6 -112 Y278,6
  -112 Y279,6 -112 Y280,6 -112 Y281,6 -112 Y282,6 -112 Y283,6 -112 Y284,6 -112 Y285,6 -112 Y286,6 -112 Y287,6
  -112 Y288,6 -112 Y289,6 -112 Y290,6 -112 Y291,6 -112 Y292,6 -112 Y293,6 -112 Y294,6 -112 Y295,6 -112 Y296,6
  -112 Y297,6 -112 Y298,6 -112 Y299,6 -112 Y300,6 -112 Y301,6 -112 Y302,6 -112 Y303,6 -112 Y304,6 -112 Y305,6
  -112 Y306,6 -112 Y307,6 -112 Y308,6 -112 Y309,6 -112 Y310,6 -112 Y311,6 -112 Y312,6 -112 Y313,6 -112 Y314,6
  -112 Y315,6 -112 Y316,6 -112 Y317,6 -112 Y318,6 -112 Y319,6 -112 Y320,6 -112 Y321,6 -112 Y322,6 -112 Y323,6
  -112 Y324,6 -112 Y325,6 -112 Y326,6 -112 Y327,6 -112 Y328,6 -112 Y329,6 -112 Y330,6 -112 Y331,6 -112 Y332,6
  -112 Y333,6 -112 Y334,6 -112 Y335,6 -112 Y336,6 -112 Y337,6 -112 Y338,6 -112 Y339,6 -112 Y340,6 -112 Y341,6
  -112 Y342,6 -112 Y343,6 -112 Y344,6 -112 Y345,6 -112 Y346,6 -112 Y347,6 -112 Y348,6 -69 Y349,6 -69 Y350,6
  -69 Y351,6 -69 Y352,6 -69 Y353,6 -69 Y354,6 -69 Y355,6 -69 Y356,6 -69 Y357,6 -69 Y358,6 -69 Y359,6 -69 Y360,6
  -69 Y361,6 -69 Y362,6 -69 Y363,6 -69 Y364,6 -69 Y365,6 -69 Y366,6 -69 Y367,6 -69 Y368,6 -69 Y369,6 -69 Y370,6
  -69 Y371,6 -69 Y372,6 -69 Y373,6 -69 Y374,6 -69 Y375,6 -69 Y376,6 -69 Y377,6 -69 Y378,6 -69 Y379,6 -69 Y380,6
  -69 Y381,6 -69 Y382,6 -69 Y383,6 -69 Y384,6 -69 Y385,6 -69 Y386,6 -69 Y387,6 -69 Y388,6 -69 Y389,6 -69 Y390,6
  -69 Y391,6 -69 Y392,6 -69 Y393,6 -69 Y394,6 -69 Y395,6 -69 Y396,6 -69 Y397,6 -69 Y398,6 -69 Y399,6 -69 Y400,6
  -69 Y401,6 -69 Y402,6 -69 Y403,6 -69 Y404,6 -69 Y405,6 -69 Y406,6 -69 Y407,6 -69 Y408,6 -69 Y409,6 -69 Y410,6
  -69 Y411,6 -69 Y412,6 -69 Y413,6 -69 Y414,6 -69 Y415,6 -69 Y416,6 -69 Y417,6 -69 Y418,6 -69 Y419,6 -69 Y420,6
  -69 Y421,6 -69 Y422,6 -69 Y423,6 -69 Y424,6 -69 Y425,6 -69 Y426,6 -69 Y427,6 -69 Y428,6 -69 Y429,6 -69 Y430,6
  -69 Y431,6 -69 Y432,6 -69 Y433,6 -69 Y434,6 -69 Y435,6 -69 Y436,6 -69 Y437,6 -69 Y438,6 -69 Y439,6 -69 Y440,6
  -69 Y441,6 -69 Y442,6 -69 Y443,6 -69 Y444,6 -69 Y445,6 -69 Y446,6 -69 Y447,6 -69 Y448,6 -69 Y449,6 -69 Y450,6
  -69 Y451,6 -69 Y452,6 -69 Y453,6 -69 Y454,6 -69 Y455,6 -69 Y456,6 -69 Y457,6 -69 Y458,6 -69 Y459,6 -69 Y460,6
  -69 Y461,6 -69 Y462,6 -69 Y463,6 -69 Y464,6 -69 Y465,6 -69 Y466,6 -69 Y467,6 -69 Y468,6 -69 Y469,6 -69 Y470,6
  -69 Y471,6 -69 Y472,6 -69 Y473,6 -69 Y474,6 -69 Y475,6 -50 Y476,6 -50 Y477,6 -50 Y478,6 -50 Y479,6 -50 Y480,6
  -50 Y481,6 -50 Y482,6 -50 Y483,6 -50 Y484,6 -50 Y485,6 -50 Y486,6 -50 Y487,6 -50 Y488,6 -50 Y489,6 -50 Y490,6
  -50 Y491,6 -50 Y492,6 -50 Y493,6 -50 Y494,6 -50 Y495,6 -50 Y496,6 -50 Y497,6 -50 Y498,6 -50 Y499,6 -50 Y500,6
  -50 Y501,6 -50 Y502,6 -50 Y503,6 -50 Y504,6 -50 Y505,6 -50 Y506,6 -50 Y507,6 -50 Y508,6 -50 Y509,6 -50 Y510,6
  -50 Y511,6 -50 Y512,6 -50 Y513,6 -50 Y514,6 -50 Y515,6 -50 Y516,6 -50 Y517,6 -50 Y518,6 -50 Y519,6 -50 Y520,6
  -50 Y521,6 -50 Y522,6 -50 Y523,6 -50 Y524,6 -50 Y525,6 -50 Y526,6 -50 Y527,6 -50 Y528,6 -50 Y529,6 -50 Y530,6
  -50 Y531,6 -50 Y532,6 -50 Y533,6 -50 Y534,6 -50 Y535,6 -50 Y536,6 -50 Y537,6 -50 Y538,6 -92 Y539,6 -92 Y540,6
  -92 Y541,6 -92 Y542,6 -92 Y543,6 -92 Y544,6 -92 Y545,6 -92 Y546,6 -92 Y547,6 -92 Y548,6 -92 Y549,6 -92 Y550,6
  -92 Y551,6 -92 Y552,6 -92 Y553,6 -50 Y554,6 -50 Y555,6 -50 Y556,6 -50 Y557,6 -50 Y558,6 -50 Y559,6 -50 Y560,6
  -50 Y561,6 -50 Y562,6 -50 Y563,6 -50 Y564,6 -50 Y565,6 -50 Y566,6 -50 Y567,6 -50 Y568,6 -50 Y569,6 -50 Y570,6
  -50 Y571,6 -50 Y572,6 -50 Y573,6 -50 Y574,6 -50 Y575,6 -50 Y576,6 -50 Y577,6 -50 Y578,6 -50 Y579,6 -50 Y580,6
  -50 Y581,6 -50 Y582,6 -50 Y583,6 -50 Y584,6 -107 Y585,6 -107 Y586,6 -107 Y587,6 -107 Y588,6 -107 Y589,6
  -107 Y590,6 -107 Y591,6 -107 Y592,6 -107 Y593,6 -107 Y594,6 -107 Y595,6 -107 Y596,6 -107 Y597,6 -107 Y598,6
  -107 Y599,6 -107 Y600,6 -107 Y601,6 -107 Y602,6 -107 Y603,6 -107 Y604,6 -107 Y605,6 -107 Y606,6 -107 Y607,6
  -107 Y608,6 -107 Y609,6 -107 Y610,6 -107 Y611,6 -107 Y612,6 -107 Y613,6 -107 Y614,6 -107 Y615,6 -107 Y616,6
  -107 Y617,6 -107 Y618,6 -107 Y619,6 -107 Y620,6 -107 Y621,6 -107 Y622,6 -107 Y623,6 -107 Y624,6 -107 Y625,6
  -107 Y626,6 -107 Y627,6 -107 Y628,6 -107 Y629,6 -107 Y630,6 -107 Y631,6 -107 Y632,6 -107 Y633,6 -107 Y634,6
  -107 Y635,6 -107 Y636,6 -107 Y637,6 -107 Y638,6 -107 Y639,6 -107 Y640,6 -107 Y641,6 -107 Y642,6 -107 Y643,6
  -107 Y644,6 -107 Y645,6 -107 Y646,6 -107 Y647,6 -107 Y648,6 -107 Y649,6 -107 Y650,6 -107 Y651,6 -107 Y652,6
  -107 Y653,6 -107 Y654,6 -107 Y655,6 -107 Y656,6 -107 Y657,6 -107 Y658,6 -107 Y659,6 -107 Y660,6 -107 Y661,6
  -107 Y662,6 -107 Y663,6 -107 Y664,6 -107 Y665,6 -107 Y666,6 -107 Y667,6 -107 Y668,6 -107 Y669,6 -107 Y670,6
  -107 Y671,6 -107 Y672,6 -107 Y673,6 -107 Y674,6 -107 Y675,6 -107 Y676,6 -107 Y677,6 -107 Y678,6 -107 Y679,6
  -107 Y680,6 -107 Y681,6 -107 Y682,6 -107 Y683,6 -107 Y684,6 -107 Y685,6 -107 Y686,6 -107 Y687,6 -107 Y688,6
  -107 Y689,6 -107 Y690,6 -107 Y691,6 -107 Y692,6 -107 Y693,6 -107 Y694,6 -107 Y695,6 -107 Y696,6 -107 Y697,6
  -107 Y698,6 -107 Y699,6 -107 Y700,6 -107 Y701,6 -107 Y702,6 -107 Y703,6 -107 Y704,6 -107 Y705,6 -107 Y706,6
  -107 Y707,6 -107 Y708,6 -107 Y709,6 -107 Y710,6 -107 Y711,6 -107 Y712,6 -107 Y713,6 -107 Y714,6 -107 Y715,6
  -107 Y716,6 -107 Y717,6 -107 Y718,6 -107 Y719,6 -107 Y720,6 -107 Y721,6 -107 Y722,6 -107 Y723,6 -107 Y724,6
  -107 Y725,6 -107 Y726,6 -107 Y727,6 -107 Y728,6 -107 Y729,6 -107 Y730,6 -107 Y731,6 -107 Y732,6 -107 Y733,6
  -107 Y734,6 -107 Y735,6 -107 Y736,6 -107 Y737,6 -107 Y738,6 -107 Y739,6 -107 Y740,6 -107 Y741,6 -107 Y742,6
  -107 Y743,6 -107 Y744,6 -107 Y745,6 -107 Y746,6 -107 Y747,6 -107 Y748,6 -107 Y749,6 -107 Y750,6 -107 Y751,6
  -107 Y752,6 -107 Y753,6 -107 Y754,6 -107 Y755,6 -107 Y756,6 -107 Y757,6 -107 Y758,6 -107 Y759,6 -107 Y760,6
  -107 Y761,6 -107 Y762,6 -107 Y763,6 -107 Y764,6 -107 Y765,6 -107 Y766,6 -107 Y767,6 -107 Y768,6 -107 Y769,6
  -107 Y770,6 -107 Y771,6 -107 Y772,6 -107 Y773,6 -107 Y774,6 -107 Y775,6 -107 Y776,6 -107 Y777,6 -107 Y778,6
  -107 Y779,6 -107 Y780,6 -107 Y781,6 -107 Y782,6 -107 Y783,6 -107 Y784,6 -107 Y785,6 -107 Y786,6 -107 Y787,6
  -107 Y788,6 -107 Y789,6 -107 Y790,6 -107 Y791,6 -107 Y792,6 -107 Y793,6 -107 Y794,6 -107 Y795,6 -107 Y796,6
  -107 Y797,6 -107 Y798,6 -107 Y799,6 -107 Y800,6 -107 Y801,6 -107 Y802,6 -107 Y803,6 -107 Y804,6 -107 Y805,6
  -107 Y806,6 -107 Y807,6 -107 Y808,6 -107 Y809,6 -107 Y810,6 -107 Y811,6 -107 Y812,6 -107 Y813,6 -107 Y814,6
  -107 Y815,6 -107 Y816,6 -107 Y817,6 -107 Y818,6 -107 Y819,6 -107 Y820,6 -107 Y821,6 -107 Y822,6 -107 Y823,6
  -107 Y824,6 -107 Y825,6 -107 Y826,6 -107 Y827,6 -107 Y828,6 -107 Y829,6 -107 Y830,6 -107 Y831,6 -107 Y832,6
  -107 Y833,6 -107 Y834,6 -107 Y835,6 -107 Y836,6 -107 Y837,6 -107 Y838,6 -107 Y839,6 -110 Y840,6 -110 Y841,6
  -110 Y842,6 -102 Y843,6 -102 Y844,6 -102 Y845,6 -102 Y846,6 -102 Y847,6 -102 Y848,6 -102 Y849,6 -102 Y850,6
  -102 Y851,6 -102 Y852,6 -102 Y853,6 -102 Y854,6 -102 Y855,6 -102 Y856,6 -102 Y857,6 >= +0
 c3876: +22.6 Y0,0 <= +127.4
 c3877: +22.6 Y0,1 <= +89.3
 c3878: +22.6 Y0,2 <= +127.3
 c3879: +22.6 Y0,3 <= +104.2
 c3880: +22.6 Y0,4 <= +65.3
 c3881: +22.6 Y0,5 <= +119.6
 c3882: +22.6 Y0,6 <= +189.6
 c3883: +20.8 Y1,0 <= +127.4
 c3884: +20.8 Y1,1 <= +89.3
 c3885: +20.8 Y1,2 <= +127.3
 c3886: +20.8 Y1,3 <= +104.2
 c3887: +20.8 Y1,4 <= +65.3
 c3888: +20.8 Y1,5 <= +119.6
 c3889: +20.8 Y1,6 <= +189.6
 c3890: +21.3 Y2,0 <= +127.4
 c3891: +21.3 Y2,1 <= +89.3
 c3892: +21.3 Y2,2 <= +127.3
 c3893: +21.3 Y2,3 <= +104.2
 c3894: +21.3 Y2,4 <= +65.3
 c3895: +21.3 Y2,5 <= +119.6
 c3896: +21.3 Y2,6 <= +189.6
 c3897: +29.6 Y3,0 <= +127.4
 c3898: +29.6 Y3,1 <= +89.3
 c3899: +29.6 Y3,2 <= +127.3
 c3900: +29.6 Y3,3 <= +104.2
 c3901: +29.6 Y3,4 <= +65.3
 c3902: +29.6 Y3,5 <= +119.6
 c3903: +29.6 Y3,6 <= +189.6
 c3904: +8.4 Y4,0 <= +127.4
 c3905: +8.4 Y4,1 <= +89.3
 c3906: +8.4 Y4,2 <= +127.3
 c3907: +8.4 Y4,3 <= +104.2
 c3908: +8.4 Y4,4 <= +65.3
 c3909: +8.4 Y4,5 <= +119.6
 c3910: +8.4 Y4,6 <= +189.6
 c3911: +43.4 Y5,0 <= +127.4
 c3912: +43.4 Y5,1 <= +89.3
 c3913: +43.4 Y5,2 <= +127.3
 c3914: +43.4 Y5,3 <= +104.2
 c3915: +43.4 Y5,4 <= +65.3
 c3916: +43.4 Y5,5 <= +119.6
 c3917: +43.4 Y5,6 <= +189.6
 c3918: +43.9 Y6,0 <= +127.4
 c3919: +43.9 Y6,1 <= +89.3
 c3920: +43.9 Y6,2 <= +127.3
 c3921: +43.9 Y6,3 <= +104.2
 c3922: +43.9 Y6,4 <= +65.3
 c3923: +43.9 Y6,5 <= +119.6
 c3924: +43.9 Y6,6 <= +189.6
 c3925: +52.2 Y7,0 <= +127.4
 c3926: +52.2 Y7,1 <= +89.3
 c3927: +52.2 Y7,2 <= +127.3
 c3928: +52.2 Y7,3 <= +104.2
 c3929: +52.2 Y7,4 <= +65.3
 c3930: +52.2 Y7,5 <= +119.6
 c3931: +52.2 Y7,6 <= +189.6
 c3932: +31 Y8,0 <= +127.4
 c3933: +31 Y8,1 <= +89.3
 c3934: +31 Y8,2 <= +127.3
 c3935: +31 Y8,3 <= +104.2
 c3936: +31 Y8,4 <= +65.3
 c3937: +31 Y8,5 <= +119.6
 c3938: +31 Y8,6 <= +189.6
 c3939: +42.1 Y9,0 <= +127.4
 c3940: +42.1 Y9,1 <= +89.3
 c3941: +42.1 Y9,2 <= +127.3
 c3942: +42.1 Y9,3 <= +104.2
 c3943: +42.1 Y9,4 <= +65.3
 c3944: +42.1 Y9,5 <= +119.6
 c3945: +42.1 Y9,6 <= +189.6
 c3946: +50.4 Y10,0 <= +127.4
 c3947: +50.4 Y10,1 <= +89.3
 c3948: +50.4 Y10,2 <= +127.3
 c3949: +50.4 Y10,3 <= +104.2
 c3950: +50.4 Y10,4 <= +65.3
 c3951: +50.4 Y10,5 <= +119.6
 c3952: +50.4 Y10,6 <= +189.6
 c3953: +29.2 Y11,0 <= +127.4
 c3954: +29.2 Y11,1 <= +89.3
 c3955: +29.2 Y11,2 <= +127.3
 c3956: +29.2 Y11,3 <= +104.2
 c3957: +29.2 Y11,4 <= +65.3
 c3958: +29.2 Y11,5 <= +119.6
 c3959: +29.2 Y11,6 <= +189.6
 c3960: +50.9 Y12,0 <= +127.4
 c3961: +50.9 Y12,1 <= +89.3
 c3962: +50.9 Y12,2 <= +127.3
 c3963: +50.9 Y12,3 <= +104.2
 c3964: +50.9 Y12,4 <= +65.3
 c3965: +50.9 Y12,5 <= +119.6
 c3966: +50.9 Y12,6 <= +189.6
 c3967: +29.7 Y13,0 <= +127.4
 c3968: +29.7 Y13,1 <= +89.3
 c3969: +29.7 Y13,2 <= +127.3
 c3970: +29.7 Y13,3 <= +104.2
 c3971: +29.7 Y13,4 <= +65.3
 c3972: +29.7 Y13,5 <= +119.6
 c3973: +29.7 Y13,6 <= +189.6
 c3974: +38 Y14,0 <= +127.4
 c3975: +38 Y14,1 <= +89.3
 c3976: +38 Y14,2 <= +127.3
 c3977: +38 Y14,3 <= +104.2
 c3978: +38 Y14,4 <= +65.3
 c3979: +38 Y14,5 <= +119.6
 c3980: +38 Y14,6 <= +189.6
 c3981: +64.7 Y15,0 <= +127.4
 c3982: +64.7 Y15,1 <= +89.3
 c3983: +64.7 Y15,2 <= +127.3
 c3984: +64.7 Y15,3 <= +104.2
 c3985: +64.7 Y15,4 <= +65.3
 c3986: +64.7 Y15,5 <= +119.6
 c3987: +64.7 Y15,6 <= +189.6
 c3988: +73 Y16,0 <= +127.4
 c3989: +73 Y16,1 <= +89.3
 c3990: +73 Y16,2 <= +127.3
 c3991: +73 Y16,3 <= +104.2
 c3992: +73 Y16,4 <= +65.3
 c3993: +73 Y16,5 <= +119.6
 c3994: +73 Y16,6 <= +189.6
 c3995: +51.8 Y17,0 <= +127.4
 c3996: +51.8 Y17,1 <= +89.3
 c3997: +51.8 Y17,2 <= +127.3
 c3998: +51.8 Y17,3 <= +104.2
 c3999: +51.8 Y17,4 <= +65.3
 c4000: +51.8 Y17,5 <= +119.6
 c4001: +51.8 Y17,6 <= +189.6
 c4002: +73.5 Y18,0 <= +127.4
 c4003: +73.5 Y18,1 <= +89.3
 c4004: +73.5 Y18,2 <= +127.3
 c4005: +73.5 Y18,3 <= +104.2
 c4006: +73.5 Y18,4 <= +65.3
 c4007: +73.5 Y18,5 <= +119.6
 c4008: +73.5 Y18,6 <= +189.6
 c4009: +52.3 Y19,0 <= +127.4
 c4010: +52.3 Y19,1 <= +89.3
 c4011: +52.3 Y19,2 <= +127.3
 c4012: +52.3 Y19,3 <= +104.2
 c4013: +52.3 Y19,4 <= +65.3
 c4014: +52.3 Y19,5 <= +119.6
 c4015: +52.3 Y19,6 <= +189.6
 c4016: +60.6 Y20,0 <= +127.4
 c4017: +60.6 Y20,1 <= +89.3
 c4018: +60.6 Y20,2 <= +127.3
 c4019: +60.6 Y20,3 <= +104.2
 c4020: +60.6 Y20,4 <= +65.3
 c4021: +60.6 Y20,5 <= +119.6
 c4022: +60.6 Y20,6 <= +189.6
 c4023: +71.7 Y21,0 <= +127.4
 c4024: +71.7 Y21,1 <= +89.3
 c4025: +71.7 Y21,2 <= +127.3
 c4026: +71.7 Y21,3 <= +104.2
 c4027: +71.7 Y21,4 <= +65.3
 c4028: +71.7 Y21,5 <= +119.6
 c4029: +71.7 Y21,6 <= +189.6
 c4030: +50.5 Y22,0 <= +127.4
 c4031: +50.5 Y22,1 <= +89.3
 c4032: +50.5 Y22,2 <= +127.3
 c4033: +50.5 Y22,3 <= +104.2
 c4034: +50.5 Y22,4 <= +65.3
 c4035: +50.5 Y22,5 <= +119.6
 c4036: +50.5 Y22,6 <= +189.6
 c4037: +58.8 Y23,0 <= +127.4
 c4038: +58.8 Y23,1 <= +89.3
 c4039: +58.8 Y23,2 <= +127.3
 c4040: +58.8 Y23,3 <= +104.2
 c4041: +58.8 Y23,4 <= +65.3
 c4042: +58.8 Y23,5 <= +119.6
 c4043: +58.8 Y23,6 <= +189.6
 c4044: +59.3 Y24,0 <= +127.4
 c4045: +59.3 Y24,1 <= +89.3
 c4046: +59.3 Y24,2 <= +127.3
 c4047: +59.3 Y24,3 <= +104.2
 c4048: +59.3 Y24,4 <= +65.3
 c4049: +59.3 Y24,5 <= +119.6
 c4050: +59.3 Y24,6 <= +189.6
 c4051: +94.3 Y25,0 <= +127.4
 c4052: +94.3 Y25,1 <= +89.3
 c4053: +94.3 Y25,2 <= +127.3
 c4054: +94.3 Y25,3 <= +104.2
 c4055: +94.3 Y25,4 <= +65.3
 c4056: +94.3 Y25,5 <= +119.6
 c4057: +94.3 Y25,6 <= +189.6
 c4058: +73.1 Y26,0 <= +127.4
 c4059: +73.1 Y26,1 <= +89.3
 c4060: +73.1 Y26,2 <= +127.3
 c4061: +73.1 Y26,3 <= +104.2
 c4062: +73.1 Y26,4 <= +65.3
 c4063: +73.1 Y26,5 <= +119.6
 c4064: +73.1 Y26,6 <= +189.6
 c4065: +81.4 Y27,0 <= +127.4
 c4066: +81.4 Y27,1 <= +89.3
 c4067: +81.4 Y27,2 <= +127.3
 c4068: +81.4 Y27,3 <= +104.2
 c4069: +81.4 Y27,4 <= +65.3
 c4070: +81.4 Y27,5 <= +119.6
 c4071: +81.4 Y27,6 <= +189.6
 c4072: +81.9 Y28,0 <= +127.4
 c4073: +81.9 Y28,1 <= +89.3
 c4074: +81.9 Y28,2 <= +127.3
 c4075: +81.9 Y28,3 <= +104.2
 c4076: +81.9 Y28,4 <= +65.3
 c4077: +81.9 Y28,5 <= +119.6
 c4078: +81.9 Y28,6 <= +189.6
 c4079: +80.1 Y29,0 <= +127.4
 c4080: +80.1 Y29,1 <= +89.3
 c4081: +80.1 Y29,2 <= +127.3
 c4082: +80.1 Y29,3 <= +104.2
 c4083: +80.1 Y29,4 <= +65.3
 c4084: +80.1 Y29,5 <= +119.6
 c4085: +80.1 Y29,6 <= +189.6
 c4086: +102.7 Y30,0 <= +127.4
 c4087: +102.7 Y30,1 <= +89.3
 c4088: +102.7 Y30,2 <= +127.3
 c4089: +102.7 Y30,3 <= +104.2
 c4090: +102.7 Y30,4 <= +65.3
 c4091: +102.7 Y30,5 <= +119.6
 c4092: +102.7 Y30,6 <= +189.6
 c4093: +26.1 Y31,0 <= +127.4
 c4094: +26.1 Y31,1 <= +89.3
 c4095: +26.1 Y31,2 <= +127.3
 c4096: +26.1 Y31,3 <= +104.2
 c4097: +26.1 Y31,4 <= +65.3
 c4098: +26.1 Y31,5 <= +119.6
 c4099: +26.1 Y31,6 <= +189.6
 c4100: +10.1 Y32,0 <= +127.4
 c4101: +10.1 Y32,1 <= +89.3
 c4102: +10.1 Y32,2 <= +127.3
 c4103: +10.1 Y32,3 <= +104.2
 c4104: +10.1 Y32,4 <= +65.3
 c4105: +10.1 Y32,5 <= +119.6
 c4106: +10.1 Y32,6 <= +189.6
 c4107: +2.1 Y33,0 <= +127.4
 c4108: +2.1 Y33,1 <= +89.3
 c4109: +2.1 Y33,2 <= +127.3
 c4110: +2.1 Y33,3 <= +104.2
 c4111: +2.1 Y33,4 <= +65.3
 c4112: +2.1 Y33,5 <= +119.6
 c4113: +2.1 Y33,6 <= +189.6
 c4114: +18.9 Y34,0 <= +127.4
 c4115: +18.9 Y34,1 <= +89.3
 c4116: +18.9 Y34,2 <= +127.3
 c4117: +18.9 Y34,3 <= +104.2
 c4118: +18.9 Y34,4 <= +65.3
 c4119: +18.9 Y34,5 <= +119.6
 c4120: +18.9 Y34,6 <= +189.6
 c4121: +9.7 Y35,0 <= +127.4
 c4122: +9.7 Y35,1 <= +89.3
 c4123: +9.7 Y35,2 <= +127.3
 c4124: +9.7 Y35,3 <= +104.2
 c4125: +9.7 Y35,4 <= +65.3
 c4126: +9.7 Y35,5 <= +119.6
 c4127: +9.7 Y35,6 <= +189.6
 c4128: +14.3 Y36,0 <= +127.4
 c4129: +14.3 Y36,1 <= +89.3
 c4130: +14.3 Y36,2 <= +127.3
 c4131: +14.3 Y36,3 <= +104.2
 c4132: +14.3 Y36,4 <= +65.3
 c4133: +14.3 Y36,5 <= +119.6
 c4134: +14.3 Y36,6 <= +189.6
 c4135: +36.2 Y37,0 <= +127.4
 c4136: +36.2 Y37,1 <= +89.3
 c4137: +36.2 Y37,2 <= +127.3
 c4138: +36.2 Y37,3 <= +104.2
 c4139: +36.2 Y37,4 <= +65.3
 c4140: +36.2 Y37,5 <= +119.6
 c4141: +36.2 Y37,6 <= +189.6
 c4142: +28.2 Y38,0 <= +127.4
 c4143: +28.2 Y38,1 <= +89.3
 c4144: +28.2 Y38,2 <= +127.3
 c4145: +28.2 Y38,3 <= +104.2
 c4146: +28.2 Y38,4 <= +65.3
 c4147: +28.2 Y38,5 <= +119.6
 c4148: +28.2 Y38,6 <= +189.6
 c4149: +45 Y39,0 <= +127.4
 c4150: +45 Y39,1 <= +89.3
 c4151: +45 Y39,2 <= +127.3
 c4152: +45 Y39,3 <= +104.2
 c4153: +45 Y39,4 <= +65.3
 c4154: +45 Y39,5 <= +119.6
 c4155: +45 Y39,6 <= +189.6
 c4156: +35.8 Y40,0 <= +127.4
 c4157: +35.8 Y40,1 <= +89.3
 c4158: +35.8 Y40,2 <= +127.3
 c4159: +35.8 Y40,3 <= +104.2
 c4160: +35.8 Y40,4 <= +65.3
 c4161: +35.8 Y40,5 <= +119.6
 c4162: +35.8 Y40,6 <= +189.6
 c4163: +40.4 Y41,0 <= +127.4
 c4164: +40.4 Y41,1 <= +89.3
 c4165: +40.4 Y41,2 <= +127.3
 c4166: +40.4 Y41,3 <= +104.2
 c4167: +40.4 Y41,4 <= +65.3
 c4168: +40.4 Y41,5 <= +119.6
 c4169: +40.4 Y41,6 <= +189.6
 c4170: +12.2 Y42,0 <= +127.4
 c4171: +12.2 Y42,1 <= +89.3
 c4172: +12.2 Y42,2 <= +127.3
 c4173: +12.2 Y42,3 <= +104.2
 c4174: +12.2 Y42,4 <= +65.3
 c4175: +12.2 Y42,5 <= +119.6
 c4176: +12.2 Y42,6 <= +189.6
 c4177: +29 Y43,0 <= +127.4
 c4178: +29 Y43,1 <= +89.3
 c4179: +29 Y43,2 <= +127.3
 c4180: +29 Y43,3 <= +104.2
 c4181: +29 Y43,4 <= +65.3
 c4182: +29 Y43,5 <= +119.6
 c4183: +29 Y43,6 <= +189.6
 c4184: +19.8 Y44,0 <= +127.4
 c4185: +19.8 Y44,1 <= +89.3
 c4186: +19.8 Y44,2 <= +127.3
 c4187: +19.8 Y44,3 <= +104.2
 c4188: +19.8 Y44,4 <= +65.3
 c4189: +19.8 Y44,5 <= +119.6
 c4190: +19.8 Y44,6 <= +189.6
 c4191: +24.4 Y45,0 <= +127.4
 c4192: +24.4 Y45,1 <= +89.3
 c4193: +24.4 Y45,2 <= +127.3
 c4194: +24.4 Y45,3 <= +104.2
 c4195: +24.4 Y45,4 <= +65.3
 c4196: +24.4 Y45,5 <= +119.6
 c4197: +24.4 Y45,6 <= +189.6
 c4198: +21 Y46,0 <= +127.4
 c4199: +21 Y46,1 <= +89.3
 c4200: +21 Y46,2 <= +127.3
 c4201: +21 Y46,3 <= +104.2
 c4202: +21 Y46,4 <= +65.3
 c4203: +21 Y46,5 <= +119.6
 c4204: +21 Y46,6 <= +189.6
 c4205: +11.8 Y47,0 <= +127.4
 c4206: +11.8 Y47,1 <= +89.3
 c4207: +11.8 Y47,2 <= +127.3
 c4208: +11.8 Y47,3 <= +104.2
 c4209: +11.8 Y47,4 <= +65.3
 c4210: +11.8 Y47,5 <= +119.6
 c4211: +11.8 Y47,6 <= +189.6
 c4212: +16.4 Y48,0 <= +127.4
 c4213: +16.4 Y48,1 <= +89.3
 c4214: +16.4 Y48,2 <= +127.3
 c4215: +16.4 Y48,3 <= +104.2
 c4216: +16.4 Y48,4 <= +65.3
 c4217: +16.4 Y48,5 <= +119.6
 c4218: +16.4 Y48,6 <= +189.6
 c4219: +28.6 Y49,0 <= +127.4
 c4220: +28.6 Y49,1 <= +89.3
 c4221: +28.6 Y49,2 <= +127.3
 c4222: +28.6 Y49,3 <= +104.2
 c4223: +28.6 Y49,4 <= +65.3
 c4224: +28.6 Y49,5 <= +119.6
 c4225: +28.6 Y49,6 <= +189.6
 c4226: +33.2 Y50,0 <= +127.4
 c4227: +33.2 Y50,1 <= +89.3
 c4228: +33.2 Y50,2 <= +127.3
 c4229: +33.2 Y50,3 <= +104.2
 c4230: +33.2 Y50,4 <= +65.3
 c4231: +33.2 Y50,5 <= +119.6
 c4232: +33.2 Y50,6 <= +189.6
 c4233: +24 Y51,0 <= +127.4
 c4234: +24 Y51,1 <= +89.3
 c4235: +24 Y51,2 <= +127.3
 c4236: +24 Y51,3 <= +104.2
 c4237: +24 Y51,4 <= +65.3
 c4238: +24 Y51,5 <= +119.6
 c4239: +24 Y51,6 <= +189.6
 c4240: +38.3 Y52,0 <= +127.4
 c4241: +38.3 Y52,1 <= +89.3
 c4242: +38.3 Y52,2 <= +127.3
 c4243: +38.3 Y52,3 <= +104.2
 c4244: +38.3 Y52,4 <= +65.3
 c4245: +38.3 Y52,5 <= +119.6
 c4246: +38.3 Y52,6 <= +189.6
 c4247: +55.1 Y53,0 <= +127.4
 c4248: +55.1 Y53,1 <= +89.3
 c4249: +55.1 Y53,2 <= +127.3
 c4250: +55.1 Y53,3 <= +104.2
 c4251: +55.1 Y53,4 <= +65.3
 c4252: +55.1 Y53,5 <= +119.6
 c4253: +55.1 Y53,6 <= +189.6
 c4254: +45.9 Y54,0 <= +127.4
 c4255: +45.9 Y54,1 <= +89.3
 c4256: +45.9 Y54,2 <= +127.3
 c4257: +45.9 Y54,3 <= +104.2
 c4258: +45.9 Y54,4 <= +65.3
 c4259: +45.9 Y54,5 <= +119.6
 c4260: +45.9 Y54,6 <= +189.6
 c4261: +50.5 Y55,0 <= +127.4
 c4262: +50.5 Y55,1 <= +89.3
 c4263: +50.5 Y55,2 <= +127.3
 c4264: +50.5 Y55,3 <= +104.2
 c4265: +50.5 Y55,4 <= +65.3
 c4266: +50.5 Y55,5 <= +119.6
 c4267: +50.5 Y55,6 <= +189.6
 c4268: +47.1 Y56,0 <= +127.4
 c4269: +47.1 Y56,1 <= +89.3
 c4270: +47.1 Y56,2 <= +127.3
 c4271: +47.1 Y56,3 <= +104.2
 c4272: +47.1 Y56,4 <= +65.3
 c4273: +47.1 Y56,5 <= +119.6
 c4274: +47.1 Y56,6 <= +189.6
 c4275: +37.9 Y57,0 <= +127.4
 c4276: +37.9 Y57,1 <= +89.3
 c4277: +37.9 Y57,2 <= +127.3
 c4278: +37.9 Y57,3 <= +104.2
 c4279: +37.9 Y57,4 <= +65.3
 c4280: +37.9 Y57,5 <= +119.6
 c4281: +37.9 Y57,6 <= +189.6
 c4282: +42.5 Y58,0 <= +127.4
 c4283: +42.5 Y58,1 <= +89.3
 c4284: +42.5 Y58,2 <= +127.3
 c4285: +42.5 Y58,3 <= +104.2
 c4286: +42.5 Y58,4 <= +65.3
 c4287: +42.5 Y58,5 <= +119.6
 c4288: +42.5 Y58,6 <= +189.6
 c4289: +54.7 Y59,0 <= +127.4
 c4290: +54.7 Y59,1 <= +89.3
 c4291: +54.7 Y59,2 <= +127.3
 c4292: +54.7 Y59,3 <= +104.2
 c4293: +54.7 Y59,4 <= +65.3
 c4294: +54.7 Y59,5 <= +119.6
 c4295: +54.7 Y59,6 <= +189.6
 c4296: +59.3 Y60,0 <= +127.4
 c4297: +59.3 Y60,1 <= +89.3
 c4298: +59.3 Y60,2 <= +127.3
 c4299: +59.3 Y60,3 <= +104.2
 c4300: +59.3 Y60,4 <= +65.3
 c4301: +59.3 Y60,5 <= +119.6
 c4302: +59.3 Y60,6 <= +189.6
 c4303: +50.1 Y61,0 <= +127.4
 c4304: +50.1 Y61,1 <= +89.3
 c4305: +50.1 Y61,2 <= +127.3
 c4306: +50.1 Y61,3 <= +104.2
 c4307: +50.1 Y61,4 <= +65.3
 c4308: +50.1 Y61,5 <= +119.6
 c4309: +50.1 Y61,6 <= +189.6
 c4310: +31.1 Y62,0 <= +127.4
 c4311: +31.1 Y62,1 <= +89.3
 c4312: +31.1 Y62,2 <= +127.3
 c4313: +31.1 Y62,3 <= +104.2
 c4314: +31.1 Y62,4 <= +65.3
 c4315: +31.1 Y62,5 <= +119.6
 c4316: +31.1 Y62,6 <= +189.6
 c4317: +21.9 Y63,0 <= +127.4
 c4318: +21.9 Y63,1 <= +89.3
 c4319: +21.9 Y63,2 <= +127.3
 c4320: +21.9 Y63,3 <= +104.2
 c4321: +21.9 Y63,4 <= +65.3
 c4322: +21.9 Y63,5 <= +119.6
 c4323: +21.9 Y63,6 <= +189.6
 c4324: +26.5 Y64,0 <= +127.4
 c4325: +26.5 Y64,1 <= +89.3
 c4326: +26.5 Y64,2 <= +127.3
 c4327: +26.5 Y64,3 <= +104.2
 c4328: +26.5 Y64,4 <= +65.3
 c4329: +26.5 Y64,5 <= +119.6
 c4330: +26.5 Y64,6 <= +189.6
 c4331: +38.7 Y65,0 <= +127.4
 c4332: +38.7 Y65,1 <= +89.3
 c4333: +38.7 Y65,2 <= +127.3
 c4334: +38.7 Y65,3 <= +104.2
 c4335: +38.7 Y65,4 <= +65.3
 c4336: +38.7 Y65,5 <= +119.6
 c4337: +38.7 Y65,6 <= +189.6
 c4338: +43.3 Y66,0 <= +127.4
 c4339: +43.3 Y66,1 <= +89.3
 c4340: +43.3 Y66,2 <= +127.3
 c4341: +43.3 Y66,3 <= +104.2
 c4342: +43.3 Y66,4 <= +65.3
 c4343: +43.3 Y66,5 <= +119.6
 c4344: +43.3 Y66,6 <= +189.6
 c4345: +34.1 Y67,0 <= +127.4
 c4346: +34.1 Y67,1 <= +89.3
 c4347: +34.1 Y67,2 <= +127.3
 c4348: +34.1 Y67,3 <= +104.2
 c4349: +34.1 Y67,4 <= +65.3
 c4350: +34.1 Y67,5 <= +119.6
 c4351: +34.1 Y67,6 <= +189.6
 c4352: +30.7 Y68,0 <= +127.4
 c4353: +30.7 Y68,1 <= +89.3
 c4354: +30.7 Y68,2 <= +127.3
 c4355: +30.7 Y68,3 <= +104.2
 c4356: +30.7 Y68,4 <= +65.3
 c4357: +30.7 Y68,5 <= +119.6
 c4358: +30.7 Y68,6 <= +189.6
 c4359: +35.3 Y69,0 <= +127.4
 c4360: +35.3 Y69,1 <= +89.3
 c4361: +35.3 Y69,2 <= +127.3
 c4362: +35.3 Y69,3 <= +104.2
 c4363: +35.3 Y69,4 <= +65.3
 c4364: +35.3 Y69,5 <= +119.6
 c4365: +35.3 Y69,6 <= +189.6
 c4366: +26.1 Y70,0 <= +127.4
 c4367: +26.1 Y70,1 <= +89.3
 c4368: +26.1 Y70,2 <= +127.3
 c4369: +26.1 Y70,3 <= +104.2
 c4370: +26.1 Y70,4 <= +65.3
 c4371: +26.1 Y70,5 <= +119.6
 c4372: +26.1 Y70,6 <= +189.6
 c4373: +42.9 Y71,0 <= +127.4
 c4374: +42.9 Y71,1 <= +89.3
 c4375: +42.9 Y71,2 <= +127.3
 c4376: +42.9 Y71,3 <= +104.2
 c4377: +42.9 Y71,4 <= +65.3
 c4378: +42.9 Y71,5 <= +119.6
 c4379: +42.9 Y71,6 <= +189.6
 c4380: +57.2 Y72,0 <= +127.4
 c4381: +57.2 Y72,1 <= +89.3
 c4382: +57.2 Y72,2 <= +127.3
 c4383: +57.2 Y72,3 <= +104.2
 c4384: +57.2 Y72,4 <= +65.3
 c4385: +57.2 Y72,5 <= +119.6
 c4386: +57.2 Y72,6 <= +189.6
 c4387: +48 Y73,0 <= +127.4
 c4388: +48 Y73,1 <= +89.3
 c4389: +48 Y73,2 <= +127.3
 c4390: +48 Y73,3 <= +104.2
 c4391: +48 Y73,4 <= +65.3
 c4392: +48 Y73,5 <= +119.6
 c4393: +48 Y73,6 <= +189.6
 c4394: +52.6 Y74,0 <= +127.4
 c4395: +52.6 Y74,1 <= +89.3
 c4396: +52.6 Y74,2 <= +127.3
 c4397: +52.6 Y74,3 <= +104.2
 c4398: +52.6 Y74,4 <= +65.3
 c4399: +52.6 Y74,5 <= +119.6
 c4400: +52.6 Y74,6 <= +189.6
 c4401: +64.8 Y75,0 <= +127.4
 c4402: +64.8 Y75,1 <= +89.3
 c4403: +64.8 Y75,2 <= +127.3
 c4404: +64.8 Y75,3 <= +104.2
 c4405: +64.8 Y75,4 <= +65.3
 c4406: +64.8 Y75,5 <= +119.6
 c4407: +64.8 Y75,6 <= +189.6
 c4408: +69.4 Y76,0 <= +127.4
 c4409: +69.4 Y76,1 <= +89.3
 c4410: +69.4 Y76,2 <= +127.3
 c4411: +69.4 Y76,3 <= +104.2
 c4412: +69.4 Y76,4 <= +65.3
 c4413: +69.4 Y76,5 <= +119.6
 c4414: +69.4 Y76,6 <= +189.6
 c4415: +60.2 Y77,0 <= +127.4
 c4416: +60.2 Y77,1 <= +89.3
 c4417: +60.2 Y77,2 <= +127.3
 c4418: +60.2 Y77,3 <= +104.2
 c4419: +60.2 Y77,4 <= +65.3
 c4420: +60.2 Y77,5 <= +119.6
 c4421: +60.2 Y77,6 <= +189.6
 c4422: +56.8 Y78,0 <= +127.4
 c4423: +56.8 Y78,1 <= +89.3
 c4424: +56.8 Y78,2 <= +127.3
 c4425: +56.8 Y78,3 <= +104.2
 c4426: +56.8 Y78,4 <= +65.3
 c4427: +56.8 Y78,5 <= +119.6
 c4428: +56.8 Y78,6 <= +189.6
 c4429: +61.4 Y79,0 <= +127.4
 c4430: +61.4 Y79,1 <= +89.3
 c4431: +61.4 Y79,2 <= +127.3
 c4432: +61.4 Y79,3 <= +104.2
 c4433: +61.4 Y79,4 <= +65.3
 c4434: +61.4 Y79,5 <= +119.6
 c4435: +61.4 Y79,6 <= +189.6
 c4436: +52.2 Y80,0 <= +127.4
 c4437: +52.2 Y80,1 <= +89.3
 c4438: +52.2 Y80,2 <= +127.3
 c4439: +52.2 Y80,3 <= +104.2
 c4440: +52.2 Y80,4 <= +65.3
 c4441: +52.2 Y80,5 <= +119.6
 c4442: +52.2 Y80,6 <= +189.6
 c4443: +69 Y81,0 <= +127.4
 c4444: +69 Y81,1 <= +89.3
 c4445: +69 Y81,2 <= +127.3
 c4446: +69 Y81,3 <= +104.2
 c4447: +69 Y81,4 <= +65.3
 c4448: +69 Y81,5 <= +119.6
 c4449: +69 Y81,6 <= +189.6
 c4450: +40.8 Y82,0 <= +127.4
 c4451: +40.8 Y82,1 <= +89.3
 c4452: +40.8 Y82,2 <= +127.3
 c4453: +40.8 Y82,3 <= +104.2
 c4454: +40.8 Y82,4 <= +65.3
 c4455: +40.8 Y82,5 <= +119.6
 c4456: +40.8 Y82,6 <= +189.6
 c4457: +45.4 Y83,0 <= +127.4
 c4458: +45.4 Y83,1 <= +89.3
 c4459: +45.4 Y83,2 <= +127.3
 c4460: +45.4 Y83,3 <= +104.2
 c4461: +45.4 Y83,4 <= +65.3
 c4462: +45.4 Y83,5 <= +119.6
 c4463: +45.4 Y83,6 <= +189.6
 c4464: +36.2 Y84,0 <= +127.4
 c4465: +36.2 Y84,1 <= +89.3
 c4466: +36.2 Y84,2 <= +127.3
 c4467: +36.2 Y84,3 <= +104.2
 c4468: +36.2 Y84,4 <= +65.3
 c4469: +36.2 Y84,5 <= +119.6
 c4470: +36.2 Y84,6 <= +189.6
 c4471: +53 Y85,0 <= +127.4
 c4472: +53 Y85,1 <= +89.3
 c4473: +53 Y85,2 <= +127.3
 c4474: +53 Y85,3 <= +104.2
 c4475: +53 Y85,4 <= +65.3
 c4476: +53 Y85,5 <= +119.6
 c4477: +53 Y85,6 <= +189.6
 c4478: +45 Y86,0 <= +127.4
 c4479: +45 Y86,1 <= +89.3
 c4480: +45 Y86,2 <= +127.3
 c4481: +45 Y86,3 <= +104.2
 c4482: +45 Y86,4 <= +65.3
 c4483: +45 Y86,5 <= +119.6
 c4484: +45 Y86,6 <= +189.6
 c4485: +66.9 Y87,0 <= +127.4
 c4486: +66.9 Y87,1 <= +89.3
 c4487: +66.9 Y87,2 <= +127.3
 c4488: +66.9 Y87,3 <= +104.2
 c4489: +66.9 Y87,4 <= +65.3
 c4490: +66.9 Y87,5 <= +119.6
 c4491: +66.9 Y87,6 <= +189.6
 c4492: +71.5 Y88,0 <= +127.4
 c4493: +71.5 Y88,1 <= +89.3
 c4494: +71.5 Y88,2 <= +127.3
 c4495: +71.5 Y88,3 <= +104.2
 c4496: +71.5 Y88,4 <= +65.3
 c4497: +71.5 Y88,5 <= +119.6
 c4498: +71.5 Y88,6 <= +189.6
 c4499: +62.3 Y89,0 <= +127.4
 c4500: +62.3 Y89,1 <= +89.3
 c4501: +62.3 Y89,2 <= +127.3
 c4502: +62.3 Y89,3 <= +104.2
 c4503: +62.3 Y89,4 <= +65.3
 c4504: +62.3 Y89,5 <= +119.6
 c4505: +62.3 Y89,6 <= +189.6
 c4506: +79.1 Y90,0 <= +127.4
 c4507: +79.1 Y90,1 <= +89.3
 c4508: +79.1 Y90,2 <= +127.3
 c4509: +79.1 Y90,3 <= +104.2
 c4510: +79.1 Y90,4 <= +65.3
 c4511: +79.1 Y90,5 <= +119.6
 c4512: +79.1 Y90,6 <= +189.6
 c4513: +71.1 Y91,0 <= +127.4
 c4514: +71.1 Y91,1 <= +89.3
 c4515: +71.1 Y91,2 <= +127.3
 c4516: +71.1 Y91,3 <= +104.2
 c4517: +71.1 Y91,4 <= +65.3
 c4518: +71.1 Y91,5 <= +119.6
 c4519: +71.1 Y91,6 <= +189.6
 c4520: +55.1 Y92,0 <= +127.4
 c4521: +55.1 Y92,1 <= +89.3
 c4522: +55.1 Y92,2 <= +127.3
 c4523: +55.1 Y92,3 <= +104.2
 c4524: +55.1 Y92,4 <= +65.3
 c4525: +55.1 Y92,5 <= +119.6
 c4526: +55.1 Y92,6 <= +189.6
 c4527: +81.2 Y93,0 <= +127.4
 c4528: +81.2 Y93,1 <= +89.3
 c4529: +81.2 Y93,2 <= +127.3
 c4530: +81.2 Y93,3 <= +104.2
 c4531: +81.2 Y93,4 <= +65.3
 c4532: +81.2 Y93,5 <= +119.6
 c4533: +81.2 Y93,6 <= +189.6
 c4534: +8.2 Y94,0 <= +127.4
 c4535: +8.2 Y94,1 <= +89.3
 c4536: +8.2 Y94,2 <= +127.3
 c4537: +8.2 Y94,3 <= +104.2
 c4538: +8.2 Y94,4 <= +65.3
 c4539: +8.2 Y94,5 <= +119.6
 c4540: +8.2 Y94,6 <= +189.6
 c4541: +1.6 Y95,0 <= +127.4
 c4542: +1.6 Y95,1 <= +89.3
 c4543: +1.6 Y95,2 <= +127.3
 c4544: +1.6 Y95,3 <= +104.2
 c4545: +1.6 Y95,4 <= +65.3
 c4546: +1.6 Y95,5 <= +119.6
 c4547: +1.6 Y95,6 <= +189.6
 c4548: +20.4 Y96,0 <= +127.4
 c4549: +20.4 Y96,1 <= +89.3
 c4550: +20.4 Y96,2 <= +127.3
 c4551: +20.4 Y96,3 <= +104.2
 c4552: +20.4 Y96,4 <= +65.3
 c4553: +20.4 Y96,5 <= +119.6
 c4554: +20.4 Y96,6 <= +189.6
 c4555: +27.2 Y97,0 <= +127.4
 c4556: +27.2 Y97,1 <= +89.3
 c4557: +27.2 Y97,2 <= +127.3
 c4558: +27.2 Y97,3 <= +104.2
 c4559: +27.2 Y97,4 <= +65.3
 c4560: +27.2 Y97,5 <= +119.6
 c4561: +27.2 Y97,6 <= +189.6
 c4562: +30 Y98,0 <= +127.4
 c4563: +30 Y98,1 <= +89.3
 c4564: +30 Y98,2 <= +127.3
 c4565: +30 Y98,3 <= +104.2
 c4566: +30 Y98,4 <= +65.3
 c4567: +30 Y98,5 <= +119.6
 c4568: +30 Y98,6 <= +189.6
 c4569: +24.7 Y99,0 <= +127.4
 c4570: +24.7 Y99,1 <= +89.3
 c4571: +24.7 Y99,2 <= +127.3
 c4572: +24.7 Y99,3 <= +104.2
 c4573: +24.7 Y99,4 <= +65.3
 c4574: +24.7 Y99,5 <= +119.6
 c4575: +24.7 Y99,6 <= +189.6
 c4576: +18.1 Y100,0 <= +127.4
 c4577: +18.1 Y100,1 <= +89.3
 c4578: +18.1 Y100,2 <= +127.3
 c4579: +18.1 Y100,3 <= +104.2
 c4580: +18.1 Y100,4 <= +65.3
 c4581: +18.1 Y100,5 <= +119.6
 c4582: +18.1 Y100,6 <= +189.6
 c4583: +26.6 Y101,0 <= +127.4
 c4584: +26.6 Y101,1 <= +89.3
 c4585: +26.6 Y101,2 <= +127.3
 c4586: +26.6 Y101,3 <= +104.2
 c4587: +26.6 Y101,4 <= +65.3
 c4588: +26.6 Y101,5 <= +119.6
 c4589: +26.6 Y101,6 <= +189.6
 c4590: +9.8 Y102,0 <= +127.4
 c4591: +9.8 Y102,1 <= +89.3
 c4592: +9.8 Y102,2 <= +127.3
 c4593: +9.8 Y102,3 <= +104.2
 c4594: +9.8 Y102,4 <= +65.3
 c4595: +9.8 Y102,5 <= +119.6
 c4596: +9.8 Y102,6 <= +189.6
 c4597: +28.6 Y103,0 <= +127.4
 c4598: +28.6 Y103,1 <= +89.3
 c4599: +28.6 Y103,2 <= +127.3
 c4600: +28.6 Y103,3 <= +104.2
 c4601: +28.6 Y103,4 <= +65.3
 c4602: +28.6 Y103,5 <= +119.6
 c4603: +28.6 Y103,6 <= +189.6
 c4604: +35.4 Y104,0 <= +127.4
 c4605: +35.4 Y104,1 <= +89.3
 c4606: +35.4 Y104,2 <= +127.3
 c4607: +35.4 Y104,3 <= +104.2
 c4608: +35.4 Y104,4 <= +65.3
 c4609: +35.4 Y104,5 <= +119.6
 c4610: +35.4 Y104,6 <= +189.6
 c4611: +38.2 Y105,0 <= +127.4
 c4612: +38.2 Y105,1 <= +89.3
 c4613: +38.2 Y105,2 <= +127.3
 c4614: +38.2 Y105,3 <= +104.2
 c4615: +38.2 Y105,4 <= +65.3
 c4616: +38.2 Y105,5 <= +119.6
 c4617: +38.2 Y105,6 <= +189.6
 c4618: +32.9 Y106,0 <= +127.4
 c4619: +32.9 Y106,1 <= +89.3
 c4620: +32.9 Y106,2 <= +127.3
 c4621: +32.9 Y106,3 <= +104.2
 c4622: +32.9 Y106,4 <= +65.3
 c4623: +32.9 Y106,5 <= +119.6
 c4624: +32.9 Y106,6 <= +189.6
 c4625: +26.3 Y107,0 <= +127.4
 c4626: +26.3 Y107,1 <= +89.3
 c4627: +26.3 Y107,2 <= +127.3
 c4628: +26.3 Y107,3 <= +104.2
 c4629: +26.3 Y107,4 <= +65.3
 c4630: +26.3 Y107,5 <= +119.6
 c4631: +26.3 Y107,6 <= +189.6
 c4632: +34.8 Y108,0 <= +127.4
 c4633: +34.8 Y108,1 <= +89.3
 c4634: +34.8 Y108,2 <= +127.3
 c4635: +34.8 Y108,3 <= +104.2
 c4636: +34.8 Y108,4 <= +65.3
 c4637: +34.8 Y108,5 <= +119.6
 c4638: +34.8 Y108,6 <= +189.6
 c4639: +22 Y109,0 <= +127.4
 c4640: +22 Y109,1 <= +89.3
 c4641: +22 Y109,2 <= +127.3
 c4642: +22 Y109,3 <= +104.2
 c4643: +22 Y109,4 <= +65.3
 c4644: +22 Y109,5 <= +119.6
 c4645: +22 Y109,6 <= +189.6
 c4646: +28.8 Y110,0 <= +127.4
 c4647: +28.8 Y110,1 <= +89.3
 c4648: +28.8 Y110,2 <= +127.3
 c4649: +28.8 Y110,3 <= +104.2
 c4650: +28.8 Y110,4 <= +65.3
 c4651: +28.8 Y110,5 <= +119.6
 c4652: +28.8 Y110,6 <= +189.6
 c4653: +31.6 Y111,0 <= +127.4
 c4654: +31.6 Y111,1 <= +89.3
 c4655: +31.6 Y111,2 <= +127.3
 c4656: +31.6 Y111,3 <= +104.2
 c4657: +31.6 Y111,4 <= +65.3
 c4658: +31.6 Y111,5 <= +119.6
 c4659: +31.6 Y111,6 <= +189.6
 c4660: +26.3 Y112,0 <= +127.4
 c4661: +26.3 Y112,1 <= +89.3
 c4662: +26.3 Y112,2 <= +127.3
 c4663: +26.3 Y112,3 <= +104.2
 c4664: +26.3 Y112,4 <= +65.3
 c4665: +26.3 Y112,5 <= +119.6
 c4666: +26.3 Y112,6 <= +189.6
 c4667: +19.7 Y113,0 <= +127.4
 c4668: +19.7 Y113,1 <= +89.3
 c4669: +19.7 Y113,2 <= +127.3
 c4670: +19.7 Y113,3 <= +104.2
 c4671: +19.7 Y113,4 <= +65.3
 c4672: +19.7 Y113,5 <= +119.6
 c4673: +19.7 Y113,6 <= +189.6
 c4674: +28.2 Y114,0 <= +127.4
 c4675: +28.2 Y114,1 <= +89.3
 c4676: +28.2 Y114,2 <= +127.3
 c4677: +28.2 Y114,3 <= +104.2
 c4678: +28.2 Y114,4 <= +65.3
 c4679: +28.2 Y114,5 <= +119.6
 c4680: +28.2 Y114,6 <= +189.6
 c4681: +47.6 Y115,0 <= +127.4
 c4682: +47.6 Y115,1 <= +89.3
 c4683: +47.6 Y115,2 <= +127.3
 c4684: +47.6 Y115,3 <= +104.2
 c4685: +47.6 Y115,4 <= +65.3
 c4686: +47.6 Y115,5 <= +119.6
 c4687: +47.6 Y115,6 <= +189.6
 c4688: +50.4 Y116,0 <= +127.4
 c4689: +50.4 Y116,1 <= +89.3
 c4690: +50.4 Y116,2 <= +127.3
 c4691: +50.4 Y116,3 <= +104.2
 c4692: +50.4 Y116,4 <= +65.3
 c4693: +50.4 Y116,5 <= +119.6
 c4694: +50.4 Y116,6 <= +189.6
 c4695: +45.1 Y117,0 <= +127.4
 c4696: +45.1 Y117,1 <= +89.3
 c4697: +45.1 Y117,2 <= +127.3
 c4698: +45.1 Y117,3 <= +104.2
 c4699: +45.1 Y117,4 <= +65.3
 c4700: +45.1 Y117,5 <= +119.6
 c4701: +45.1 Y117,6 <= +189.6
 c4702: +38.5 Y118,0 <= +127.4
 c4703: +38.5 Y118,1 <= +89.3
 c4704: +38.5 Y118,2 <= +127.3
 c4705: +38.5 Y118,3 <= +104.2
 c4706: +38.5 Y118,4 <= +65.3
 c4707: +38.5 Y118,5 <= +119.6
 c4708: +38.5 Y118,6 <= +189.6
 c4709: +47 Y119,0 <= +127.4
 c4710: +47 Y119,1 <= +89.3
 c4711: +47 Y119,2 <= +127.3
 c4712: +47 Y119,3 <= +104.2
 c4713: +47 Y119,4 <= +65.3
 c4714: +47 Y119,5 <= +119.6
 c4715: +47 Y119,6 <= +189.6
 c4716: +57.2 Y120,0 <= +127.4
 c4717: +57.2 Y120,1 <= +89.3
 c4718: +57.2 Y120,2 <= +127.3
 c4719: +57.2 Y120,3 <= +104.2
 c4720: +57.2 Y120,4 <= +65.3
 c4721: +57.2 Y120,5 <= +119.6
 c4722: +57.2 Y120,6 <= +189.6
 c4723: +51.9 Y121,0 <= +127.4
 c4724: +51.9 Y121,1 <= +89.3
 c4725: +51.9 Y121,2 <= +127.3
 c4726: +51.9 Y121,3 <= +104.2
 c4727: +51.9 Y121,4 <= +65.3
 c4728: +51.9 Y121,5 <= +119.6
 c4729: +51.9 Y121,6 <= +189.6
 c4730: +45.3 Y122,0 <= +127.4
 c4731: +45.3 Y122,1 <= +89.3
 c4732: +45.3 Y122,2 <= +127.3
 c4733: +45.3 Y122,3 <= +104.2
 c4734: +45.3 Y122,4 <= +65.3
 c4735: +45.3 Y122,5 <= +119.6
 c4736: +45.3 Y122,6 <= +189.6
 c4737: +53.8 Y123,0 <= +127.4
 c4738: +53.8 Y123,1 <= +89.3
 c4739: +53.8 Y123,2 <= +127.3
 c4740: +53.8 Y123,3 <= +104.2
 c4741: +53.8 Y123,4 <= +65.3
 c4742: +53.8 Y123,5 <= +119.6
 c4743: +53.8 Y123,6 <= +189.6
 c4744: +54.7 Y124,0 <= +127.4
 c4745: +54.7 Y124,1 <= +89.3
 c4746: +54.7 Y124,2 <= +127.3
 c4747: +54.7 Y124,3 <= +104.2
 c4748: +54.7 Y124,4 <= +65.3
 c4749: +54.7 Y124,5 <= +119.6
 c4750: +54.7 Y124,6 <= +189.6
 c4751: +48.1 Y125,0 <= +127.4
 c4752: +48.1 Y125,1 <= +89.3
 c4753: +48.1 Y125,2 <= +127.3
 c4754: +48.1 Y125,3 <= +104.2
 c4755: +48.1 Y125,4 <= +65.3
 c4756: +48.1 Y125,5 <= +119.6
 c4757: +48.1 Y125,6 <= +189.6
 c4758: +56.6 Y126,0 <= +127.4
 c4759: +56.6 Y126,1 <= +89.3
 c4760: +56.6 Y126,2 <= +127.3
 c4761: +56.6 Y126,3 <= +104.2
 c4762: +56.6 Y126,4 <= +65.3
 c4763: +56.6 Y126,5 <= +119.6
 c4764: +56.6 Y126,6 <= +189.6
 c4765: +42.8 Y127,0 <= +127.4
 c4766: +42.8 Y127,1 <= +89.3
 c4767: +42.8 Y127,2 <= +127.3
 c4768: +42.8 Y127,3 <= +104.2
 c4769: +42.8 Y127,4 <= +65.3
 c4770: +42.8 Y127,5 <= +119.6
 c4771: +42.8 Y127,6 <= +189.6
 c4772: +51.3 Y128,0 <= +127.4
 c4773: +51.3 Y128,1 <= +89.3
 c4774: +51.3 Y128,2 <= +127.3
 c4775: +51.3 Y128,3 <= +104.2
 c4776: +51.3 Y128,4 <= +65.3
 c4777: +51.3 Y128,5 <= +119.6
 c4778: +51.3 Y128,6 <= +189.6
 c4779: +44.7 Y129,0 <= +127.4
 c4780: +44.7 Y129,1 <= +89.3
 c4781: +44.7 Y129,2 <= +127.3
 c4782: +44.7 Y129,3 <= +104.2
 c4783: +44.7 Y129,4 <= +65.3
 c4784: +44.7 Y129,5 <= +119.6
 c4785: +44.7 Y129,6 <= +189.6
 c4786: +30.2 Y130,0 <= +127.4
 c4787: +30.2 Y130,1 <= +89.3
 c4788: +30.2 Y130,2 <= +127.3
 c4789: +30.2 Y130,3 <= +104.2
 c4790: +30.2 Y130,4 <= +65.3
 c4791: +30.2 Y130,5 <= +119.6
 c4792: +30.2 Y130,6 <= +189.6
 c4793: +37 Y131,0 <= +127.4
 c4794: +37 Y131,1 <= +89.3
 c4795: +37 Y131,2 <= +127.3
 c4796: +37 Y131,3 <= +104.2
 c4797: +37 Y131,4 <= +65.3
 c4798: +37 Y131,5 <= +119.6
 c4799: +37 Y131,6 <= +189.6
 c4800: +39.8 Y132,0 <= +127.4
 c4801: +39.8 Y132,1 <= +89.3
 c4802: +39.8 Y132,2 <= +127.3
 c4803: +39.8 Y132,3 <= +104.2
 c4804: +39.8 Y132,4 <= +65.3
 c4805: +39.8 Y132,5 <= +119.6
 c4806: +39.8 Y132,6 <= +189.6
 c4807: +34.5 Y133,0 <= +127.4
 c4808: +34.5 Y133,1 <= +89.3
 c4809: +34.5 Y133,2 <= +127.3
 c4810: +34.5 Y133,3 <= +104.2
 c4811: +34.5 Y133,4 <= +65.3
 c4812: +34.5 Y133,5 <= +119.6
 c4813: +34.5 Y133,6 <= +189.6
 c4814: +27.9 Y134,0 <= +127.4
 c4815: +27.9 Y134,1 <= +89.3
 c4816: +27.9 Y134,2 <= +127.3
 c4817: +27.9 Y134,3 <= +104.2
 c4818: +27.9 Y134,4 <= +65.3
 c4819: +27.9 Y134,5 <= +119.6
 c4820: +27.9 Y134,6 <= +189.6
 c4821: +36.4 Y135,0 <= +127.4
 c4822: +36.4 Y135,1 <= +89.3
 c4823: +36.4 Y135,2 <= +127.3
 c4824: +36.4 Y135,3 <= +104.2
 c4825: +36.4 Y135,4 <= +65.3
 c4826: +36.4 Y135,5 <= +119.6
 c4827: +36.4 Y135,6 <= +189.6
 c4828: +55.8 Y136,0 <= +127.4
 c4829: +55.8 Y136,1 <= +89.3
 c4830: +55.8 Y136,2 <= +127.3
 c4831: +55.8 Y136,3 <= +104.2
 c4832: +55.8 Y136,4 <= +65.3
 c4833: +55.8 Y136,5 <= +119.6
 c4834: +55.8 Y136,6 <= +189.6
 c4835: +58.6 Y137,0 <= +127.4
 c4836: +58.6 Y137,1 <= +89.3
 c4837: +58.6 Y137,2 <= +127.3
 c4838: +58.6 Y137,3 <= +104.2
 c4839: +58.6 Y137,4 <= +65.3
 c4840: +58.6 Y137,5 <= +119.6
 c4841: +58.6 Y137,6 <= +189.6
 c4842: +53.3 Y138,0 <= +127.4
 c4843: +53.3 Y138,1 <= +89.3
 c4844: +53.3 Y138,2 <= +127.3
 c4845: +53.3 Y138,3 <= +104.2
 c4846: +53.3 Y138,4 <= +65.3
 c4847: +53.3 Y138,5 <= +119.6
 c4848: +53.3 Y138,6 <= +189.6
 c4849: +46.7 Y139,0 <= +127.4
 c4850: +46.7 Y139,1 <= +89.3
 c4851: +46.7 Y139,2 <= +127.3
 c4852: +46.7 Y139,3 <= +104.2
 c4853: +46.7 Y139,4 <= +65.3
 c4854: +46.7 Y139,5 <= +119.6
 c4855: +46.7 Y139,6 <= +189.6
 c4856: +55.2 Y140,0 <= +127.4
 c4857: +55.2 Y140,1 <= +89.3
 c4858: +55.2 Y140,2 <= +127.3
 c4859: +55.2 Y140,3 <= +104.2
 c4860: +55.2 Y140,4 <= +65.3
 c4861: +55.2 Y140,5 <= +119.6
 c4862: +55.2 Y140,6 <= +189.6
 c4863: +65.4 Y141,0 <= +127.4
 c4864: +65.4 Y141,1 <= +89.3
 c4865: +65.4 Y141,2 <= +127.3
 c4866: +65.4 Y141,3 <= +104.2
 c4867: +65.4 Y141,4 <= +65.3
 c4868: +65.4 Y141,5 <= +119.6
 c4869: +65.4 Y141,6 <= +189.6
 c4870: +60.1 Y142,0 <= +127.4
 c4871: +60.1 Y142,1 <= +89.3
 c4872: +60.1 Y142,2 <= +127.3
 c4873: +60.1 Y142,3 <= +104.2
 c4874: +60.1 Y142,4 <= +65.3
 c4875: +60.1 Y142,5 <= +119.6
 c4876: +60.1 Y142,6 <= +189.6
 c4877: +53.5 Y143,0 <= +127.4
 c4878: +53.5 Y143,1 <= +89.3
 c4879: +53.5 Y143,2 <= +127.3
 c4880: +53.5 Y143,3 <= +104.2
 c4881: +53.5 Y143,4 <= +65.3
 c4882: +53.5 Y143,5 <= +119.6
 c4883: +53.5 Y143,6 <= +189.6
 c4884: +62 Y144,0 <= +127.4
 c4885: +62 Y144,1 <= +89.3
 c4886: +62 Y144,2 <= +127.3
 c4887: +62 Y144,3 <= +104.2
 c4888: +62 Y144,4 <= +65.3
 c4889: +62 Y144,5 <= +119.6
 c4890: +62 Y144,6 <= +189.6
 c4891: +62.9 Y145,0 <= +127.4
 c4892: +62.9 Y145,1 <= +89.3
 c4893: +62.9 Y145,2 <= +127.3
 c4894: +62.9 Y145,3 <= +104.2
 c4895: +62.9 Y145,4 <= +65.3
 c4896: +62.9 Y145,5 <= +119.6
 c4897: +62.9 Y145,6 <= +189.6
 c4898: +56.3 Y146,0 <= +127.4
 c4899: +56.3 Y146,1 <= +89.3
 c4900: +56.3 Y146,2 <= +127.3
 c4901: +56.3 Y146,3 <= +104.2
 c4902: +56.3 Y146,4 <= +65.3
 c4903: +56.3 Y146,5 <= +119.6
 c4904: +56.3 Y146,6 <= +189.6
 c4905: +64.8 Y147,0 <= +127.4
 c4906: +64.8 Y147,1 <= +89.3
 c4907: +64.8 Y147,2 <= +127.3
 c4908: +64.8 Y147,3 <= +104.2
 c4909: +64.8 Y147,4 <= +65.3
 c4910: +64.8 Y147,5 <= +119.6
 c4911: +64.8 Y147,6 <= +189.6
 c4912: +51 Y148,0 <= +127.4
 c4913: +51 Y148,1 <= +89.3
 c4914: +51 Y148,2 <= +127.3
 c4915: +51 Y148,3 <= +104.2
 c4916: +51 Y148,4 <= +65.3
 c4917: +51 Y148,5 <= +119.6
 c4918: +51 Y148,6 <= +189.6
 c4919: +59.5 Y149,0 <= +127.4
 c4920: +59.5 Y149,1 <= +89.3
 c4921: +59.5 Y149,2 <= +127.3
 c4922: +59.5 Y149,3 <= +104.2
 c4923: +59.5 Y149,4 <= +65.3
 c4924: +59.5 Y149,5 <= +119.6
 c4925: +59.5 Y149,6 <= +189.6
 c4926: +52.9 Y150,0 <= +127.4
 c4927: +52.9 Y150,1 <= +89.3
 c4928: +52.9 Y150,2 <= +127.3
 c4929: +52.9 Y150,3 <= +104.2
 c4930: +52.9 Y150,4 <= +65.3
 c4931: +52.9 Y150,5 <= +119.6
 c4932: +52.9 Y150,6 <= +189.6
 c4933: +49.2 Y151,0 <= +127.4
 c4934: +49.2 Y151,1 <= +89.3
 c4935: +49.2 Y151,2 <= +127.3
 c4936: +49.2 Y151,3 <= +104.2
 c4937: +49.2 Y151,4 <= +65.3
 c4938: +49.2 Y151,5 <= +119.6
 c4939: +49.2 Y151,6 <= +189.6
 c4940: +52 Y152,0 <= +127.4
 c4941: +52 Y152,1 <= +89.3
 c4942: +52 Y152,2 <= +127.3
 c4943: +52 Y152,3 <= +104.2
 c4944: +52 Y152,4 <= +65.3
 c4945: +52 Y152,5 <= +119.6
 c4946: +52 Y152,6 <= +189.6
 c4947: +46.7 Y153,0 <= +127.4
 c4948: +46.7 Y153,1 <= +89.3
 c4949: +46.7 Y153,2 <= +127.3
 c4950: +46.7 Y153,3 <= +104.2
 c4951: +46.7 Y153,4 <= +65.3
 c4952: +46.7 Y153,5 <= +119.6
 c4953: +46.7 Y153,6 <= +189.6
 c4954: +40.1 Y154,0 <= +127.4
 c4955: +40.1 Y154,1 <= +89.3
 c4956: +40.1 Y154,2 <= +127.3
 c4957: +40.1 Y154,3 <= +104.2
 c4958: +40.1 Y154,4 <= +65.3
 c4959: +40.1 Y154,5 <= +119.6
 c4960: +40.1 Y154,6 <= +189.6
 c4961: +48.6 Y155,0 <= +127.4
 c4962: +48.6 Y155,1 <= +89.3
 c4963: +48.6 Y155,2 <= +127.3
 c4964: +48.6 Y155,3 <= +104.2
 c4965: +48.6 Y155,4 <= +65.3
 c4966: +48.6 Y155,5 <= +119.6
 c4967: +48.6 Y155,6 <= +189.6
 c4968: +58.8 Y156,0 <= +127.4
 c4969: +58.8 Y156,1 <= +89.3
 c4970: +58.8 Y156,2 <= +127.3
 c4971: +58.8 Y156,3 <= +104.2
 c4972: +58.8 Y156,4 <= +65.3
 c4973: +58.8 Y156,5 <= +119.6
 c4974: +58.8 Y156,6 <= +189.6
 c4975: +53.5 Y157,0 <= +127.4
 c4976: +53.5 Y157,1 <= +89.3
 c4977: +53.5 Y157,2 <= +127.3
 c4978: +53.5 Y157,3 <= +104.2
 c4979: +53.5 Y157,4 <= +65.3
 c4980: +53.5 Y157,5 <= +119.6
 c4981: +53.5 Y157,6 <= +189.6
 c4982: +46.9 Y158,0 <= +127.4
 c4983: +46.9 Y158,1 <= +89.3
 c4984: +46.9 Y158,2 <= +127.3
 c4985: +46.9 Y158,3 <= +104.2
 c4986: +46.9 Y158,4 <= +65.3
 c4987: +46.9 Y158,5 <= +119.6
 c4988: +46.9 Y158,6 <= +189.6
 c4989: +55.4 Y159,0 <= +127.4
 c4990: +55.4 Y159,1 <= +89.3
 c4991: +55.4 Y159,2 <= +127.3
 c4992: +55.4 Y159,3 <= +104.2
 c4993: +55.4 Y159,4 <= +65.3
 c4994: +55.4 Y159,5 <= +119.6
 c4995: +55.4 Y159,6 <= +189.6
 c4996: +56.3 Y160,0 <= +127.4
 c4997: +56.3 Y160,1 <= +89.3
 c4998: +56.3 Y160,2 <= +127.3
 c4999: +56.3 Y160,3 <= +104.2
 c5000: +56.3 Y160,4 <= +65.3
 c5001: +56.3 Y160,5 <= +119.6
 c5002: +56.3 Y160,6 <= +189.6
 c5003: +49.7 Y161,0 <= +127.4
 c5004: +49.7 Y161,1 <= +89.3
 c5005: +49.7 Y161,2 <= +127.3
 c5006: +49.7 Y161,3 <= +104.2
 c5007: +49.7 Y161,4 <= +65.3
 c5008: +49.7 Y161,5 <= +119.6
 c5009: +49.7 Y161,6 <= +189.6
 c5010: +58.2 Y162,0 <= +127.4
 c5011: +58.2 Y162,1 <= +89.3
 c5012: +58.2 Y162,2 <= +127.3
 c5013: +58.2 Y162,3 <= +104.2
 c5014: +58.2 Y162,4 <= +65.3
 c5015: +58.2 Y162,5 <= +119.6
 c5016: +58.2 Y162,6 <= +189.6
 c5017: +44.4 Y163,0 <= +127.4
 c5018: +44.4 Y163,1 <= +89.3
 c5019: +44.4 Y163,2 <= +127.3
 c5020: +44.4 Y163,3 <= +104.2
 c5021: +44.4 Y163,4 <= +65.3
 c5022: +44.4 Y163,5 <= +119.6
 c5023: +44.4 Y163,6 <= +189.6
 c5024: +52.9 Y164,0 <= +127.4
 c5025: +52.9 Y164,1 <= +89.3
 c5026: +52.9 Y164,2 <= +127.3
 c5027: +52.9 Y164,3 <= +104.2
 c5028: +52.9 Y164,4 <= +65.3
 c5029: +52.9 Y164,5 <= +119.6
 c5030: +52.9 Y164,6 <= +189.6
 c5031: +46.3 Y165,0 <= +127.4
 c5032: +46.3 Y165,1 <= +89.3
 c5033: +46.3 Y165,2 <= +127.3
 c5034: +46.3 Y165,3 <= +104.2
 c5035: +46.3 Y165,4 <= +65.3
 c5036: +46.3 Y165,5 <= +119.6
 c5037: +46.3 Y165,6 <= +189.6
 c5038: +77.6 Y166,0 <= +127.4
 c5039: +77.6 Y166,1 <= +89.3
 c5040: +77.6 Y166,2 <= +127.3
 c5041: +77.6 Y166,3 <= +104.2
 c5042: +77.6 Y166,4 <= +65.3
 c5043: +77.6 Y166,5 <= +119.6
 c5044: +77.6 Y166,6 <= +189.6
 c5045: +72.3 Y167,0 <= +127.4
 c5046: +72.3 Y167,1 <= +89.3
 c5047: +72.3 Y167,2 <= +127.3
 c5048: +72.3 Y167,3 <= +104.2
 c5049: +72.3 Y167,4 <= +65.3
 c5050: +72.3 Y167,5 <= +119.6
 c5051: +72.3 Y167,6 <= +189.6
 c5052: +65.7 Y168,0 <= +127.4
 c5053: +65.7 Y168,1 <= +89.3
 c5054: +65.7 Y168,2 <= +127.3
 c5055: +65.7 Y168,3 <= +104.2
 c5056: +65.7 Y168,4 <= +65.3
 c5057: +65.7 Y168,5 <= +119.6
 c5058: +65.7 Y168,6 <= +189.6
 c5059: +74.2 Y169,0 <= +127.4
 c5060: +74.2 Y169,1 <= +89.3
 c5061: +74.2 Y169,2 <= +127.3
 c5062: +74.2 Y169,3 <= +104.2
 c5063: +74.2 Y169,4 <= +65.3
 c5064: +74.2 Y169,5 <= +119.6
 c5065: +74.2 Y169,6 <= +189.6
 c5066: +75.1 Y170,0 <= +127.4
 c5067: +75.1 Y170,1 <= +89.3
 c5068: +75.1 Y170,2 <= +127.3
 c5069: +75.1 Y170,3 <= +104.2
 c5070: +75.1 Y170,4 <= +65.3
 c5071: +75.1 Y170,5 <= +119.6
 c5072: +75.1 Y170,6 <= +189.6
 c5073: +68.5 Y171,0 <= +127.4
 c5074: +68.5 Y171,1 <= +89.3
 c5075: +68.5 Y171,2 <= +127.3
 c5076: +68.5 Y171,3 <= +104.2
 c5077: +68.5 Y171,4 <= +65.3
 c5078: +68.5 Y171,5 <= +119.6
 c5079: +68.5 Y171,6 <= +189.6
 c5080: +77 Y172,0 <= +127.4
 c5081: +77 Y172,1 <= +89.3
 c5082: +77 Y172,2 <= +127.3
 c5083: +77 Y172,3 <= +104.2
 c5084: +77 Y172,4 <= +65.3
 c5085: +77 Y172,5 <= +119.6
 c5086: +77 Y172,6 <= +189.6
 c5087: +63.2 Y173,0 <= +127.4
 c5088: +63.2 Y173,1 <= +89.3
 c5089: +63.2 Y173,2 <= +127.3
 c5090: +63.2 Y173,3 <= +104.2
 c5091: +63.2 Y173,4 <= +65.3
 c5092: +63.2 Y173,5 <= +119.6
 c5093: +63.2 Y173,6 <= +189.6
 c5094: +71.7 Y174,0 <= +127.4
 c5095: +71.7 Y174,1 <= +89.3
 c5096: +71.7 Y174,2 <= +127.3
 c5097: +71.7 Y174,3 <= +104.2
 c5098: +71.7 Y174,4 <= +65.3
 c5099: +71.7 Y174,5 <= +119.6
 c5100: +71.7 Y174,6 <= +189.6
 c5101: +65.1 Y175,0 <= +127.4
 c5102: +65.1 Y175,1 <= +89.3
 c5103: +65.1 Y175,2 <= +127.3
 c5104: +65.1 Y175,3 <= +104.2
 c5105: +65.1 Y175,4 <= +65.3
 c5106: +65.1 Y175,5 <= +119.6
 c5107: +65.1 Y175,6 <= +189.6
 c5108: +81.9 Y176,0 <= +127.4
 c5109: +81.9 Y176,1 <= +89.3
 c5110: +81.9 Y176,2 <= +127.3
 c5111: +81.9 Y176,3 <= +104.2
 c5112: +81.9 Y176,4 <= +65.3
 c5113: +81.9 Y176,5 <= +119.6
 c5114: +81.9 Y176,6 <= +189.6
 c5115: +75.3 Y177,0 <= +127.4
 c5116: +75.3 Y177,1 <= +89.3
 c5117: +75.3 Y177,2 <= +127.3
 c5118: +75.3 Y177,3 <= +104.2
 c5119: +75.3 Y177,4 <= +65.3
 c5120: +75.3 Y177,5 <= +119.6
 c5121: +75.3 Y177,6 <= +189.6
 c5122: +83.8 Y178,0 <= +127.4
 c5123: +83.8 Y178,1 <= +89.3
 c5124: +83.8 Y178,2 <= +127.3
 c5125: +83.8 Y178,3 <= +104.2
 c5126: +83.8 Y178,4 <= +65.3
 c5127: +83.8 Y178,5 <= +119.6
 c5128: +83.8 Y178,6 <= +189.6
 c5129: +70 Y179,0 <= +127.4
 c5130: +70 Y179,1 <= +89.3
 c5131: +70 Y179,2 <= +127.3
 c5132: +70 Y179,3 <= +104.2
 c5133: +70 Y179,4 <= +65.3
 c5134: +70 Y179,5 <= +119.6
 c5135: +70 Y179,6 <= +189.6
 c5136: +78.5 Y180,0 <= +127.4
 c5137: +78.5 Y180,1 <= +89.3
 c5138: +78.5 Y180,2 <= +127.3
 c5139: +78.5 Y180,3 <= +104.2
 c5140: +78.5 Y180,4 <= +65.3
 c5141: +78.5 Y180,5 <= +119.6
 c5142: +78.5 Y180,6 <= +189.6
 c5143: +71.9 Y181,0 <= +127.4
 c5144: +71.9 Y181,1 <= +89.3
 c5145: +71.9 Y181,2 <= +127.3
 c5146: +71.9 Y181,3 <= +104.2
 c5147: +71.9 Y181,4 <= +65.3
 c5148: +71.9 Y181,5 <= +119.6
 c5149: +71.9 Y181,6 <= +189.6
 c5150: +72.8 Y182,0 <= +127.4
 c5151: +72.8 Y182,1 <= +89.3
 c5152: +72.8 Y182,2 <= +127.3
 c5153: +72.8 Y182,3 <= +104.2
 c5154: +72.8 Y182,4 <= +65.3
 c5155: +72.8 Y182,5 <= +119.6
 c5156: +72.8 Y182,6 <= +189.6
 c5157: +81.3 Y183,0 <= +127.4
 c5158: +81.3 Y183,1 <= +89.3
 c5159: +81.3 Y183,2 <= +127.3
 c5160: +81.3 Y183,3 <= +104.2
 c5161: +81.3 Y183,4 <= +65.3
 c5162: +81.3 Y183,5 <= +119.6
 c5163: +81.3 Y183,6 <= +189.6
 c5164: +74.7 Y184,0 <= +127.4
 c5165: +74.7 Y184,1 <= +89.3
 c5166: +74.7 Y184,2 <= +127.3
 c5167: +74.7 Y184,3 <= +104.2
 c5168: +74.7 Y184,4 <= +65.3
 c5169: +74.7 Y184,5 <= +119.6
 c5170: +74.7 Y184,6 <= +189.6
 c5171: +69.4 Y185,0 <= +127.4
 c5172: +69.4 Y185,1 <= +89.3
 c5173: +69.4 Y185,2 <= +127.3
 c5174: +69.4 Y185,3 <= +104.2
 c5175: +69.4 Y185,4 <= +65.3
 c5176: +69.4 Y185,5 <= +119.6
 c5177: +69.4 Y185,6 <= +189.6
 c5178: +57.4 Y186,0 <= +127.4
 c5179: +57.4 Y186,1 <= +89.3
 c5180: +57.4 Y186,2 <= +127.3
 c5181: +57.4 Y186,3 <= +104.2
 c5182: +57.4 Y186,4 <= +65.3
 c5183: +57.4 Y186,5 <= +119.6
 c5184: +57.4 Y186,6 <= +189.6
 c5185: +60.2 Y187,0 <= +127.4
 c5186: +60.2 Y187,1 <= +89.3
 c5187: +60.2 Y187,2 <= +127.3
 c5188: +60.2 Y187,3 <= +104.2
 c5189: +60.2 Y187,4 <= +65.3
 c5190: +60.2 Y187,5 <= +119.6
 c5191: +60.2 Y187,6 <= +189.6
 c5192: +54.9 Y188,0 <= +127.4
 c5193: +54.9 Y188,1 <= +89.3
 c5194: +54.9 Y188,2 <= +127.3
 c5195: +54.9 Y188,3 <= +104.2
 c5196: +54.9 Y188,4 <= +65.3
 c5197: +54.9 Y188,5 <= +119.6
 c5198: +54.9 Y188,6 <= +189.6
 c5199: +48.3 Y189,0 <= +127.4
 c5200: +48.3 Y189,1 <= +89.3
 c5201: +48.3 Y189,2 <= +127.3
 c5202: +48.3 Y189,3 <= +104.2
 c5203: +48.3 Y189,4 <= +65.3
 c5204: +48.3 Y189,5 <= +119.6
 c5205: +48.3 Y189,6 <= +189.6
 c5206: +56.8 Y190,0 <= +127.4
 c5207: +56.8 Y190,1 <= +89.3
 c5208: +56.8 Y190,2 <= +127.3
 c5209: +56.8 Y190,3 <= +104.2
 c5210: +56.8 Y190,4 <= +65.3
 c5211: +56.8 Y190,5 <= +119.6
 c5212: +56.8 Y190,6 <= +189.6
 c5213: +67 Y191,0 <= +127.4
 c5214: +67 Y191,1 <= +89.3
 c5215: +67 Y191,2 <= +127.3
 c5216: +67 Y191,3 <= +104.2
 c5217: +67 Y191,4 <= +65.3
 c5218: +67 Y191,5 <= +119.6
 c5219: +67 Y191,6 <= +189.6
 c5220: +61.7 Y192,0 <= +127.4
 c5221: +61.7 Y192,1 <= +89.3
 c5222: +61.7 Y192,2 <= +127.3
 c5223: +61.7 Y192,3 <= +104.2
 c5224: +61.7 Y192,4 <= +65.3
 c5225: +61.7 Y192,5 <= +119.6
 c5226: +61.7 Y192,6 <= +189.6
 c5227: +55.1 Y193,0 <= +127.4
 c5228: +55.1 Y193,1 <= +89.3
 c5229: +55.1 Y193,2 <= +127.3
 c5230: +55.1 Y193,3 <= +104.2
 c5231: +55.1 Y193,4 <= +65.3
 c5232: +55.1 Y193,5 <= +119.6
 c5233: +55.1 Y193,6 <= +189.6
 c5234: +63.6 Y194,0 <= +127.4
 c5235: +63.6 Y194,1 <= +89.3
 c5236: +63.6 Y194,2 <= +127.3
 c5237: +63.6 Y194,3 <= +104.2
 c5238: +63.6 Y194,4 <= +65.3
 c5239: +63.6 Y194,5 <= +119.6
 c5240: +63.6 Y194,6 <= +189.6
 c5241: +64.5 Y195,0 <= +127.4
 c5242: +64.5 Y195,1 <= +89.3
 c5243: +64.5 Y195,2 <= +127.3
 c5244: +64.5 Y195,3 <= +104.2
 c5245: +64.5 Y195,4 <= +65.3
 c5246: +64.5 Y195,5 <= +119.6
 c5247: +64.5 Y195,6 <= +189.6
 c5248: +57.9 Y196,0 <= +127.4
 c5249: +57.9 Y196,1 <= +89.3
 c5250: +57.9 Y196,2 <= +127.3
 c5251: +57.9 Y196,3 <= +104.2
 c5252: +57.9 Y196,4 <= +65.3
 c5253: +57.9 Y196,5 <= +119.6
 c5254: +57.9 Y196,6 <= +189.6
 c5255: +66.4 Y197,0 <= +127.4
 c5256: +66.4 Y197,1 <= +89.3
 c5257: +66.4 Y197,2 <= +127.3
 c5258: +66.4 Y197,3 <= +104.2
 c5259: +66.4 Y197,4 <= +65.3
 c5260: +66.4 Y197,5 <= +119.6
 c5261: +66.4 Y197,6 <= +189.6
 c5262: +52.6 Y198,0 <= +127.4
 c5263: +52.6 Y198,1 <= +89.3
 c5264: +52.6 Y198,2 <= +127.3
 c5265: +52.6 Y198,3 <= +104.2
 c5266: +52.6 Y198,4 <= +65.3
 c5267: +52.6 Y198,5 <= +119.6
 c5268: +52.6 Y198,6 <= +189.6
 c5269: +61.1 Y199,0 <= +127.4
 c5270: +61.1 Y199,1 <= +89.3
 c5271: +61.1 Y199,2 <= +127.3
 c5272: +61.1 Y199,3 <= +104.2
 c5273: +61.1 Y199,4 <= +65.3
 c5274: +61.1 Y199,5 <= +119.6
 c5275: +61.1 Y199,6 <= +189.6
 c5276: +54.5 Y200,0 <= +127.4
 c5277: +54.5 Y200,1 <= +89.3
 c5278: +54.5 Y200,2 <= +127.3
 c5279: +54.5 Y200,3 <= +104.2
 c5280: +54.5 Y200,4 <= +65.3
 c5281: +54.5 Y200,5 <= +119.6
 c5282: +54.5 Y200,6 <= +189.6
 c5283: +85.8 Y201,0 <= +127.4
 c5284: +85.8 Y201,1 <= +89.3
 c5285: +85.8 Y201,2 <= +127.3
 c5286: +85.8 Y201,3 <= +104.2
 c5287: +85.8 Y201,4 <= +65.3
 c5288: +85.8 Y201,5 <= +119.6
 c5289: +85.8 Y201,6 <= +189.6
 c5290: +80.5 Y202,0 <= +127.4
 c5291: +80.5 Y202,1 <= +89.3
 c5292: +80.5 Y202,2 <= +127.3
 c5293: +80.5 Y202,3 <= +104.2
 c5294: +80.5 Y202,4 <= +65.3
 c5295: +80.5 Y202,5 <= +119.6
 c5296: +80.5 Y202,6 <= +189.6
 c5297: +73.9 Y203,0 <= +127.4
 c5298: +73.9 Y203,1 <= +89.3
 c5299: +73.9 Y203,2 <= +127.3
 c5300: +73.9 Y203,3 <= +104.2
 c5301: +73.9 Y203,4 <= +65.3
 c5302: +73.9 Y203,5 <= +119.6
 c5303: +73.9 Y203,6 <= +189.6
 c5304: +82.4 Y204,0 <= +127.4
 c5305: +82.4 Y204,1 <= +89.3
 c5306: +82.4 Y204,2 <= +127.3
 c5307: +82.4 Y204,3 <= +104.2
 c5308: +82.4 Y204,4 <= +65.3
 c5309: +82.4 Y204,5 <= +119.6
 c5310: +82.4 Y204,6 <= +189.6
 c5311: +83.3 Y205,0 <= +127.4
 c5312: +83.3 Y205,1 <= +89.3
 c5313: +83.3 Y205,2 <= +127.3
 c5314: +83.3 Y205,3 <= +104.2
 c5315: +83.3 Y205,4 <= +65.3
 c5316: +83.3 Y205,5 <= +119.6
 c5317: +83.3 Y205,6 <= +189.6
 c5318: +76.7 Y206,0 <= +127.4
 c5319: +76.7 Y206,1 <= +89.3
 c5320: +76.7 Y206,2 <= +127.3
 c5321: +76.7 Y206,3 <= +104.2
 c5322: +76.7 Y206,4 <= +65.3
 c5323: +76.7 Y206,5 <= +119.6
 c5324: +76.7 Y206,6 <= +189.6
 c5325: +85.2 Y207,0 <= +127.4
 c5326: +85.2 Y207,1 <= +89.3
 c5327: +85.2 Y207,2 <= +127.3
 c5328: +85.2 Y207,3 <= +104.2
 c5329: +85.2 Y207,4 <= +65.3
 c5330: +85.2 Y207,5 <= +119.6
 c5331: +85.2 Y207,6 <= +189.6
 c5332: +71.4 Y208,0 <= +127.4
 c5333: +71.4 Y208,1 <= +89.3
 c5334: +71.4 Y208,2 <= +127.3
 c5335: +71.4 Y208,3 <= +104.2
 c5336: +71.4 Y208,4 <= +65.3
 c5337: +71.4 Y208,5 <= +119.6
 c5338: +71.4 Y208,6 <= +189.6
 c5339: +79.9 Y209,0 <= +127.4
 c5340: +79.9 Y209,1 <= +89.3
 c5341: +79.9 Y209,2 <= +127.3
 c5342: +79.9 Y209,3 <= +104.2
 c5343: +79.9 Y209,4 <= +65.3
 c5344: +79.9 Y209,5 <= +119.6
 c5345: +79.9 Y209,6 <= +189.6
 c5346: +73.3 Y210,0 <= +127.4
 c5347: +73.3 Y210,1 <= +89.3
 c5348: +73.3 Y210,2 <= +127.3
 c5349: +73.3 Y210,3 <= +104.2
 c5350: +73.3 Y210,4 <= +65.3
 c5351: +73.3 Y210,5 <= +119.6
 c5352: +73.3 Y210,6 <= +189.6
 c5353: +90.1 Y211,0 <= +127.4
 c5354: +90.1 Y211,1 <= +89.3
 c5355: +90.1 Y211,2 <= +127.3
 c5356: +90.1 Y211,3 <= +104.2
 c5357: +90.1 Y211,4 <= +65.3
 c5358: +90.1 Y211,5 <= +119.6
 c5359: +90.1 Y211,6 <= +189.6
 c5360: +83.5 Y212,0 <= +127.4
 c5361: +83.5 Y212,1 <= +89.3
 c5362: +83.5 Y212,2 <= +127.3
 c5363: +83.5 Y212,3 <= +104.2
 c5364: +83.5 Y212,4 <= +65.3
 c5365: +83.5 Y212,5 <= +119.6
 c5366: +83.5 Y212,6 <= +189.6
 c5367: +92 Y213,0 <= +127.4
 c5368: +92 Y213,1 <= +89.3
 c5369: +92 Y213,2 <= +127.3
 c5370: +92 Y213,3 <= +104.2
 c5371: +92 Y213,4 <= +65.3
 c5372: +92 Y213,5 <= +119.6
 c5373: +92 Y213,6 <= +189.6
 c5374: +78.2 Y214,0 <= +127.4
 c5375: +78.2 Y214,1 <= +89.3
 c5376: +78.2 Y214,2 <= +127.3
 c5377: +78.2 Y214,3 <= +104.2
 c5378: +78.2 Y214,4 <= +65.3
 c5379: +78.2 Y214,5 <= +119.6
 c5380: +78.2 Y214,6 <= +189.6
 c5381: +86.7 Y215,0 <= +127.4
 c5382: +86.7 Y215,1 <= +89.3
 c5383: +86.7 Y215,2 <= +127.3
 c5384: +86.7 Y215,3 <= +104.2
 c5385: +86.7 Y215,4 <= +65.3
 c5386: +86.7 Y215,5 <= +119.6
 c5387: +86.7 Y215,6 <= +189.6
 c5388: +80.1 Y216,0 <= +127.4
 c5389: +80.1 Y216,1 <= +89.3
 c5390: +80.1 Y216,2 <= +127.3
 c5391: +80.1 Y216,3 <= +104.2
 c5392: +80.1 Y216,4 <= +65.3
 c5393: +80.1 Y216,5 <= +119.6
 c5394: +80.1 Y216,6 <= +189.6
 c5395: +81 Y217,0 <= +127.4
 c5396: +81 Y217,1 <= +89.3
 c5397: +81 Y217,2 <= +127.3
 c5398: +81 Y217,3 <= +104.2
 c5399: +81 Y217,4 <= +65.3
 c5400: +81 Y217,5 <= +119.6
 c5401: +81 Y217,6 <= +189.6
 c5402: +89.5 Y218,0 <= +127.4
 c5403: +89.5 Y218,1 <= +89.3
 c5404: +89.5 Y218,2 <= +127.3
 c5405: +89.5 Y218,3 <= +104.2
 c5406: +89.5 Y218,4 <= +65.3
 c5407: +89.5 Y218,5 <= +119.6
 c5408: +89.5 Y218,6 <= +189.6
 c5409: +82.9 Y219,0 <= +127.4
 c5410: +82.9 Y219,1 <= +89.3
 c5411: +82.9 Y219,2 <= +127.3
 c5412: +82.9 Y219,3 <= +104.2
 c5413: +82.9 Y219,4 <= +65.3
 c5414: +82.9 Y219,5 <= +119.6
 c5415: +82.9 Y219,6 <= +189.6
 c5416: +77.6 Y220,0 <= +127.4
 c5417: +77.6 Y220,1 <= +89.3
 c5418: +77.6 Y220,2 <= +127.3
 c5419: +77.6 Y220,3 <= +104.2
 c5420: +77.6 Y220,4 <= +65.3
 c5421: +77.6 Y220,5 <= +119.6
 c5422: +77.6 Y220,6 <= +189.6
 c5423: +79.2 Y221,0 <= +127.4
 c5424: +79.2 Y221,1 <= +89.3
 c5425: +79.2 Y221,2 <= +127.3
 c5426: +79.2 Y221,3 <= +104.2
 c5427: +79.2 Y221,4 <= +65.3
 c5428: +79.2 Y221,5 <= +119.6
 c5429: +79.2 Y221,6 <= +189.6
 c5430: +73.9 Y222,0 <= +127.4
 c5431: +73.9 Y222,1 <= +89.3
 c5432: +73.9 Y222,2 <= +127.3
 c5433: +73.9 Y222,3 <= +104.2
 c5434: +73.9 Y222,4 <= +65.3
 c5435: +73.9 Y222,5 <= +119.6
 c5436: +73.9 Y222,6 <= +189.6
 c5437: +67.3 Y223,0 <= +127.4
 c5438: +67.3 Y223,1 <= +89.3
 c5439: +67.3 Y223,2 <= +127.3
 c5440: +67.3 Y223,3 <= +104.2
 c5441: +67.3 Y223,4 <= +65.3
 c5442: +67.3 Y223,5 <= +119.6
 c5443: +67.3 Y223,6 <= +189.6
 c5444: +75.8 Y224,0 <= +127.4
 c5445: +75.8 Y224,1 <= +89.3
 c5446: +75.8 Y224,2 <= +127.3
 c5447: +75.8 Y224,3 <= +104.2
 c5448: +75.8 Y224,4 <= +65.3
 c5449: +75.8 Y224,5 <= +119.6
 c5450: +75.8 Y224,6 <= +189.6
 c5451: +76.7 Y225,0 <= +127.4
 c5452: +76.7 Y225,1 <= +89.3
 c5453: +76.7 Y225,2 <= +127.3
 c5454: +76.7 Y225,3 <= +104.2
 c5455: +76.7 Y225,4 <= +65.3
 c5456: +76.7 Y225,5 <= +119.6
 c5457: +76.7 Y225,6 <= +189.6
 c5458: +70.1 Y226,0 <= +127.4
 c5459: +70.1 Y226,1 <= +89.3
 c5460: +70.1 Y226,2 <= +127.3
 c5461: +70.1 Y226,3 <= +104.2
 c5462: +70.1 Y226,4 <= +65.3
 c5463: +70.1 Y226,5 <= +119.6
 c5464: +70.1 Y226,6 <= +189.6
 c5465: +78.6 Y227,0 <= +127.4
 c5466: +78.6 Y227,1 <= +89.3
 c5467: +78.6 Y227,2 <= +127.3
 c5468: +78.6 Y227,3 <= +104.2
 c5469: +78.6 Y227,4 <= +65.3
 c5470: +78.6 Y227,5 <= +119.6
 c5471: +78.6 Y227,6 <= +189.6
 c5472: +64.8 Y228,0 <= +127.4
 c5473: +64.8 Y228,1 <= +89.3
 c5474: +64.8 Y228,2 <= +127.3
 c5475: +64.8 Y228,3 <= +104.2
 c5476: +64.8 Y228,4 <= +65.3
 c5477: +64.8 Y228,5 <= +119.6
 c5478: +64.8 Y228,6 <= +189.6
 c5479: +73.3 Y229,0 <= +127.4
 c5480: +73.3 Y229,1 <= +89.3
 c5481: +73.3 Y229,2 <= +127.3
 c5482: +73.3 Y229,3 <= +104.2
 c5483: +73.3 Y229,4 <= +65.3
 c5484: +73.3 Y229,5 <= +119.6
 c5485: +73.3 Y229,6 <= +189.6
 c5486: +66.7 Y230,0 <= +127.4
 c5487: +66.7 Y230,1 <= +89.3
 c5488: +66.7 Y230,2 <= +127.3
 c5489: +66.7 Y230,3 <= +104.2
 c5490: +66.7 Y230,4 <= +65.3
 c5491: +66.7 Y230,5 <= +119.6
 c5492: +66.7 Y230,6 <= +189.6
 c5493: +83.5 Y231,0 <= +127.4
 c5494: +83.5 Y231,1 <= +89.3
 c5495: +83.5 Y231,2 <= +127.3
 c5496: +83.5 Y231,3 <= +104.2
 c5497: +83.5 Y231,4 <= +65.3
 c5498: +83.5 Y231,5 <= +119.6
 c5499: +83.5 Y231,6 <= +189.6
 c5500: +76.9 Y232,0 <= +127.4
 c5501: +76.9 Y232,1 <= +89.3
 c5502: +76.9 Y232,2 <= +127.3
 c5503: +76.9 Y232,3 <= +104.2
 c5504: +76.9 Y232,4 <= +65.3
 c5505: +76.9 Y232,5 <= +119.6
 c5506: +76.9 Y232,6 <= +189.6
 c5507: +85.4 Y233,0 <= +127.4
 c5508: +85.4 Y233,1 <= +89.3
 c5509: +85.4 Y233,2 <= +127.3
 c5510: +85.4 Y233,3 <= +104.2
 c5511: +85.4 Y233,4 <= +65.3
 c5512: +85.4 Y233,5 <= +119.6
 c5513: +85.4 Y233,6 <= +189.6
 c5514: +71.6 Y234,0 <= +127.4
 c5515: +71.6 Y234,1 <= +89.3
 c5516: +71.6 Y234,2 <= +127.3
 c5517: +71.6 Y234,3 <= +104.2
 c5518: +71.6 Y234,4 <= +65.3
 c5519: +71.6 Y234,5 <= +119.6
 c5520: +71.6 Y234,6 <= +189.6
 c5521: +80.1 Y235,0 <= +127.4
 c5522: +80.1 Y235,1 <= +89.3
 c5523: +80.1 Y235,2 <= +127.3
 c5524: +80.1 Y235,3 <= +104.2
 c5525: +80.1 Y235,4 <= +65.3
 c5526: +80.1 Y235,5 <= +119.6
 c5527: +80.1 Y235,6 <= +189.6
 c5528: +73.5 Y236,0 <= +127.4
 c5529: +73.5 Y236,1 <= +89.3
 c5530: +73.5 Y236,2 <= +127.3
 c5531: +73.5 Y236,3 <= +104.2
 c5532: +73.5 Y236,4 <= +65.3
 c5533: +73.5 Y236,5 <= +119.6
 c5534: +73.5 Y236,6 <= +189.6
 c5535: +74.4 Y237,0 <= +127.4
 c5536: +74.4 Y237,1 <= +89.3
 c5537: +74.4 Y237,2 <= +127.3
 c5538: +74.4 Y237,3 <= +104.2
 c5539: +74.4 Y237,4 <= +65.3
 c5540: +74.4 Y237,5 <= +119.6
 c5541: +74.4 Y237,6 <= +189.6
 c5542: +82.9 Y238,0 <= +127.4
 c5543: +82.9 Y238,1 <= +89.3
 c5544: +82.9 Y238,2 <= +127.3
 c5545: +82.9 Y238,3 <= +104.2
 c5546: +82.9 Y238,4 <= +65.3
 c5547: +82.9 Y238,5 <= +119.6
 c5548: +82.9 Y238,6 <= +189.6
 c5549: +76.3 Y239,0 <= +127.4
 c5550: +76.3 Y239,1 <= +89.3
 c5551: +76.3 Y239,2 <= +127.3
 c5552: +76.3 Y239,3 <= +104.2
 c5553: +76.3 Y239,4 <= +65.3
 c5554: +76.3 Y239,5 <= +119.6
 c5555: +76.3 Y239,6 <= +189.6
 c5556: +71 Y240,0 <= +127.4
 c5557: +71 Y240,1 <= +89.3
 c5558: +71 Y240,2 <= +127.3
 c5559: +71 Y240,3 <= +104.2
 c5560: +71 Y240,4 <= +65.3
 c5561: +71 Y240,5 <= +119.6
 c5562: +71 Y240,6 <= +189.6
 c5563: +102.3 Y241,0 <= +127.4
 c5564: +102.3 Y241,1 <= +89.3
 c5565: +102.3 Y241,2 <= +127.3
 c5566: +102.3 Y241,3 <= +104.2
 c5567: +102.3 Y241,4 <= +65.3
 c5568: +102.3 Y241,5 <= +119.6
 c5569: +102.3 Y241,6 <= +189.6
 c5570: +95.7 Y242,0 <= +127.4
 c5571: +95.7 Y242,1 <= +89.3
 c5572: +95.7 Y242,2 <= +127.3
 c5573: +95.7 Y242,3 <= +104.2
 c5574: +95.7 Y242,4 <= +65.3
 c5575: +95.7 Y242,5 <= +119.6
 c5576: +95.7 Y242,6 <= +189.6
 c5577: +104.2 Y243,0 <= +127.4
 c5578: +104.2 Y243,1 <= +89.3
 c5579: +104.2 Y243,2 <= +127.3
 c5580: +104.2 Y243,3 <= +104.2
 c5581: +104.2 Y243,4 <= +65.3
 c5582: +104.2 Y243,5 <= +119.6
 c5583: +104.2 Y243,6 <= +189.6
 c5584: +90.4 Y244,0 <= +127.4
 c5585: +90.4 Y244,1 <= +89.3
 c5586: +90.4 Y244,2 <= +127.3
 c5587: +90.4 Y244,3 <= +104.2
 c5588: +90.4 Y244,4 <= +65.3
 c5589: +90.4 Y244,5 <= +119.6
 c5590: +90.4 Y244,6 <= +189.6
 c5591: +98.9 Y245,0 <= +127.4
 c5592: +98.9 Y245,1 <= +89.3
 c5593: +98.9 Y245,2 <= +127.3
 c5594: +98.9 Y245,3 <= +104.2
 c5595: +98.9 Y245,4 <= +65.3
 c5596: +98.9 Y245,5 <= +119.6
 c5597: +98.9 Y245,6 <= +189.6
 c5598: +92.3 Y246,0 <= +127.4
 c5599: +92.3 Y246,1 <= +89.3
 c5600: +92.3 Y246,2 <= +127.3
 c5601: +92.3 Y246,3 <= +104.2
 c5602: +92.3 Y246,4 <= +65.3
 c5603: +92.3 Y246,5 <= +119.6
 c5604: +92.3 Y246,6 <= +189.6
 c5605: +93.2 Y247,0 <= +127.4
 c5606: +93.2 Y247,1 <= +89.3
 c5607: +93.2 Y247,2 <= +127.3
 c5608: +93.2 Y247,3 <= +104.2
 c5609: +93.2 Y247,4 <= +65.3
 c5610: +93.2 Y247,5 <= +119.6
 c5611: +93.2 Y247,6 <= +189.6
 c5612: +101.7 Y248,0 <= +127.4
 c5613: +101.7 Y248,1 <= +89.3
 c5614: +101.7 Y248,2 <= +127.3
 c5615: +101.7 Y248,3 <= +104.2
 c5616: +101.7 Y248,4 <= +65.3
 c5617: +101.7 Y248,5 <= +119.6
 c5618: +101.7 Y248,6 <= +189.6
 c5619: +95.1 Y249,0 <= +127.4
 c5620: +95.1 Y249,1 <= +89.3
 c5621: +95.1 Y249,2 <= +127.3
 c5622: +95.1 Y249,3 <= +104.2
 c5623: +95.1 Y249,4 <= +65.3
 c5624: +95.1 Y249,5 <= +119.6
 c5625: +95.1 Y249,6 <= +189.6
 c5626: +89.8 Y250,0 <= +127.4
 c5627: +89.8 Y250,1 <= +89.3
 c5628: +89.8 Y250,2 <= +127.3
 c5629: +89.8 Y250,3 <= +104.2
 c5630: +89.8 Y250,4 <= +65.3
 c5631: +89.8 Y250,5 <= +119.6
 c5632: +89.8 Y250,6 <= +189.6
 c5633: +100 Y251,0 <= +127.4
 c5634: +100 Y251,1 <= +89.3
 c5635: +100 Y251,2 <= +127.3
 c5636: +100 Y251,3 <= +104.2
 c5637: +100 Y251,4 <= +65.3
 c5638: +100 Y251,5 <= +119.6
 c5639: +100 Y251,6 <= +189.6
 c5640: +108.5 Y252,0 <= +127.4
 c5641: +108.5 Y252,1 <= +89.3
 c5642: +108.5 Y252,2 <= +127.3
 c5643: +108.5 Y252,3 <= +104.2
 c5644: +108.5 Y252,4 <= +65.3
 c5645: +108.5 Y252,5 <= +119.6
 c5646: +108.5 Y252,6 <= +189.6
 c5647: +101.9 Y253,0 <= +127.4
 c5648: +101.9 Y253,1 <= +89.3
 c5649: +101.9 Y253,2 <= +127.3
 c5650: +101.9 Y253,3 <= +104.2
 c5651: +101.9 Y253,4 <= +65.3
 c5652: +101.9 Y253,5 <= +119.6
 c5653: +101.9 Y253,6 <= +189.6
 c5654: +96.6 Y254,0 <= +127.4
 c5655: +96.6 Y254,1 <= +89.3
 c5656: +96.6 Y254,2 <= +127.3
 c5657: +96.6 Y254,3 <= +104.2
 c5658: +96.6 Y254,4 <= +65.3
 c5659: +96.6 Y254,5 <= +119.6
 c5660: +96.6 Y254,6 <= +189.6
 c5661: +99.4 Y255,0 <= +127.4
 c5662: +99.4 Y255,1 <= +89.3
 c5663: +99.4 Y255,2 <= +127.3
 c5664: +99.4 Y255,3 <= +104.2
 c5665: +99.4 Y255,4 <= +65.3
 c5666: +99.4 Y255,5 <= +119.6
 c5667: +99.4 Y255,6 <= +189.6
 c5668: +87.4 Y256,0 <= +127.4
 c5669: +87.4 Y256,1 <= +89.3
 c5670: +87.4 Y256,2 <= +127.3
 c5671: +87.4 Y256,3 <= +104.2
 c5672: +87.4 Y256,4 <= +65.3
 c5673: +87.4 Y256,5 <= +119.6
 c5674: +87.4 Y256,6 <= +189.6
 c5675: +82.1 Y257,0 <= +127.4
 c5676: +82.1 Y257,1 <= +89.3
 c5677: +82.1 Y257,2 <= +127.3
 c5678: +82.1 Y257,3 <= +104.2
 c5679: +82.1 Y257,4 <= +65.3
 c5680: +82.1 Y257,5 <= +119.6
 c5681: +82.1 Y257,6 <= +189.6
 c5682: +75.5 Y258,0 <= +127.4
 c5683: +75.5 Y258,1 <= +89.3
 c5684: +75.5 Y258,2 <= +127.3
 c5685: +75.5 Y258,3 <= +104.2
 c5686: +75.5 Y258,4 <= +65.3
 c5687: +75.5 Y258,5 <= +119.6
 c5688: +75.5 Y258,6 <= +189.6
 c5689: +84 Y259,0 <= +127.4
 c5690: +84 Y259,1 <= +89.3
 c5691: +84 Y259,2 <= +127.3
 c5692: +84 Y259,3 <= +104.2
 c5693: +84 Y259,4 <= +65.3
 c5694: +84 Y259,5 <= +119.6
 c5695: +84 Y259,6 <= +189.6
 c5696: +84.9 Y260,0 <= +127.4
 c5697: +84.9 Y260,1 <= +89.3
 c5698: +84.9 Y260,2 <= +127.3
 c5699: +84.9 Y260,3 <= +104.2
 c5700: +84.9 Y260,4 <= +65.3
 c5701: +84.9 Y260,5 <= +119.6
 c5702: +84.9 Y260,6 <= +189.6
 c5703: +78.3 Y261,0 <= +127.4
 c5704: +78.3 Y261,1 <= +89.3
 c5705: +78.3 Y261,2 <= +127.3
 c5706: +78.3 Y261,3 <= +104.2
 c5707: +78.3 Y261,4 <= +65.3
 c5708: +78.3 Y261,5 <= +119.6
 c5709: +78.3 Y261,6 <= +189.6
 c5710: +86.8 Y262,0 <= +127.4
 c5711: +86.8 Y262,1 <= +89.3
 c5712: +86.8 Y262,2 <= +127.3
 c5713: +86.8 Y262,3 <= +104.2
 c5714: +86.8 Y262,4 <= +65.3
 c5715: +86.8 Y262,5 <= +119.6
 c5716: +86.8 Y262,6 <= +189.6
 c5717: +73 Y263,0 <= +127.4
 c5718: +73 Y263,1 <= +89.3
 c5719: +73 Y263,2 <= +127.3
 c5720: +73 Y263,3 <= +104.2
 c5721: +73 Y263,4 <= +65.3
 c5722: +73 Y263,5 <= +119.6
 c5723: +73 Y263,6 <= +189.6
 c5724: +81.5 Y264,0 <= +127.4
 c5725: +81.5 Y264,1 <= +89.3
 c5726: +81.5 Y264,2 <= +127.3
 c5727: +81.5 Y264,3 <= +104.2
 c5728: +81.5 Y264,4 <= +65.3
 c5729: +81.5 Y264,5 <= +119.6
 c5730: +81.5 Y264,6 <= +189.6
 c5731: +74.9 Y265,0 <= +127.4
 c5732: +74.9 Y265,1 <= +89.3
 c5733: +74.9 Y265,2 <= +127.3
 c5734: +74.9 Y265,3 <= +104.2
 c5735: +74.9 Y265,4 <= +65.3
 c5736: +74.9 Y265,5 <= +119.6
 c5737: +74.9 Y265,6 <= +189.6
 c5738: +91.7 Y266,0 <= +127.4
 c5739: +91.7 Y266,1 <= +89.3
 c5740: +91.7 Y266,2 <= +127.3
 c5741: +91.7 Y266,3 <= +104.2
 c5742: +91.7 Y266,4 <= +65.3
 c5743: +91.7 Y266,5 <= +119.6
 c5744: +91.7 Y266,6 <= +189.6
 c5745: +85.1 Y267,0 <= +127.4
 c5746: +85.1 Y267,1 <= +89.3
 c5747: +85.1 Y267,2 <= +127.3
 c5748: +85.1 Y267,3 <= +104.2
 c5749: +85.1 Y267,4 <= +65.3
 c5750: +85.1 Y267,5 <= +119.6
 c5751: +85.1 Y267,6 <= +189.6
 c5752: +93.6 Y268,0 <= +127.4
 c5753: +93.6 Y268,1 <= +89.3
 c5754: +93.6 Y268,2 <= +127.3
 c5755: +93.6 Y268,3 <= +104.2
 c5756: +93.6 Y268,4 <= +65.3
 c5757: +93.6 Y268,5 <= +119.6
 c5758: +93.6 Y268,6 <= +189.6
 c5759: +79.8 Y269,0 <= +127.4
 c5760: +79.8 Y269,1 <= +89.3
 c5761: +79.8 Y269,2 <= +127.3
 c5762: +79.8 Y269,3 <= +104.2
 c5763: +79.8 Y269,4 <= +65.3
 c5764: +79.8 Y269,5 <= +119.6
 c5765: +79.8 Y269,6 <= +189.6
 c5766: +88.3 Y270,0 <= +127.4
 c5767: +88.3 Y270,1 <= +89.3
 c5768: +88.3 Y270,2 <= +127.3
 c5769: +88.3 Y270,3 <= +104.2
 c5770: +88.3 Y270,4 <= +65.3
 c5771: +88.3 Y270,5 <= +119.6
 c5772: +88.3 Y270,6 <= +189.6
 c5773: +81.7 Y271,0 <= +127.4
 c5774: +81.7 Y271,1 <= +89.3
 c5775: +81.7 Y271,2 <= +127.3
 c5776: +81.7 Y271,3 <= +104.2
 c5777: +81.7 Y271,4 <= +65.3
 c5778: +81.7 Y271,5 <= +119.6
 c5779: +81.7 Y271,6 <= +189.6
 c5780: +82.6 Y272,0 <= +127.4
 c5781: +82.6 Y272,1 <= +89.3
 c5782: +82.6 Y272,2 <= +127.3
 c5783: +82.6 Y272,3 <= +104.2
 c5784: +82.6 Y272,4 <= +65.3
 c5785: +82.6 Y272,5 <= +119.6
 c5786: +82.6 Y272,6 <= +189.6
 c5787: +91.1 Y273,0 <= +127.4
 c5788: +91.1 Y273,1 <= +89.3
 c5789: +91.1 Y273,2 <= +127.3
 c5790: +91.1 Y273,3 <= +104.2
 c5791: +91.1 Y273,4 <= +65.3
 c5792: +91.1 Y273,5 <= +119.6
 c5793: +91.1 Y273,6 <= +189.6
 c5794: +84.5 Y274,0 <= +127.4
 c5795: +84.5 Y274,1 <= +89.3
 c5796: +84.5 Y274,2 <= +127.3
 c5797: +84.5 Y274,3 <= +104.2
 c5798: +84.5 Y274,4 <= +65.3
 c5799: +84.5 Y274,5 <= +119.6
 c5800: +84.5 Y274,6 <= +189.6
 c5801: +79.2 Y275,0 <= +127.4
 c5802: +79.2 Y275,1 <= +89.3
 c5803: +79.2 Y275,2 <= +127.3
 c5804: +79.2 Y275,3 <= +104.2
 c5805: +79.2 Y275,4 <= +65.3
 c5806: +79.2 Y275,5 <= +119.6
 c5807: +79.2 Y275,6 <= +189.6
 c5808: +110.5 Y276,0 <= +127.4
 c5809: +110.5 Y276,1 <= +89.3
 c5810: +110.5 Y276,2 <= +127.3
 c5811: +110.5 Y276,3 <= +104.2
 c5812: +110.5 Y276,4 <= +65.3
 c5813: +110.5 Y276,5 <= +119.6
 c5814: +110.5 Y276,6 <= +189.6
 c5815: +103.9 Y277,0 <= +127.4
 c5816: +103.9 Y277,1 <= +89.3
 c5817: +103.9 Y277,2 <= +127.3
 c5818: +103.9 Y277,3 <= +104.2
 c5819: +103.9 Y277,4 <= +65.3
 c5820: +103.9 Y277,5 <= +119.6
 c5821: +103.9 Y277,6 <= +189.6
 c5822: +112.4 Y278,0 <= +127.4
 c5823: +112.4 Y278,1 <= +89.3
 c5824: +112.4 Y278,2 <= +127.3
 c5825: +112.4 Y278,3 <= +104.2
 c5826: +112.4 Y278,4 <= +65.3
 c5827: +112.4 Y278,5 <= +119.6
 c5828: +112.4 Y278,6 <= +189.6
 c5829: +98.6 Y279,0 <= +127.4
 c5830: +98.6 Y279,1 <= +89.3
 c5831: +98.6 Y279,2 <= +127.3
 c5832: +98.6 Y279,3 <= +104.2
 c5833: +98.6 Y279,4 <= +65.3
 c5834: +98.6 Y279,5 <= +119.6
 c5835: +98.6 Y279,6 <= +189.6
 c5836: +107.1 Y280,0 <= +127.4
 c5837: +107.1 Y280,1 <= +89.3
 c5838: +107.1 Y280,2 <= +127.3
 c5839: +107.1 Y280,3 <= +104.2
 c5840: +107.1 Y280,4 <= +65.3
 c5841: +107.1 Y280,5 <= +119.6
 c5842: +107.1 Y280,6 <= +189.6
 c5843: +100.5 Y281,0 <= +127.4
 c5844: +100.5 Y281,1 <= +89.3
 c5845: +100.5 Y281,2 <= +127.3
 c5846: +100.5 Y281,3 <= +104.2
 c5847: +100.5 Y281,4 <= +65.3
 c5848: +100.5 Y281,5 <= +119.6
 c5849: +100.5 Y281,6 <= +189.6
 c5850: +101.4 Y282,0 <= +127.4
 c5851: +101.4 Y282,1 <= +89.3
 c5852: +101.4 Y282,2 <= +127.3
 c5853: +101.4 Y282,3 <= +104.2
 c5854: +101.4 Y282,4 <= +65.3
 c5855: +101.4 Y282,5 <= +119.6
 c5856: +101.4 Y282,6 <= +189.6
 c5857: +109.9 Y283,0 <= +127.4
 c5858: +109.9 Y283,1 <= +89.3
 c5859: +109.9 Y283,2 <= +127.3
 c5860: +109.9 Y283,3 <= +104.2
 c5861: +109.9 Y283,4 <= +65.3
 c5862: +109.9 Y283,5 <= +119.6
 c5863: +109.9 Y283,6 <= +189.6
 c5864: +103.3 Y284,0 <= +127.4
 c5865: +103.3 Y284,1 <= +89.3
 c5866: +103.3 Y284,2 <= +127.3
 c5867: +103.3 Y284,3 <= +104.2
 c5868: +103.3 Y284,4 <= +65.3
 c5869: +103.3 Y284,5 <= +119.6
 c5870: +103.3 Y284,6 <= +189.6
 c5871: +98 Y285,0 <= +127.4
 c5872: +98 Y285,1 <= +89.3
 c5873: +98 Y285,2 <= +127.3
 c5874: +98 Y285,3 <= +104.2
 c5875: +98 Y285,4 <= +65.3
 c5876: +98 Y285,5 <= +119.6
 c5877: +98 Y285,6 <= +189.6
 c5878: +108.2 Y286,0 <= +127.4
 c5879: +108.2 Y286,1 <= +89.3
 c5880: +108.2 Y286,2 <= +127.3
 c5881: +108.2 Y286,3 <= +104.2
 c5882: +108.2 Y286,4 <= +65.3
 c5883: +108.2 Y286,5 <= +119.6
 c5884: +108.2 Y286,6 <= +189.6
 c5885: +116.7 Y287,0 <= +127.4
 c5886: +116.7 Y287,1 <= +89.3
 c5887: +116.7 Y287,2 <= +127.3
 c5888: +116.7 Y287,3 <= +104.2
 c5889: +116.7 Y287,4 <= +65.3
 c5890: +116.7 Y287,5 <= +119.6
 c5891: +116.7 Y287,6 <= +189.6
 c5892: +110.1 Y288,0 <= +127.4
 c5893: +110.1 Y288,1 <= +89.3
 c5894: +110.1 Y288,2 <= +127.3
 c5895: +110.1 Y288,3 <= +104.2
 c5896: +110.1 Y288,4 <= +65.3
 c5897: +110.1 Y288,5 <= +119.6
 c5898: +110.1 Y288,6 <= +189.6
 c5899: +104.8 Y289,0 <= +127.4
 c5900: +104.8 Y289,1 <= +89.3
 c5901: +104.8 Y289,2 <= +127.3
 c5902: +104.8 Y289,3 <= +104.2
 c5903: +104.8 Y289,4 <= +65.3
 c5904: +104.8 Y289,5 <= +119.6
 c5905: +104.8 Y289,6 <= +189.6
 c5906: +107.6 Y290,0 <= +127.4
 c5907: +107.6 Y290,1 <= +89.3
 c5908: +107.6 Y290,2 <= +127.3
 c5909: +107.6 Y290,3 <= +104.2
 c5910: +107.6 Y290,4 <= +65.3
 c5911: +107.6 Y290,5 <= +119.6
 c5912: +107.6 Y290,6 <= +189.6
 c5913: +103.9 Y291,0 <= +127.4
 c5914: +103.9 Y291,1 <= +89.3
 c5915: +103.9 Y291,2 <= +127.3
 c5916: +103.9 Y291,3 <= +104.2
 c5917: +103.9 Y291,4 <= +65.3
 c5918: +103.9 Y291,5 <= +119.6
 c5919: +103.9 Y291,6 <= +189.6
 c5920: +97.3 Y292,0 <= +127.4
 c5921: +97.3 Y292,1 <= +89.3
 c5922: +97.3 Y292,2 <= +127.3
 c5923: +97.3 Y292,3 <= +104.2
 c5924: +97.3 Y292,4 <= +65.3
 c5925: +97.3 Y292,5 <= +119.6
 c5926: +97.3 Y292,6 <= +189.6
 c5927: +105.8 Y293,0 <= +127.4
 c5928: +105.8 Y293,1 <= +89.3
 c5929: +105.8 Y293,2 <= +127.3
 c5930: +105.8 Y293,3 <= +104.2
 c5931: +105.8 Y293,4 <= +65.3
 c5932: +105.8 Y293,5 <= +119.6
 c5933: +105.8 Y293,6 <= +189.6
 c5934: +92 Y294,0 <= +127.4
 c5935: +92 Y294,1 <= +89.3
 c5936: +92 Y294,2 <= +127.3
 c5937: +92 Y294,3 <= +104.2
 c5938: +92 Y294,4 <= +65.3
 c5939: +92 Y294,5 <= +119.6
 c5940: +92 Y294,6 <= +189.6
 c5941: +100.5 Y295,0 <= +127.4
 c5942: +100.5 Y295,1 <= +89.3
 c5943: +100.5 Y295,2 <= +127.3
 c5944: +100.5 Y295,3 <= +104.2
 c5945: +100.5 Y295,4 <= +65.3
 c5946: +100.5 Y295,5 <= +119.6
 c5947: +100.5 Y295,6 <= +189.6
 c5948: +93.9 Y296,0 <= +127.4
 c5949: +93.9 Y296,1 <= +89.3
 c5950: +93.9 Y296,2 <= +127.3
 c5951: +93.9 Y296,3 <= +104.2
 c5952: +93.9 Y296,4 <= +65.3
 c5953: +93.9 Y296,5 <= +119.6
 c5954: +93.9 Y296,6 <= +189.6
 c5955: +94.8 Y297,0 <= +127.4
 c5956: +94.8 Y297,1 <= +89.3
 c5957: +94.8 Y297,2 <= +127.3
 c5958: +94.8 Y297,3 <= +104.2
 c5959: +94.8 Y297,4 <= +65.3
 c5960: +94.8 Y297,5 <= +119.6
 c5961: +94.8 Y297,6 <= +189.6
 c5962: +103.3 Y298,0 <= +127.4
 c5963: +103.3 Y298,1 <= +89.3
 c5964: +103.3 Y298,2 <= +127.3
 c5965: +103.3 Y298,3 <= +104.2
 c5966: +103.3 Y298,4 <= +65.3
 c5967: +103.3 Y298,5 <= +119.6
 c5968: +103.3 Y298,6 <= +189.6
 c5969: +96.7 Y299,0 <= +127.4
 c5970: +96.7 Y299,1 <= +89.3
 c5971: +96.7 Y299,2 <= +127.3
 c5972: +96.7 Y299,3 <= +104.2
 c5973: +96.7 Y299,4 <= +65.3
 c5974: +96.7 Y299,5 <= +119.6
 c5975: +96.7 Y299,6 <= +189.6
 c5976: +91.4 Y300,0 <= +127.4
 c5977: +91.4 Y300,1 <= +89.3
 c5978: +91.4 Y300,2 <= +127.3
 c5979: +91.4 Y300,3 <= +104.2
 c5980: +91.4 Y300,4 <= +65.3
 c5981: +91.4 Y300,5 <= +119.6
 c5982: +91.4 Y300,6 <= +189.6
 c5983: +101.6 Y301,0 <= +127.4
 c5984: +101.6 Y301,1 <= +89.3
 c5985: +101.6 Y301,2 <= +127.3
 c5986: +101.6 Y301,3 <= +104.2
 c5987: +101.6 Y301,4 <= +65.3
 c5988: +101.6 Y301,5 <= +119.6
 c5989: +101.6 Y301,6 <= +189.6
 c5990: +110.1 Y302,0 <= +127.4
 c5991: +110.1 Y302,1 <= +89.3
 c5992: +110.1 Y302,2 <= +127.3
 c5993: +110.1 Y302,3 <= +104.2
 c5994: +110.1 Y302,4 <= +65.3
 c5995: +110.1 Y302,5 <= +119.6
 c5996: +110.1 Y302,6 <= +189.6
 c5997: +103.5 Y303,0 <= +127.4
 c5998: +103.5 Y303,1 <= +89.3
 c5999: +103.5 Y303,2 <= +127.3
 c6000: +103.5 Y303,3 <= +104.2
 c6001: +103.5 Y303,4 <= +65.3
 c6002: +103.5 Y303,5 <= +119.6
 c6003: +103.5 Y303,6 <= +189.6
 c6004: +98.2 Y304,0 <= +127.4
 c6005: +98.2 Y304,1 <= +89.3
 c6006: +98.2 Y304,2 <= +127.3
 c6007: +98.2 Y304,3 <= +104.2
 c6008: +98.2 Y304,4 <= +65.3
 c6009: +98.2 Y304,5 <= +119.6
 c6010: +98.2 Y304,6 <= +189.6
 c6011: +101 Y305,0 <= +127.4
 c6012: +101 Y305,1 <= +89.3
 c6013: +101 Y305,2 <= +127.3
 c6014: +101 Y305,3 <= +104.2
 c6015: +101 Y305,4 <= +65.3
 c6016: +101 Y305,5 <= +119.6
 c6017: +101 Y305,6 <= +189.6
 c6018: +120.4 Y306,0 <= +127.4
 c6019: +120.4 Y306,1 <= +89.3
 c6020: +120.4 Y306,2 <= +127.3
 c6021: +120.4 Y306,3 <= +104.2
 c6022: +120.4 Y306,4 <= +65.3
 c6023: +120.4 Y306,5 <= +119.6
 c6024: +120.4 Y306,6 <= +189.6
 c6025: +128.9 Y307,0 <= +127.4
 c6026: +128.9 Y307,1 <= +89.3
 c6027: +128.9 Y307,2 <= +127.3
 c6028: +128.9 Y307,3 <= +104.2
 c6029: +128.9 Y307,4 <= +65.3
 c6030: +128.9 Y307,5 <= +119.6
 c6031: +128.9 Y307,6 <= +189.6
 c6032: +122.3 Y308,0 <= +127.4
 c6033: +122.3 Y308,1 <= +89.3
 c6034: +122.3 Y308,2 <= +127.3
 c6035: +122.3 Y308,3 <= +104.2
 c6036: +122.3 Y308,4 <= +65.3
 c6037: +122.3 Y308,5 <= +119.6
 c6038: +122.3 Y308,6 <= +189.6
 c6039: +117 Y309,0 <= +127.4
 c6040: +117 Y309,1 <= +89.3
 c6041: +117 Y309,2 <= +127.3
 c6042: +117 Y309,3 <= +104.2
 c6043: +117 Y309,4 <= +65.3
 c6044: +117 Y309,5 <= +119.6
 c6045: +117 Y309,6 <= +189.6
 c6046: +119.8 Y310,0 <= +127.4
 c6047: +119.8 Y310,1 <= +89.3
 c6048: +119.8 Y310,2 <= +127.3
 c6049: +119.8 Y310,3 <= +104.2
 c6050: +119.8 Y310,4 <= +65.3
 c6051: +119.8 Y310,5 <= +119.6
 c6052: +119.8 Y310,6 <= +189.6
 c6053: +126.6 Y311,0 <= +127.4
 c6054: +126.6 Y311,1 <= +89.3
 c6055: +126.6 Y311,2 <= +127.3
 c6056: +126.6 Y311,3 <= +104.2
 c6057: +126.6 Y311,4 <= +65.3
 c6058: +126.6 Y311,5 <= +119.6
 c6059: +126.6 Y311,6 <= +189.6
 c6060: +112.1 Y312,0 <= +127.4
 c6061: +112.1 Y312,1 <= +89.3
 c6062: +112.1 Y312,2 <= +127.3
 c6063: +112.1 Y312,3 <= +104.2
 c6064: +112.1 Y312,4 <= +65.3
 c6065: +112.1 Y312,5 <= +119.6
 c6066: +112.1 Y312,6 <= +189.6
 c6067: +105.5 Y313,0 <= +127.4
 c6068: +105.5 Y313,1 <= +89.3
 c6069: +105.5 Y313,2 <= +127.3
 c6070: +105.5 Y313,3 <= +104.2
 c6071: +105.5 Y313,4 <= +65.3
 c6072: +105.5 Y313,5 <= +119.6
 c6073: +105.5 Y313,6 <= +189.6
 c6074: +114 Y314,0 <= +127.4
 c6075: +114 Y314,1 <= +89.3
 c6076: +114 Y314,2 <= +127.3
 c6077: +114 Y314,3 <= +104.2
 c6078: +114 Y314,4 <= +65.3
 c6079: +114 Y314,5 <= +119.6
 c6080: +114 Y314,6 <= +189.6
 c6081: +100.2 Y315,0 <= +127.4
 c6082: +100.2 Y315,1 <= +89.3
 c6083: +100.2 Y315,2 <= +127.3
 c6084: +100.2 Y315,3 <= +104.2
 c6085: +100.2 Y315,4 <= +65.3
 c6086: +100.2 Y315,5 <= +119.6
 c6087: +100.2 Y315,6 <= +189.6
 c6088: +108.7 Y316,0 <= +127.4
 c6089: +108.7 Y316,1 <= +89.3
 c6090: +108.7 Y316,2 <= +127.3
 c6091: +108.7 Y316,3 <= +104.2
 c6092: +108.7 Y316,4 <= +65.3
 c6093: +108.7 Y316,5 <= +119.6
 c6094: +108.7 Y316,6 <= +189.6
 c6095: +102.1 Y317,0 <= +127.4
 c6096: +102.1 Y317,1 <= +89.3
 c6097: +102.1 Y317,2 <= +127.3
 c6098: +102.1 Y317,3 <= +104.2
 c6099: +102.1 Y317,4 <= +65.3
 c6100: +102.1 Y317,5 <= +119.6
 c6101: +102.1 Y317,6 <= +189.6
 c6102: +103 Y318,0 <= +127.4
 c6103: +103 Y318,1 <= +89.3
 c6104: +103 Y318,2 <= +127.3
 c6105: +103 Y318,3 <= +104.2
 c6106: +103 Y318,4 <= +65.3
 c6107: +103 Y318,5 <= +119.6
 c6108: +103 Y318,6 <= +189.6
 c6109: +111.5 Y319,0 <= +127.4
 c6110: +111.5 Y319,1 <= +89.3
 c6111: +111.5 Y319,2 <= +127.3
 c6112: +111.5 Y319,3 <= +104.2
 c6113: +111.5 Y319,4 <= +65.3
 c6114: +111.5 Y319,5 <= +119.6
 c6115: +111.5 Y319,6 <= +189.6
 c6116: +104.9 Y320,0 <= +127.4
 c6117: +104.9 Y320,1 <= +89.3
 c6118: +104.9 Y320,2 <= +127.3
 c6119: +104.9 Y320,3 <= +104.2
 c6120: +104.9 Y320,4 <= +65.3
 c6121: +104.9 Y320,5 <= +119.6
 c6122: +104.9 Y320,6 <= +189.6
 c6123: +99.6 Y321,0 <= +127.4
 c6124: +99.6 Y321,1 <= +89.3
 c6125: +99.6 Y321,2 <= +127.3
 c6126: +99.6 Y321,3 <= +104.2
 c6127: +99.6 Y321,4 <= +65.3
 c6128: +99.6 Y321,5 <= +119.6
 c6129: +99.6 Y321,6 <= +189.6
 c6130: +109.8 Y322,0 <= +127.4
 c6131: +109.8 Y322,1 <= +89.3
 c6132: +109.8 Y322,2 <= +127.3
 c6133: +109.8 Y322,3 <= +104.2
 c6134: +109.8 Y322,4 <= +65.3
 c6135: +109.8 Y322,5 <= +119.6
 c6136: +109.8 Y322,6 <= +189.6
 c6137: +118.3 Y323,0 <= +127.4
 c6138: +118.3 Y323,1 <= +89.3
 c6139: +118.3 Y323,2 <= +127.3
 c6140: +118.3 Y323,3 <= +104.2
 c6141: +118.3 Y323,4 <= +65.3
 c6142: +118.3 Y323,5 <= +119.6
 c6143: +118.3 Y323,6 <= +189.6
 c6144: +111.7 Y324,0 <= +127.4
 c6145: +111.7 Y324,1 <= +89.3
 c6146: +111.7 Y324,2 <= +127.3
 c6147: +111.7 Y324,3 <= +104.2
 c6148: +111.7 Y324,4 <= +65.3
 c6149: +111.7 Y324,5 <= +119.6
 c6150: +111.7 Y324,6 <= +189.6
 c6151: +106.4 Y325,0 <= +127.4
 c6152: +106.4 Y325,1 <= +89.3
 c6153: +106.4 Y325,2 <= +127.3
 c6154: +106.4 Y325,3 <= +104.2
 c6155: +106.4 Y325,4 <= +65.3
 c6156: +106.4 Y325,5 <= +119.6
 c6157: +106.4 Y325,6 <= +189.6
 c6158: +109.2 Y326,0 <= +127.4
 c6159: +109.2 Y326,1 <= +89.3
 c6160: +109.2 Y326,2 <= +127.3
 c6161: +109.2 Y326,3 <= +104.2
 c6162: +109.2 Y326,4 <= +65.3
 c6163: +109.2 Y326,5 <= +119.6
 c6164: +109.2 Y326,6 <= +189.6
 c6165: +128.6 Y327,0 <= +127.4
 c6166: +128.6 Y327,1 <= +89.3
 c6167: +128.6 Y327,2 <= +127.3
 c6168: +128.6 Y327,3 <= +104.2
 c6169: +128.6 Y327,4 <= +65.3
 c6170: +128.6 Y327,5 <= +119.6
 c6171: +128.6 Y327,6 <= +189.6
 c6172: +137.1 Y328,0 <= +127.4
 c6173: +137.1 Y328,1 <= +89.3
 c6174: +137.1 Y328,2 <= +127.3
 c6175: +137.1 Y328,3 <= +104.2
 c6176: +137.1 Y328,4 <= +65.3
 c6177: +137.1 Y328,5 <= +119.6
 c6178: +137.1 Y328,6 <= +189.6
 c6179: +130.5 Y329,0 <= +127.4
 c6180: +130.5 Y329,1 <= +89.3
 c6181: +130.5 Y329,2 <= +127.3
 c6182: +130.5 Y329,3 <= +104.2
 c6183: +130.5 Y329,4 <= +65.3
 c6184: +130.5 Y329,5 <= +119.6
 c6185: +130.5 Y329,6 <= +189.6
 c6186: +125.2 Y330,0 <= +127.4
 c6187: +125.2 Y330,1 <= +89.3
 c6188: +125.2 Y330,2 <= +127.3
 c6189: +125.2 Y330,3 <= +104.2
 c6190: +125.2 Y330,4 <= +65.3
 c6191: +125.2 Y330,5 <= +119.6
 c6192: +125.2 Y330,6 <= +189.6
 c6193: +128 Y331,0 <= +127.4
 c6194: +128 Y331,1 <= +89.3
 c6195: +128 Y331,2 <= +127.3
 c6196: +128 Y331,3 <= +104.2
 c6197: +128 Y331,4 <= +65.3
 c6198: +128 Y331,5 <= +119.6
 c6199: +128 Y331,6 <= +189.6
 c6200: +134.8 Y332,0 <= +127.4
 c6201: +134.8 Y332,1 <= +89.3
 c6202: +134.8 Y332,2 <= +127.3
 c6203: +134.8 Y332,3 <= +104.2
 c6204: +134.8 Y332,4 <= +65.3
 c6205: +134.8 Y332,5 <= +119.6
 c6206: +134.8 Y332,6 <= +189.6
 c6207: +122 Y333,0 <= +127.4
 c6208: +122 Y333,1 <= +89.3
 c6209: +122 Y333,2 <= +127.3
 c6210: +122 Y333,3 <= +104.2
 c6211: +122 Y333,4 <= +65.3
 c6212: +122 Y333,5 <= +119.6
 c6213: +122 Y333,6 <= +189.6
 c6214: +130.5 Y334,0 <= +127.4
 c6215: +130.5 Y334,1 <= +89.3
 c6216: +130.5 Y334,2 <= +127.3
 c6217: +130.5 Y334,3 <= +104.2
 c6218: +130.5 Y334,4 <= +65.3
 c6219: +130.5 Y334,5 <= +119.6
 c6220: +130.5 Y334,6 <= +189.6
 c6221: +123.9 Y335,0 <= +127.4
 c6222: +123.9 Y335,1 <= +89.3
 c6223: +123.9 Y335,2 <= +127.3
 c6224: +123.9 Y335,3 <= +104.2
 c6225: +123.9 Y335,4 <= +65.3
 c6226: +123.9 Y335,5 <= +119.6
 c6227: +123.9 Y335,6 <= +189.6
 c6228: +118.6 Y336,0 <= +127.4
 c6229: +118.6 Y336,1 <= +89.3
 c6230: +118.6 Y336,2 <= +127.3
 c6231: +118.6 Y336,3 <= +104.2
 c6232: +118.6 Y336,4 <= +65.3
 c6233: +118.6 Y336,5 <= +119.6
 c6234: +118.6 Y336,6 <= +189.6
 c6235: +121.4 Y337,0 <= +127.4
 c6236: +121.4 Y337,1 <= +89.3
 c6237: +121.4 Y337,2 <= +127.3
 c6238: +121.4 Y337,3 <= +104.2
 c6239: +121.4 Y337,4 <= +65.3
 c6240: +121.4 Y337,5 <= +119.6
 c6241: +121.4 Y337,6 <= +189.6
 c6242: +128.2 Y338,0 <= +127.4
 c6243: +128.2 Y338,1 <= +89.3
 c6244: +128.2 Y338,2 <= +127.3
 c6245: +128.2 Y338,3 <= +104.2
 c6246: +128.2 Y338,4 <= +65.3
 c6247: +128.2 Y338,5 <= +119.6
 c6248: +128.2 Y338,6 <= +189.6
 c6249: +147 Y339,0 <= +127.4
 c6250: +147 Y339,1 <= +89.3
 c6251: +147 Y339,2 <= +127.3
 c6252: +147 Y339,3 <= +104.2
 c6253: +147 Y339,4 <= +65.3
 c6254: +147 Y339,5 <= +119.6
 c6255: +147 Y339,6 <= +189.6
 c6256: +130.2 Y340,0 <= +127.4
 c6257: +130.2 Y340,1 <= +89.3
 c6258: +130.2 Y340,2 <= +127.3
 c6259: +130.2 Y340,3 <= +104.2
 c6260: +130.2 Y340,4 <= +65.3
 c6261: +130.2 Y340,5 <= +119.6
 c6262: +130.2 Y340,6 <= +189.6
 c6263: +138.7 Y341,0 <= +127.4
 c6264: +138.7 Y341,1 <= +89.3
 c6265: +138.7 Y341,2 <= +127.3
 c6266: +138.7 Y341,3 <= +104.2
 c6267: +138.7 Y341,4 <= +65.3
 c6268: +138.7 Y341,5 <= +119.6
 c6269: +138.7 Y341,6 <= +189.6
 c6270: +132.1 Y342,0 <= +127.4
 c6271: +132.1 Y342,1 <= +89.3
 c6272: +132.1 Y342,2 <= +127.3
 c6273: +132.1 Y342,3 <= +104.2
 c6274: +132.1 Y342,4 <= +65.3
 c6275: +132.1 Y342,5 <= +119.6
 c6276: +132.1 Y342,6 <= +189.6
 c6277: +126.8 Y343,0 <= +127.4
 c6278: +126.8 Y343,1 <= +89.3
 c6279: +126.8 Y343,2 <= +127.3
 c6280: +126.8 Y343,3 <= +104.2
 c6281: +126.8 Y343,4 <= +65.3
 c6282: +126.8 Y343,5 <= +119.6
 c6283: +126.8 Y343,6 <= +189.6
 c6284: +129.6 Y344,0 <= +127.4
 c6285: +129.6 Y344,1 <= +89.3
 c6286: +129.6 Y344,2 <= +127.3
 c6287: +129.6 Y344,3 <= +104.2
 c6288: +129.6 Y344,4 <= +65.3
 c6289: +129.6 Y344,5 <= +119.6
 c6290: +129.6 Y344,6 <= +189.6
 c6291: +136.4 Y345,0 <= +127.4
 c6292: +136.4 Y345,1 <= +89.3
 c6293: +136.4 Y345,2 <= +127.3
 c6294: +136.4 Y345,3 <= +104.2
 c6295: +136.4 Y345,4 <= +65.3
 c6296: +136.4 Y345,5 <= +119.6
 c6297: +136.4 Y345,6 <= +189.6
 c6298: +155.2 Y346,0 <= +127.4
 c6299: +155.2 Y346,1 <= +89.3
 c6300: +155.2 Y346,2 <= +127.3
 c6301: +155.2 Y346,3 <= +104.2
 c6302: +155.2 Y346,4 <= +65.3
 c6303: +155.2 Y346,5 <= +119.6
 c6304: +155.2 Y346,6 <= +189.6
 c6305: +148.6 Y347,0 <= +127.4
 c6306: +148.6 Y347,1 <= +89.3
 c6307: +148.6 Y347,2 <= +127.3
 c6308: +148.6 Y347,3 <= +104.2
 c6309: +148.6 Y347,4 <= +65.3
 c6310: +148.6 Y347,5 <= +119.6
 c6311: +148.6 Y347,6 <= +189.6
 c6312: +156.8 Y348,0 <= +127.4
 c6313: +156.8 Y348,1 <= +89.3
 c6314: +156.8 Y348,2 <= +127.3
 c6315: +156.8 Y348,3 <= +104.2
 c6316: +156.8 Y348,4 <= +65.3
 c6317: +156.8 Y348,5 <= +119.6
 c6318: +156.8 Y348,6 <= +189.6
 c6319: +23.8 Y349,0 <= +127.4
 c6320: +23.8 Y349,1 <= +89.3
 c6321: +23.8 Y349,2 <= +127.3
 c6322: +23.8 Y349,3 <= +104.2
 c6323: +23.8 Y349,4 <= +65.3
 c6324: +23.8 Y349,5 <= +119.6
 c6325: +23.8 Y349,6 <= +189.6
 c6326: +8 Y350,0 <= +127.4
 c6327: +8 Y350,1 <= +89.3
 c6328: +8 Y350,2 <= +127.3
 c6329: +8 Y350,3 <= +104.2
 c6330: +8 Y350,4 <= +65.3
 c6331: +8 Y350,5 <= +119.6
 c6332: +8 Y350,6 <= +189.6
 c6333: +21.3 Y351,0 <= +127.4
 c6334: +21.3 Y351,1 <= +89.3
 c6335: +21.3 Y351,2 <= +127.3
 c6336: +21.3 Y351,3 <= +104.2
 c6337: +21.3 Y351,4 <= +65.3
 c6338: +21.3 Y351,5 <= +119.6
 c6339: +21.3 Y351,6 <= +189.6
 c6340: +7.4 Y352,0 <= +127.4
 c6341: +7.4 Y352,1 <= +89.3
 c6342: +7.4 Y352,2 <= +127.3
 c6343: +7.4 Y352,3 <= +104.2
 c6344: +7.4 Y352,4 <= +65.3
 c6345: +7.4 Y352,5 <= +119.6
 c6346: +7.4 Y352,6 <= +189.6
 c6347: +25.7 Y353,0 <= +127.4
 c6348: +25.7 Y353,1 <= +89.3
 c6349: +25.7 Y353,2 <= +127.3
 c6350: +25.7 Y353,3 <= +104.2
 c6351: +25.7 Y353,4 <= +65.3
 c6352: +25.7 Y353,5 <= +119.6
 c6353: +25.7 Y353,6 <= +189.6
 c6354: +9.8 Y354,0 <= +127.4
 c6355: +9.8 Y354,1 <= +89.3
 c6356: +9.8 Y354,2 <= +127.3
 c6357: +9.8 Y354,3 <= +104.2
 c6358: +9.8 Y354,4 <= +65.3
 c6359: +9.8 Y354,5 <= +119.6
 c6360: +9.8 Y354,6 <= +189.6
 c6361: +9 Y355,0 <= +127.4
 c6362: +9 Y355,1 <= +89.3
 c6363: +9 Y355,2 <= +127.3
 c6364: +9 Y355,3 <= +104.2
 c6365: +9 Y355,4 <= +65.3
 c6366: +9 Y355,5 <= +119.6
 c6367: +9 Y355,6 <= +189.6
 c6368: +31.8 Y356,0 <= +127.4
 c6369: +31.8 Y356,1 <= +89.3
 c6370: +31.8 Y356,2 <= +127.3
 c6371: +31.8 Y356,3 <= +104.2
 c6372: +31.8 Y356,4 <= +65.3
 c6373: +31.8 Y356,5 <= +119.6
 c6374: +31.8 Y356,6 <= +189.6
 c6375: +45.1 Y357,0 <= +127.4
 c6376: +45.1 Y357,1 <= +89.3
 c6377: +45.1 Y357,2 <= +127.3
 c6378: +45.1 Y357,3 <= +104.2
 c6379: +45.1 Y357,4 <= +65.3
 c6380: +45.1 Y357,5 <= +119.6
 c6381: +45.1 Y357,6 <= +189.6
 c6382: +31.2 Y358,0 <= +127.4
 c6383: +31.2 Y358,1 <= +89.3
 c6384: +31.2 Y358,2 <= +127.3
 c6385: +31.2 Y358,3 <= +104.2
 c6386: +31.2 Y358,4 <= +65.3
 c6387: +31.2 Y358,5 <= +119.6
 c6388: +31.2 Y358,6 <= +189.6
 c6389: +49.5 Y359,0 <= +127.4
 c6390: +49.5 Y359,1 <= +89.3
 c6391: +49.5 Y359,2 <= +127.3
 c6392: +49.5 Y359,3 <= +104.2
 c6393: +49.5 Y359,4 <= +65.3
 c6394: +49.5 Y359,5 <= +119.6
 c6395: +49.5 Y359,6 <= +189.6
 c6396: +33.6 Y360,0 <= +127.4
 c6397: +33.6 Y360,1 <= +89.3
 c6398: +33.6 Y360,2 <= +127.3
 c6399: +33.6 Y360,3 <= +104.2
 c6400: +33.6 Y360,4 <= +65.3
 c6401: +33.6 Y360,5 <= +119.6
 c6402: +33.6 Y360,6 <= +189.6
 c6403: +32.8 Y361,0 <= +127.4
 c6404: +32.8 Y361,1 <= +89.3
 c6405: +32.8 Y361,2 <= +127.3
 c6406: +32.8 Y361,3 <= +104.2
 c6407: +32.8 Y361,4 <= +65.3
 c6408: +32.8 Y361,5 <= +119.6
 c6409: +32.8 Y361,6 <= +189.6
 c6410: +29.3 Y362,0 <= +127.4
 c6411: +29.3 Y362,1 <= +89.3
 c6412: +29.3 Y362,2 <= +127.3
 c6413: +29.3 Y362,3 <= +104.2
 c6414: +29.3 Y362,4 <= +65.3
 c6415: +29.3 Y362,5 <= +119.6
 c6416: +29.3 Y362,6 <= +189.6
 c6417: +15.4 Y363,0 <= +127.4
 c6418: +15.4 Y363,1 <= +89.3
 c6419: +15.4 Y363,2 <= +127.3
 c6420: +15.4 Y363,3 <= +104.2
 c6421: +15.4 Y363,4 <= +65.3
 c6422: +15.4 Y363,5 <= +119.6
 c6423: +15.4 Y363,6 <= +189.6
 c6424: +33.7 Y364,0 <= +127.4
 c6425: +33.7 Y364,1 <= +89.3
 c6426: +33.7 Y364,2 <= +127.3
 c6427: +33.7 Y364,3 <= +104.2
 c6428: +33.7 Y364,4 <= +65.3
 c6429: +33.7 Y364,5 <= +119.6
 c6430: +33.7 Y364,6 <= +189.6
 c6431: +17.8 Y365,0 <= +127.4
 c6432: +17.8 Y365,1 <= +89.3
 c6433: +17.8 Y365,2 <= +127.3
 c6434: +17.8 Y365,3 <= +104.2
 c6435: +17.8 Y365,4 <= +65.3
 c6436: +17.8 Y365,5 <= +119.6
 c6437: +17.8 Y365,6 <= +189.6
 c6438: +17 Y366,0 <= +127.4
 c6439: +17 Y366,1 <= +89.3
 c6440: +17 Y366,2 <= +127.3
 c6441: +17 Y366,3 <= +104.2
 c6442: +17 Y366,4 <= +65.3
 c6443: +17 Y366,5 <= +119.6
 c6444: +17 Y366,6 <= +189.6
 c6445: +28.7 Y367,0 <= +127.4
 c6446: +28.7 Y367,1 <= +89.3
 c6447: +28.7 Y367,2 <= +127.3
 c6448: +28.7 Y367,3 <= +104.2
 c6449: +28.7 Y367,4 <= +65.3
 c6450: +28.7 Y367,5 <= +119.6
 c6451: +28.7 Y367,6 <= +189.6
 c6452: +47 Y368,0 <= +127.4
 c6453: +47 Y368,1 <= +89.3
 c6454: +47 Y368,2 <= +127.3
 c6455: +47 Y368,3 <= +104.2
 c6456: +47 Y368,4 <= +65.3
 c6457: +47 Y368,5 <= +119.6
 c6458: +47 Y368,6 <= +189.6
 c6459: +31.1 Y369,0 <= +127.4
 c6460: +31.1 Y369,1 <= +89.3
 c6461: +31.1 Y369,2 <= +127.3
 c6462: +31.1 Y369,3 <= +104.2
 c6463: +31.1 Y369,4 <= +65.3
 c6464: +31.1 Y369,5 <= +119.6
 c6465: +31.1 Y369,6 <= +189.6
 c6466: +30.3 Y370,0 <= +127.4
 c6467: +30.3 Y370,1 <= +89.3
 c6468: +30.3 Y370,2 <= +127.3
 c6469: +30.3 Y370,3 <= +104.2
 c6470: +30.3 Y370,4 <= +65.3
 c6471: +30.3 Y370,5 <= +119.6
 c6472: +30.3 Y370,6 <= +189.6
 c6473: +33.1 Y371,0 <= +127.4
 c6474: +33.1 Y371,1 <= +89.3
 c6475: +33.1 Y371,2 <= +127.3
 c6476: +33.1 Y371,3 <= +104.2
 c6477: +33.1 Y371,4 <= +65.3
 c6478: +33.1 Y371,5 <= +119.6
 c6479: +33.1 Y371,6 <= +189.6
 c6480: +17.2 Y372,0 <= +127.4
 c6481: +17.2 Y372,1 <= +89.3
 c6482: +17.2 Y372,2 <= +127.3
 c6483: +17.2 Y372,3 <= +104.2
 c6484: +17.2 Y372,4 <= +65.3
 c6485: +17.2 Y372,5 <= +119.6
 c6486: +17.2 Y372,6 <= +189.6
 c6487: +16.4 Y373,0 <= +127.4
 c6488: +16.4 Y373,1 <= +89.3
 c6489: +16.4 Y373,2 <= +127.3
 c6490: +16.4 Y373,3 <= +104.2
 c6491: +16.4 Y373,4 <= +65.3
 c6492: +16.4 Y373,5 <= +119.6
 c6493: +16.4 Y373,6 <= +189.6
 c6494: +35.5 Y374,0 <= +127.4
 c6495: +35.5 Y374,1 <= +89.3
 c6496: +35.5 Y374,2 <= +127.3
 c6497: +35.5 Y374,3 <= +104.2
 c6498: +35.5 Y374,4 <= +65.3
 c6499: +35.5 Y374,5 <= +119.6
 c6500: +35.5 Y374,6 <= +189.6
 c6501: +34.7 Y375,0 <= +127.4
 c6502: +34.7 Y375,1 <= +89.3
 c6503: +34.7 Y375,2 <= +127.3
 c6504: +34.7 Y375,3 <= +104.2
 c6505: +34.7 Y375,4 <= +65.3
 c6506: +34.7 Y375,5 <= +119.6
 c6507: +34.7 Y375,6 <= +189.6
 c6508: +18.8 Y376,0 <= +127.4
 c6509: +18.8 Y376,1 <= +89.3
 c6510: +18.8 Y376,2 <= +127.3
 c6511: +18.8 Y376,3 <= +104.2
 c6512: +18.8 Y376,4 <= +65.3
 c6513: +18.8 Y376,5 <= +119.6
 c6514: +18.8 Y376,6 <= +189.6
 c6515: +53.1 Y377,0 <= +127.4
 c6516: +53.1 Y377,1 <= +89.3
 c6517: +53.1 Y377,2 <= +127.3
 c6518: +53.1 Y377,3 <= +104.2
 c6519: +53.1 Y377,4 <= +65.3
 c6520: +53.1 Y377,5 <= +119.6
 c6521: +53.1 Y377,6 <= +189.6
 c6522: +39.2 Y378,0 <= +127.4
 c6523: +39.2 Y378,1 <= +89.3
 c6524: +39.2 Y378,2 <= +127.3
 c6525: +39.2 Y378,3 <= +104.2
 c6526: +39.2 Y378,4 <= +65.3
 c6527: +39.2 Y378,5 <= +119.6
 c6528: +39.2 Y378,6 <= +189.6
 c6529: +57.5 Y379,0 <= +127.4
 c6530: +57.5 Y379,1 <= +89.3
 c6531: +57.5 Y379,2 <= +127.3
 c6532: +57.5 Y379,3 <= +104.2
 c6533: +57.5 Y379,4 <= +65.3
 c6534: +57.5 Y379,5 <= +119.6
 c6535: +57.5 Y379,6 <= +189.6
 c6536: +41.6 Y380,0 <= +127.4
 c6537: +41.6 Y380,1 <= +89.3
 c6538: +41.6 Y380,2 <= +127.3
 c6539: +41.6 Y380,3 <= +104.2
 c6540: +41.6 Y380,4 <= +65.3
 c6541: +41.6 Y380,5 <= +119.6
 c6542: +41.6 Y380,6 <= +189.6
 c6543: +40.8 Y381,0 <= +127.4
 c6544: +40.8 Y381,1 <= +89.3
 c6545: +40.8 Y381,2 <= +127.3
 c6546: +40.8 Y381,3 <= +104.2
 c6547: +40.8 Y381,4 <= +65.3
 c6548: +40.8 Y381,5 <= +119.6
 c6549: +40.8 Y381,6 <= +189.6
 c6550: +52.5 Y382,0 <= +127.4
 c6551: +52.5 Y382,1 <= +89.3
 c6552: +52.5 Y382,2 <= +127.3
 c6553: +52.5 Y382,3 <= +104.2
 c6554: +52.5 Y382,4 <= +65.3
 c6555: +52.5 Y382,5 <= +119.6
 c6556: +52.5 Y382,6 <= +189.6
 c6557: +70.8 Y383,0 <= +127.4
 c6558: +70.8 Y383,1 <= +89.3
 c6559: +70.8 Y383,2 <= +127.3
 c6560: +70.8 Y383,3 <= +104.2
 c6561: +70.8 Y383,4 <= +65.3
 c6562: +70.8 Y383,5 <= +119.6
 c6563: +70.8 Y383,6 <= +189.6
 c6564: +54.9 Y384,0 <= +127.4
 c6565: +54.9 Y384,1 <= +89.3
 c6566: +54.9 Y384,2 <= +127.3
 c6567: +54.9 Y384,3 <= +104.2
 c6568: +54.9 Y384,4 <= +65.3
 c6569: +54.9 Y384,5 <= +119.6
 c6570: +54.9 Y384,6 <= +189.6
 c6571: +54.1 Y385,0 <= +127.4
 c6572: +54.1 Y385,1 <= +89.3
 c6573: +54.1 Y385,2 <= +127.3
 c6574: +54.1 Y385,3 <= +104.2
 c6575: +54.1 Y385,4 <= +65.3
 c6576: +54.1 Y385,5 <= +119.6
 c6577: +54.1 Y385,6 <= +189.6
 c6578: +56.9 Y386,0 <= +127.4
 c6579: +56.9 Y386,1 <= +89.3
 c6580: +56.9 Y386,2 <= +127.3
 c6581: +56.9 Y386,3 <= +104.2
 c6582: +56.9 Y386,4 <= +65.3
 c6583: +56.9 Y386,5 <= +119.6
 c6584: +56.9 Y386,6 <= +189.6
 c6585: +41 Y387,0 <= +127.4
 c6586: +41 Y387,1 <= +89.3
 c6587: +41 Y387,2 <= +127.3
 c6588: +41 Y387,3 <= +104.2
 c6589: +41 Y387,4 <= +65.3
 c6590: +41 Y387,5 <= +119.6
 c6591: +41 Y387,6 <= +189.6
 c6592: +40.2 Y388,0 <= +127.4
 c6593: +40.2 Y388,1 <= +89.3
 c6594: +40.2 Y388,2 <= +127.3
 c6595: +40.2 Y388,3 <= +104.2
 c6596: +40.2 Y388,4 <= +65.3
 c6597: +40.2 Y388,5 <= +119.6
 c6598: +40.2 Y388,6 <= +189.6
 c6599: +59.3 Y389,0 <= +127.4
 c6600: +59.3 Y389,1 <= +89.3
 c6601: +59.3 Y389,2 <= +127.3
 c6602: +59.3 Y389,3 <= +104.2
 c6603: +59.3 Y389,4 <= +65.3
 c6604: +59.3 Y389,5 <= +119.6
 c6605: +59.3 Y389,6 <= +189.6
 c6606: +58.5 Y390,0 <= +127.4
 c6607: +58.5 Y390,1 <= +89.3
 c6608: +58.5 Y390,2 <= +127.3
 c6609: +58.5 Y390,3 <= +104.2
 c6610: +58.5 Y390,4 <= +65.3
 c6611: +58.5 Y390,5 <= +119.6
 c6612: +58.5 Y390,6 <= +189.6
 c6613: +42.6 Y391,0 <= +127.4
 c6614: +42.6 Y391,1 <= +89.3
 c6615: +42.6 Y391,2 <= +127.3
 c6616: +42.6 Y391,3 <= +104.2
 c6617: +42.6 Y391,4 <= +65.3
 c6618: +42.6 Y391,5 <= +119.6
 c6619: +42.6 Y391,6 <= +189.6
 c6620: +36.7 Y392,0 <= +127.4
 c6621: +36.7 Y392,1 <= +89.3
 c6622: +36.7 Y392,2 <= +127.3
 c6623: +36.7 Y392,3 <= +104.2
 c6624: +36.7 Y392,4 <= +65.3
 c6625: +36.7 Y392,5 <= +119.6
 c6626: +36.7 Y392,6 <= +189.6
 c6627: +55 Y393,0 <= +127.4
 c6628: +55 Y393,1 <= +89.3
 c6629: +55 Y393,2 <= +127.3
 c6630: +55 Y393,3 <= +104.2
 c6631: +55 Y393,4 <= +65.3
 c6632: +55 Y393,5 <= +119.6
 c6633: +55 Y393,6 <= +189.6
 c6634: +39.1 Y394,0 <= +127.4
 c6635: +39.1 Y394,1 <= +89.3
 c6636: +39.1 Y394,2 <= +127.3
 c6637: +39.1 Y394,3 <= +104.2
 c6638: +39.1 Y394,4 <= +65.3
 c6639: +39.1 Y394,5 <= +119.6
 c6640: +39.1 Y394,6 <= +189.6
 c6641: +38.3 Y395,0 <= +127.4
 c6642: +38.3 Y395,1 <= +89.3
 c6643: +38.3 Y395,2 <= +127.3
 c6644: +38.3 Y395,3 <= +104.2
 c6645: +38.3 Y395,4 <= +65.3
 c6646: +38.3 Y395,5 <= +119.6
 c6647: +38.3 Y395,6 <= +189.6
 c6648: +41.1 Y396,0 <= +127.4
 c6649: +41.1 Y396,1 <= +89.3
 c6650: +41.1 Y396,2 <= +127.3
 c6651: +41.1 Y396,3 <= +104.2
 c6652: +41.1 Y396,4 <= +65.3
 c6653: +41.1 Y396,5 <= +119.6
 c6654: +41.1 Y396,6 <= +189.6
 c6655: +25.2 Y397,0 <= +127.4
 c6656: +25.2 Y397,1 <= +89.3
 c6657: +25.2 Y397,2 <= +127.3
 c6658: +25.2 Y397,3 <= +104.2
 c6659: +25.2 Y397,4 <= +65.3
 c6660: +25.2 Y397,5 <= +119.6
 c6661: +25.2 Y397,6 <= +189.6
 c6662: +24.4 Y398,0 <= +127.4
 c6663: +24.4 Y398,1 <= +89.3
 c6664: +24.4 Y398,2 <= +127.3
 c6665: +24.4 Y398,3 <= +104.2
 c6666: +24.4 Y398,4 <= +65.3
 c6667: +24.4 Y398,5 <= +119.6
 c6668: +24.4 Y398,6 <= +189.6
 c6669: +43.5 Y399,0 <= +127.4
 c6670: +43.5 Y399,1 <= +89.3
 c6671: +43.5 Y399,2 <= +127.3
 c6672: +43.5 Y399,3 <= +104.2
 c6673: +43.5 Y399,4 <= +65.3
 c6674: +43.5 Y399,5 <= +119.6
 c6675: +43.5 Y399,6 <= +189.6
 c6676: +42.7 Y400,0 <= +127.4
 c6677: +42.7 Y400,1 <= +89.3
 c6678: +42.7 Y400,2 <= +127.3
 c6679: +42.7 Y400,3 <= +104.2
 c6680: +42.7 Y400,4 <= +65.3
 c6681: +42.7 Y400,5 <= +119.6
 c6682: +42.7 Y400,6 <= +189.6
 c6683: +26.8 Y401,0 <= +127.4
 c6684: +26.8 Y401,1 <= +89.3
 c6685: +26.8 Y401,2 <= +127.3
 c6686: +26.8 Y401,3 <= +104.2
 c6687: +26.8 Y401,4 <= +65.3
 c6688: +26.8 Y401,5 <= +119.6
 c6689: +26.8 Y401,6 <= +189.6
 c6690: +54.4 Y402,0 <= +127.4
 c6691: +54.4 Y402,1 <= +89.3
 c6692: +54.4 Y402,2 <= +127.3
 c6693: +54.4 Y402,3 <= +104.2
 c6694: +54.4 Y402,4 <= +65.3
 c6695: +54.4 Y402,5 <= +119.6
 c6696: +54.4 Y402,6 <= +189.6
 c6697: +38.5 Y403,0 <= +127.4
 c6698: +38.5 Y403,1 <= +89.3
 c6699: +38.5 Y403,2 <= +127.3
 c6700: +38.5 Y403,3 <= +104.2
 c6701: +38.5 Y403,4 <= +65.3
 c6702: +38.5 Y403,5 <= +119.6
 c6703: +38.5 Y403,6 <= +189.6
 c6704: +37.7 Y404,0 <= +127.4
 c6705: +37.7 Y404,1 <= +89.3
 c6706: +37.7 Y404,2 <= +127.3
 c6707: +37.7 Y404,3 <= +104.2
 c6708: +37.7 Y404,4 <= +65.3
 c6709: +37.7 Y404,5 <= +119.6
 c6710: +37.7 Y404,6 <= +189.6
 c6711: +56.8 Y405,0 <= +127.4
 c6712: +56.8 Y405,1 <= +89.3
 c6713: +56.8 Y405,2 <= +127.3
 c6714: +56.8 Y405,3 <= +104.2
 c6715: +56.8 Y405,4 <= +65.3
 c6716: +56.8 Y405,5 <= +119.6
 c6717: +56.8 Y405,6 <= +189.6
 c6718: +56 Y406,0 <= +127.4
 c6719: +56 Y406,1 <= +89.3
 c6720: +56 Y406,2 <= +127.3
 c6721: +56 Y406,3 <= +104.2
 c6722: +56 Y406,4 <= +65.3
 c6723: +56 Y406,5 <= +119.6
 c6724: +56 Y406,6 <= +189.6
 c6725: +40.1 Y407,0 <= +127.4
 c6726: +40.1 Y407,1 <= +89.3
 c6727: +40.1 Y407,2 <= +127.3
 c6728: +40.1 Y407,3 <= +104.2
 c6729: +40.1 Y407,4 <= +65.3
 c6730: +40.1 Y407,5 <= +119.6
 c6731: +40.1 Y407,6 <= +189.6
 c6732: +42.9 Y408,0 <= +127.4
 c6733: +42.9 Y408,1 <= +89.3
 c6734: +42.9 Y408,2 <= +127.3
 c6735: +42.9 Y408,3 <= +104.2
 c6736: +42.9 Y408,4 <= +65.3
 c6737: +42.9 Y408,5 <= +119.6
 c6738: +42.9 Y408,6 <= +189.6
 c6739: +42.1 Y409,0 <= +127.4
 c6740: +42.1 Y409,1 <= +89.3
 c6741: +42.1 Y409,2 <= +127.3
 c6742: +42.1 Y409,3 <= +104.2
 c6743: +42.1 Y409,4 <= +65.3
 c6744: +42.1 Y409,5 <= +119.6
 c6745: +42.1 Y409,6 <= +189.6
 c6746: +26.2 Y410,0 <= +127.4
 c6747: +26.2 Y410,1 <= +89.3
 c6748: +26.2 Y410,2 <= +127.3
 c6749: +26.2 Y410,3 <= +104.2
 c6750: +26.2 Y410,4 <= +65.3
 c6751: +26.2 Y410,5 <= +119.6
 c6752: +26.2 Y410,6 <= +189.6
 c6753: +44.5 Y411,0 <= +127.4
 c6754: +44.5 Y411,1 <= +89.3
 c6755: +44.5 Y411,2 <= +127.3
 c6756: +44.5 Y411,3 <= +104.2
 c6757: +44.5 Y411,4 <= +65.3
 c6758: +44.5 Y411,5 <= +119.6
 c6759: +44.5 Y411,6 <= +189.6
 c6760: +60.5 Y412,0 <= +127.4
 c6761: +60.5 Y412,1 <= +89.3
 c6762: +60.5 Y412,2 <= +127.3
 c6763: +60.5 Y412,3 <= +104.2
 c6764: +60.5 Y412,4 <= +65.3
 c6765: +60.5 Y412,5 <= +119.6
 c6766: +60.5 Y412,6 <= +189.6
 c6767: +78.8 Y413,0 <= +127.4
 c6768: +78.8 Y413,1 <= +89.3
 c6769: +78.8 Y413,2 <= +127.3
 c6770: +78.8 Y413,3 <= +104.2
 c6771: +78.8 Y413,4 <= +65.3
 c6772: +78.8 Y413,5 <= +119.6
 c6773: +78.8 Y413,6 <= +189.6
 c6774: +62.9 Y414,0 <= +127.4
 c6775: +62.9 Y414,1 <= +89.3
 c6776: +62.9 Y414,2 <= +127.3
 c6777: +62.9 Y414,3 <= +104.2
 c6778: +62.9 Y414,4 <= +65.3
 c6779: +62.9 Y414,5 <= +119.6
 c6780: +62.9 Y414,6 <= +189.6
 c6781: +62.1 Y415,0 <= +127.4
 c6782: +62.1 Y415,1 <= +89.3
 c6783: +62.1 Y415,2 <= +127.3
 c6784: +62.1 Y415,3 <= +104.2
 c6785: +62.1 Y415,4 <= +65.3
 c6786: +62.1 Y415,5 <= +119.6
 c6787: +62.1 Y415,6 <= +189.6
 c6788: +64.9 Y416,0 <= +127.4
 c6789: +64.9 Y416,1 <= +89.3
 c6790: +64.9 Y416,2 <= +127.3
 c6791: +64.9 Y416,3 <= +104.2
 c6792: +64.9 Y416,4 <= +65.3
 c6793: +64.9 Y416,5 <= +119.6
 c6794: +64.9 Y416,6 <= +189.6
 c6795: +49 Y417,0 <= +127.4
 c6796: +49 Y417,1 <= +89.3
 c6797: +49 Y417,2 <= +127.3
 c6798: +49 Y417,3 <= +104.2
 c6799: +49 Y417,4 <= +65.3
 c6800: +49 Y417,5 <= +119.6
 c6801: +49 Y417,6 <= +189.6
 c6802: +48.2 Y418,0 <= +127.4
 c6803: +48.2 Y418,1 <= +89.3
 c6804: +48.2 Y418,2 <= +127.3
 c6805: +48.2 Y418,3 <= +104.2
 c6806: +48.2 Y418,4 <= +65.3
 c6807: +48.2 Y418,5 <= +119.6
 c6808: +48.2 Y418,6 <= +189.6
 c6809: +67.3 Y419,0 <= +127.4
 c6810: +67.3 Y419,1 <= +89.3
 c6811: +67.3 Y419,2 <= +127.3
 c6812: +67.3 Y419,3 <= +104.2
 c6813: +67.3 Y419,4 <= +65.3
 c6814: +67.3 Y419,5 <= +119.6
 c6815: +67.3 Y419,6 <= +189.6
 c6816: +66.5 Y420,0 <= +127.4
 c6817: +66.5 Y420,1 <= +89.3
 c6818: +66.5 Y420,2 <= +127.3
 c6819: +66.5 Y420,3 <= +104.2
 c6820: +66.5 Y420,4 <= +65.3
 c6821: +66.5 Y420,5 <= +119.6
 c6822: +66.5 Y420,6 <= +189.6
 c6823: +50.6 Y421,0 <= +127.4
 c6824: +50.6 Y421,1 <= +89.3
 c6825: +50.6 Y421,2 <= +127.3
 c6826: +50.6 Y421,3 <= +104.2
 c6827: +50.6 Y421,4 <= +65.3
 c6828: +50.6 Y421,5 <= +119.6
 c6829: +50.6 Y421,6 <= +189.6
 c6830: +78.2 Y422,0 <= +127.4
 c6831: +78.2 Y422,1 <= +89.3
 c6832: +78.2 Y422,2 <= +127.3
 c6833: +78.2 Y422,3 <= +104.2
 c6834: +78.2 Y422,4 <= +65.3
 c6835: +78.2 Y422,5 <= +119.6
 c6836: +78.2 Y422,6 <= +189.6
 c6837: +62.3 Y423,0 <= +127.4
 c6838: +62.3 Y423,1 <= +89.3
 c6839: +62.3 Y423,2 <= +127.3
 c6840: +62.3 Y423,3 <= +104.2
 c6841: +62.3 Y423,4 <= +65.3
 c6842: +62.3 Y423,5 <= +119.6
 c6843: +62.3 Y423,6 <= +189.6
 c6844: +61.5 Y424,0 <= +127.4
 c6845: +61.5 Y424,1 <= +89.3
 c6846: +61.5 Y424,2 <= +127.3
 c6847: +61.5 Y424,3 <= +104.2
 c6848: +61.5 Y424,4 <= +65.3
 c6849: +61.5 Y424,5 <= +119.6
 c6850: +61.5 Y424,6 <= +189.6
 c6851: +80.6 Y425,0 <= +127.4
 c6852: +80.6 Y425,1 <= +89.3
 c6853: +80.6 Y425,2 <= +127.3
 c6854: +80.6 Y425,3 <= +104.2
 c6855: +80.6 Y425,4 <= +65.3
 c6856: +80.6 Y425,5 <= +119.6
 c6857: +80.6 Y425,6 <= +189.6
 c6858: +79.8 Y426,0 <= +127.4
 c6859: +79.8 Y426,1 <= +89.3
 c6860: +79.8 Y426,2 <= +127.3
 c6861: +79.8 Y426,3 <= +104.2
 c6862: +79.8 Y426,4 <= +65.3
 c6863: +79.8 Y426,5 <= +119.6
 c6864: +79.8 Y426,6 <= +189.6
 c6865: +63.9 Y427,0 <= +127.4
 c6866: +63.9 Y427,1 <= +89.3
 c6867: +63.9 Y427,2 <= +127.3
 c6868: +63.9 Y427,3 <= +104.2
 c6869: +63.9 Y427,4 <= +65.3
 c6870: +63.9 Y427,5 <= +119.6
 c6871: +63.9 Y427,6 <= +189.6
 c6872: +66.7 Y428,0 <= +127.4
 c6873: +66.7 Y428,1 <= +89.3
 c6874: +66.7 Y428,2 <= +127.3
 c6875: +66.7 Y428,3 <= +104.2
 c6876: +66.7 Y428,4 <= +65.3
 c6877: +66.7 Y428,5 <= +119.6
 c6878: +66.7 Y428,6 <= +189.6
 c6879: +65.9 Y429,0 <= +127.4
 c6880: +65.9 Y429,1 <= +89.3
 c6881: +65.9 Y429,2 <= +127.3
 c6882: +65.9 Y429,3 <= +104.2
 c6883: +65.9 Y429,4 <= +65.3
 c6884: +65.9 Y429,5 <= +119.6
 c6885: +65.9 Y429,6 <= +189.6
 c6886: +50 Y430,0 <= +127.4
 c6887: +50 Y430,1 <= +89.3
 c6888: +50 Y430,2 <= +127.3
 c6889: +50 Y430,3 <= +104.2
 c6890: +50 Y430,4 <= +65.3
 c6891: +50 Y430,5 <= +119.6
 c6892: +50 Y430,6 <= +189.6
 c6893: +68.3 Y431,0 <= +127.4
 c6894: +68.3 Y431,1 <= +89.3
 c6895: +68.3 Y431,2 <= +127.3
 c6896: +68.3 Y431,3 <= +104.2
 c6897: +68.3 Y431,4 <= +65.3
 c6898: +68.3 Y431,5 <= +119.6
 c6899: +68.3 Y431,6 <= +189.6
 c6900: +62.4 Y432,0 <= +127.4
 c6901: +62.4 Y432,1 <= +89.3
 c6902: +62.4 Y432,2 <= +127.3
 c6903: +62.4 Y432,3 <= +104.2
 c6904: +62.4 Y432,4 <= +65.3
 c6905: +62.4 Y432,5 <= +119.6
 c6906: +62.4 Y432,6 <= +189.6
 c6907: +46.5 Y433,0 <= +127.4
 c6908: +46.5 Y433,1 <= +89.3
 c6909: +46.5 Y433,2 <= +127.3
 c6910: +46.5 Y433,3 <= +104.2
 c6911: +46.5 Y433,4 <= +65.3
 c6912: +46.5 Y433,5 <= +119.6
 c6913: +46.5 Y433,6 <= +189.6
 c6914: +45.7 Y434,0 <= +127.4
 c6915: +45.7 Y434,1 <= +89.3
 c6916: +45.7 Y434,2 <= +127.3
 c6917: +45.7 Y434,3 <= +104.2
 c6918: +45.7 Y434,4 <= +65.3
 c6919: +45.7 Y434,5 <= +119.6
 c6920: +45.7 Y434,6 <= +189.6
 c6921: +64.8 Y435,0 <= +127.4
 c6922: +64.8 Y435,1 <= +89.3
 c6923: +64.8 Y435,2 <= +127.3
 c6924: +64.8 Y435,3 <= +104.2
 c6925: +64.8 Y435,4 <= +65.3
 c6926: +64.8 Y435,5 <= +119.6
 c6927: +64.8 Y435,6 <= +189.6
 c6928: +64 Y436,0 <= +127.4
 c6929: +64 Y436,1 <= +89.3
 c6930: +64 Y436,2 <= +127.3
 c6931: +64 Y436,3 <= +104.2
 c6932: +64 Y436,4 <= +65.3
 c6933: +64 Y436,5 <= +119.6
 c6934: +64 Y436,6 <= +189.6
 c6935: +48.1 Y437,0 <= +127.4
 c6936: +48.1 Y437,1 <= +89.3
 c6937: +48.1 Y437,2 <= +127.3
 c6938: +48.1 Y437,3 <= +104.2
 c6939: +48.1 Y437,4 <= +65.3
 c6940: +48.1 Y437,5 <= +119.6
 c6941: +48.1 Y437,6 <= +189.6
 c6942: +50.9 Y438,0 <= +127.4
 c6943: +50.9 Y438,1 <= +89.3
 c6944: +50.9 Y438,2 <= +127.3
 c6945: +50.9 Y438,3 <= +104.2
 c6946: +50.9 Y438,4 <= +65.3
 c6947: +50.9 Y438,5 <= +119.6
 c6948: +50.9 Y438,6 <= +189.6
 c6949: +50.1 Y439,0 <= +127.4
 c6950: +50.1 Y439,1 <= +89.3
 c6951: +50.1 Y439,2 <= +127.3
 c6952: +50.1 Y439,3 <= +104.2
 c6953: +50.1 Y439,4 <= +65.3
 c6954: +50.1 Y439,5 <= +119.6
 c6955: +50.1 Y439,6 <= +189.6
 c6956: +34.2 Y440,0 <= +127.4
 c6957: +34.2 Y440,1 <= +89.3
 c6958: +34.2 Y440,2 <= +127.3
 c6959: +34.2 Y440,3 <= +104.2
 c6960: +34.2 Y440,4 <= +65.3
 c6961: +34.2 Y440,5 <= +119.6
 c6962: +34.2 Y440,6 <= +189.6
 c6963: +52.5 Y441,0 <= +127.4
 c6964: +52.5 Y441,1 <= +89.3
 c6965: +52.5 Y441,2 <= +127.3
 c6966: +52.5 Y441,3 <= +104.2
 c6967: +52.5 Y441,4 <= +65.3
 c6968: +52.5 Y441,5 <= +119.6
 c6969: +52.5 Y441,6 <= +189.6
 c6970: +64.2 Y442,0 <= +127.4
 c6971: +64.2 Y442,1 <= +89.3
 c6972: +64.2 Y442,2 <= +127.3
 c6973: +64.2 Y442,3 <= +104.2
 c6974: +64.2 Y442,4 <= +65.3
 c6975: +64.2 Y442,5 <= +119.6
 c6976: +64.2 Y442,6 <= +189.6
 c6977: +63.4 Y443,0 <= +127.4
 c6978: +63.4 Y443,1 <= +89.3
 c6979: +63.4 Y443,2 <= +127.3
 c6980: +63.4 Y443,3 <= +104.2
 c6981: +63.4 Y443,4 <= +65.3
 c6982: +63.4 Y443,5 <= +119.6
 c6983: +63.4 Y443,6 <= +189.6
 c6984: +47.5 Y444,0 <= +127.4
 c6985: +47.5 Y444,1 <= +89.3
 c6986: +47.5 Y444,2 <= +127.3
 c6987: +47.5 Y444,3 <= +104.2
 c6988: +47.5 Y444,4 <= +65.3
 c6989: +47.5 Y444,5 <= +119.6
 c6990: +47.5 Y444,6 <= +189.6
 c6991: +65.8 Y445,0 <= +127.4
 c6992: +65.8 Y445,1 <= +89.3
 c6993: +65.8 Y445,2 <= +127.3
 c6994: +65.8 Y445,3 <= +104.2
 c6995: +65.8 Y445,4 <= +65.3
 c6996: +65.8 Y445,5 <= +119.6
 c6997: +65.8 Y445,6 <= +189.6
 c6998: +51.9 Y446,0 <= +127.4
 c6999: +51.9 Y446,1 <= +89.3
 c7000: +51.9 Y446,2 <= +127.3
 c7001: +51.9 Y446,3 <= +104.2
 c7002: +51.9 Y446,4 <= +65.3
 c7003: +51.9 Y446,5 <= +119.6
 c7004: +51.9 Y446,6 <= +189.6
 c7005: +86.2 Y447,0 <= +127.4
 c7006: +86.2 Y447,1 <= +89.3
 c7007: +86.2 Y447,2 <= +127.3
 c7008: +86.2 Y447,3 <= +104.2
 c7009: +86.2 Y447,4 <= +65.3
 c7010: +86.2 Y447,5 <= +119.6
 c7011: +86.2 Y447,6 <= +189.6
 c7012: +70.3 Y448,0 <= +127.4
 c7013: +70.3 Y448,1 <= +89.3
 c7014: +70.3 Y448,2 <= +127.3
 c7015: +70.3 Y448,3 <= +104.2
 c7016: +70.3 Y448,4 <= +65.3
 c7017: +70.3 Y448,5 <= +119.6
 c7018: +70.3 Y448,6 <= +189.6
 c7019: +69.5 Y449,0 <= +127.4
 c7020: +69.5 Y449,1 <= +89.3
 c7021: +69.5 Y449,2 <= +127.3
 c7022: +69.5 Y449,3 <= +104.2
 c7023: +69.5 Y449,4 <= +65.3
 c7024: +69.5 Y449,5 <= +119.6
 c7025: +69.5 Y449,6 <= +189.6
 c7026: +88.6 Y450,0 <= +127.4
 c7027: +88.6 Y450,1 <= +89.3
 c7028: +88.6 Y450,2 <= +127.3
 c7029: +88.6 Y450,3 <= +104.2
 c7030: +88.6 Y450,4 <= +65.3
 c7031: +88.6 Y450,5 <= +119.6
 c7032: +88.6 Y450,6 <= +189.6
 c7033: +87.8 Y451,0 <= +127.4
 c7034: +87.8 Y451,1 <= +89.3
 c7035: +87.8 Y451,2 <= +127.3
 c7036: +87.8 Y451,3 <= +104.2
 c7037: +87.8 Y451,4 <= +65.3
 c7038: +87.8 Y451,5 <= +119.6
 c7039: +87.8 Y451,6 <= +189.6
 c7040: +71.9 Y452,0 <= +127.4
 c7041: +71.9 Y452,1 <= +89.3
 c7042: +71.9 Y452,2 <= +127.3
 c7043: +71.9 Y452,3 <= +104.2
 c7044: +71.9 Y452,4 <= +65.3
 c7045: +71.9 Y452,5 <= +119.6
 c7046: +71.9 Y452,6 <= +189.6
 c7047: +74.7 Y453,0 <= +127.4
 c7048: +74.7 Y453,1 <= +89.3
 c7049: +74.7 Y453,2 <= +127.3
 c7050: +74.7 Y453,3 <= +104.2
 c7051: +74.7 Y453,4 <= +65.3
 c7052: +74.7 Y453,5 <= +119.6
 c7053: +74.7 Y453,6 <= +189.6
 c7054: +73.9 Y454,0 <= +127.4
 c7055: +73.9 Y454,1 <= +89.3
 c7056: +73.9 Y454,2 <= +127.3
 c7057: +73.9 Y454,3 <= +104.2
 c7058: +73.9 Y454,4 <= +65.3
 c7059: +73.9 Y454,5 <= +119.6
 c7060: +73.9 Y454,6 <= +189.6
 c7061: +58 Y455,0 <= +127.4
 c7062: +58 Y455,1 <= +89.3
 c7063: +58 Y455,2 <= +127.3
 c7064: +58 Y455,3 <= +104.2
 c7065: +58 Y455,4 <= +65.3
 c7066: +58 Y455,5 <= +119.6
 c7067: +58 Y455,6 <= +189.6
 c7068: +76.3 Y456,0 <= +127.4
 c7069: +76.3 Y456,1 <= +89.3
 c7070: +76.3 Y456,2 <= +127.3
 c7071: +76.3 Y456,3 <= +104.2
 c7072: +76.3 Y456,4 <= +65.3
 c7073: +76.3 Y456,5 <= +119.6
 c7074: +76.3 Y456,6 <= +189.6
 c7075: +88 Y457,0 <= +127.4
 c7076: +88 Y457,1 <= +89.3
 c7077: +88 Y457,2 <= +127.3
 c7078: +88 Y457,3 <= +104.2
 c7079: +88 Y457,4 <= +65.3
 c7080: +88 Y457,5 <= +119.6
 c7081: +88 Y457,6 <= +189.6
 c7082: +87.2 Y458,0 <= +127.4
 c7083: +87.2 Y458,1 <= +89.3
 c7084: +87.2 Y458,2 <= +127.3
 c7085: +87.2 Y458,3 <= +104.2
 c7086: +87.2 Y458,4 <= +65.3
 c7087: +87.2 Y458,5 <= +119.6
 c7088: +87.2 Y458,6 <= +189.6
 c7089: +71.3 Y459,0 <= +127.4
 c7090: +71.3 Y459,1 <= +89.3
 c7091: +71.3 Y459,2 <= +127.3
 c7092: +71.3 Y459,3 <= +104.2
 c7093: +71.3 Y459,4 <= +65.3
 c7094: +71.3 Y459,5 <= +119.6
 c7095: +71.3 Y459,6 <= +189.6
 c7096: +89.6 Y460,0 <= +127.4
 c7097: +89.6 Y460,1 <= +89.3
 c7098: +89.6 Y460,2 <= +127.3
 c7099: +89.6 Y460,3 <= +104.2
 c7100: +89.6 Y460,4 <= +65.3
 c7101: +89.6 Y460,5 <= +119.6
 c7102: +89.6 Y460,6 <= +189.6
 c7103: +75.7 Y461,0 <= +127.4
 c7104: +75.7 Y461,1 <= +89.3
 c7105: +75.7 Y461,2 <= +127.3
 c7106: +75.7 Y461,3 <= +104.2
 c7107: +75.7 Y461,4 <= +65.3
 c7108: +75.7 Y461,5 <= +119.6
 c7109: +75.7 Y461,6 <= +189.6
 c7110: +72.2 Y462,0 <= +127.4
 c7111: +72.2 Y462,1 <= +89.3
 c7112: +72.2 Y462,2 <= +127.3
 c7113: +72.2 Y462,3 <= +104.2
 c7114: +72.2 Y462,4 <= +65.3
 c7115: +72.2 Y462,5 <= +119.6
 c7116: +72.2 Y462,6 <= +189.6
 c7117: +71.4 Y463,0 <= +127.4
 c7118: +71.4 Y463,1 <= +89.3
 c7119: +71.4 Y463,2 <= +127.3
 c7120: +71.4 Y463,3 <= +104.2
 c7121: +71.4 Y463,4 <= +65.3
 c7122: +71.4 Y463,5 <= +119.6
 c7123: +71.4 Y463,6 <= +189.6
 c7124: +55.5 Y464,0 <= +127.4
 c7125: +55.5 Y464,1 <= +89.3
 c7126: +55.5 Y464,2 <= +127.3
 c7127: +55.5 Y464,3 <= +104.2
 c7128: +55.5 Y464,4 <= +65.3
 c7129: +55.5 Y464,5 <= +119.6
 c7130: +55.5 Y464,6 <= +189.6
 c7131: +73.8 Y465,0 <= +127.4
 c7132: +73.8 Y465,1 <= +89.3
 c7133: +73.8 Y465,2 <= +127.3
 c7134: +73.8 Y465,3 <= +104.2
 c7135: +73.8 Y465,4 <= +65.3
 c7136: +73.8 Y465,5 <= +119.6
 c7137: +73.8 Y465,6 <= +189.6
 c7138: +59.9 Y466,0 <= +127.4
 c7139: +59.9 Y466,1 <= +89.3
 c7140: +59.9 Y466,2 <= +127.3
 c7141: +59.9 Y466,3 <= +104.2
 c7142: +59.9 Y466,4 <= +65.3
 c7143: +59.9 Y466,5 <= +119.6
 c7144: +59.9 Y466,6 <= +189.6
 c7145: +73.2 Y467,0 <= +127.4
 c7146: +73.2 Y467,1 <= +89.3
 c7147: +73.2 Y467,2 <= +127.3
 c7148: +73.2 Y467,3 <= +104.2
 c7149: +73.2 Y467,4 <= +65.3
 c7150: +73.2 Y467,5 <= +119.6
 c7151: +73.2 Y467,6 <= +189.6
 c7152: +96 Y468,0 <= +127.4
 c7153: +96 Y468,1 <= +89.3
 c7154: +96 Y468,2 <= +127.3
 c7155: +96 Y468,3 <= +104.2
 c7156: +96 Y468,4 <= +65.3
 c7157: +96 Y468,5 <= +119.6
 c7158: +96 Y468,6 <= +189.6
 c7159: +95.2 Y469,0 <= +127.4
 c7160: +95.2 Y469,1 <= +89.3
 c7161: +95.2 Y469,2 <= +127.3
 c7162: +95.2 Y469,3 <= +104.2
 c7163: +95.2 Y469,4 <= +65.3
 c7164: +95.2 Y469,5 <= +119.6
 c7165: +95.2 Y469,6 <= +189.6
 c7166: +79.3 Y470,0 <= +127.4
 c7167: +79.3 Y470,1 <= +89.3
 c7168: +79.3 Y470,2 <= +127.3
 c7169: +79.3 Y470,3 <= +104.2
 c7170: +79.3 Y470,4 <= +65.3
 c7171: +79.3 Y470,5 <= +119.6
 c7172: +79.3 Y470,6 <= +189.6
 c7173: +97.6 Y471,0 <= +127.4
 c7174: +97.6 Y471,1 <= +89.3
 c7175: +97.6 Y471,2 <= +127.3
 c7176: +97.6 Y471,3 <= +104.2
 c7177: +97.6 Y471,4 <= +65.3
 c7178: +97.6 Y471,5 <= +119.6
 c7179: +97.6 Y471,6 <= +189.6
 c7180: +83.7 Y472,0 <= +127.4
 c7181: +83.7 Y472,1 <= +89.3
 c7182: +83.7 Y472,2 <= +127.3
 c7183: +83.7 Y472,3 <= +104.2
 c7184: +83.7 Y472,4 <= +65.3
 c7185: +83.7 Y472,5 <= +119.6
 c7186: +83.7 Y472,6 <= +189.6
 c7187: +97 Y473,0 <= +127.4
 c7188: +97 Y473,1 <= +89.3
 c7189: +97 Y473,2 <= +127.3
 c7190: +97 Y473,3 <= +104.2
 c7191: +97 Y473,4 <= +65.3
 c7192: +97 Y473,5 <= +119.6
 c7193: +97 Y473,6 <= +189.6
 c7194: +81.2 Y474,0 <= +127.4
 c7195: +81.2 Y474,1 <= +89.3
 c7196: +81.2 Y474,2 <= +127.3
 c7197: +81.2 Y474,3 <= +104.2
 c7198: +81.2 Y474,4 <= +65.3
 c7199: +81.2 Y474,5 <= +119.6
 c7200: +81.2 Y474,6 <= +189.6
 c7201: +105 Y475,0 <= +127.4
 c7202: +105 Y475,1 <= +89.3
 c7203: +105 Y475,2 <= +127.3
 c7204: +105 Y475,3 <= +104.2
 c7205: +105 Y475,4 <= +65.3
 c7206: +105 Y475,5 <= +119.6
 c7207: +105 Y475,6 <= +189.6
 c7208: +3.5 Y476,0 <= +127.4
 c7209: +3.5 Y476,1 <= +89.3
 c7210: +3.5 Y476,2 <= +127.3
 c7211: +3.5 Y476,3 <= +104.2
 c7212: +3.5 Y476,4 <= +65.3
 c7213: +3.5 Y476,5 <= +119.6
 c7214: +3.5 Y476,6 <= +189.6
 c7215: +4 Y477,0 <= +127.4
 c7216: +4 Y477,1 <= +89.3
 c7217: +4 Y477,2 <= +127.3
 c7218: +4 Y477,3 <= +104.2
 c7219: +4 Y477,4 <= +65.3
 c7220: +4 Y477,5 <= +119.6
 c7221: +4 Y477,6 <= +189.6
 c7222: +4.8 Y478,0 <= +127.4
 c7223: +4.8 Y478,1 <= +89.3
 c7224: +4.8 Y478,2 <= +127.3
 c7225: +4.8 Y478,3 <= +104.2
 c7226: +4.8 Y478,4 <= +65.3
 c7227: +4.8 Y478,5 <= +119.6
 c7228: +4.8 Y478,6 <= +189.6
 c7229: +6.1 Y479,0 <= +127.4
 c7230: +6.1 Y479,1 <= +89.3
 c7231: +6.1 Y479,2 <= +127.3
 c7232: +6.1 Y479,3 <= +104.2
 c7233: +6.1 Y479,4 <= +65.3
 c7234: +6.1 Y479,5 <= +119.6
 c7235: +6.1 Y479,6 <= +189.6
 c7236: +28.3 Y480,0 <= +127.4
 c7237: +28.3 Y480,1 <= +89.3
 c7238: +28.3 Y480,2 <= +127.3
 c7239: +28.3 Y480,3 <= +104.2
 c7240: +28.3 Y480,4 <= +65.3
 c7241: +28.3 Y480,5 <= +119.6
 c7242: +28.3 Y480,6 <= +189.6
 c7243: +27.8 Y481,0 <= +127.4
 c7244: +27.8 Y481,1 <= +89.3
 c7245: +27.8 Y481,2 <= +127.3
 c7246: +27.8 Y481,3 <= +104.2
 c7247: +27.8 Y481,4 <= +65.3
 c7248: +27.8 Y481,5 <= +119.6
 c7249: +27.8 Y481,6 <= +189.6
 c7250: +7.5 Y482,0 <= +127.4
 c7251: +7.5 Y482,1 <= +89.3
 c7252: +7.5 Y482,2 <= +127.3
 c7253: +7.5 Y482,3 <= +104.2
 c7254: +7.5 Y482,4 <= +65.3
 c7255: +7.5 Y482,5 <= +119.6
 c7256: +7.5 Y482,6 <= +189.6
 c7257: +8.3 Y483,0 <= +127.4
 c7258: +8.3 Y483,1 <= +89.3
 c7259: +8.3 Y483,2 <= +127.3
 c7260: +8.3 Y483,3 <= +104.2
 c7261: +8.3 Y483,4 <= +65.3
 c7262: +8.3 Y483,5 <= +119.6
 c7263: +8.3 Y483,6 <= +189.6
 c7264: +9.6 Y484,0 <= +127.4
 c7265: +9.6 Y484,1 <= +89.3
 c7266: +9.6 Y484,2 <= +127.3
 c7267: +9.6 Y484,3 <= +104.2
 c7268: +9.6 Y484,4 <= +65.3
 c7269: +9.6 Y484,5 <= +119.6
 c7270: +9.6 Y484,6 <= +189.6
 c7271: +31.8 Y485,0 <= +127.4
 c7272: +31.8 Y485,1 <= +89.3
 c7273: +31.8 Y485,2 <= +127.3
 c7274: +31.8 Y485,3 <= +104.2
 c7275: +31.8 Y485,4 <= +65.3
 c7276: +31.8 Y485,5 <= +119.6
 c7277: +31.8 Y485,6 <= +189.6
 c7278: +31.3 Y486,0 <= +127.4
 c7279: +31.3 Y486,1 <= +89.3
 c7280: +31.3 Y486,2 <= +127.3
 c7281: +31.3 Y486,3 <= +104.2
 c7282: +31.3 Y486,4 <= +65.3
 c7283: +31.3 Y486,5 <= +119.6
 c7284: +31.3 Y486,6 <= +189.6
 c7285: +8.8 Y487,0 <= +127.4
 c7286: +8.8 Y487,1 <= +89.3
 c7287: +8.8 Y487,2 <= +127.3
 c7288: +8.8 Y487,3 <= +104.2
 c7289: +8.8 Y487,4 <= +65.3
 c7290: +8.8 Y487,5 <= +119.6
 c7291: +8.8 Y487,6 <= +189.6
 c7292: +10.1 Y488,0 <= +127.4
 c7293: +10.1 Y488,1 <= +89.3
 c7294: +10.1 Y488,2 <= +127.3
 c7295: +10.1 Y488,3 <= +104.2
 c7296: +10.1 Y488,4 <= +65.3
 c7297: +10.1 Y488,5 <= +119.6
 c7298: +10.1 Y488,6 <= +189.6
 c7299: +32.3 Y489,0 <= +127.4
 c7300: +32.3 Y489,1 <= +89.3
 c7301: +32.3 Y489,2 <= +127.3
 c7302: +32.3 Y489,3 <= +104.2
 c7303: +32.3 Y489,4 <= +65.3
 c7304: +32.3 Y489,5 <= +119.6
 c7305: +32.3 Y489,6 <= +189.6
 c7306: +31.8 Y490,0 <= +127.4
 c7307: +31.8 Y490,1 <= +89.3
 c7308: +31.8 Y490,2 <= +127.3
 c7309: +31.8 Y490,3 <= +104.2
 c7310: +31.8 Y490,4 <= +65.3
 c7311: +31.8 Y490,5 <= +119.6
 c7312: +31.8 Y490,6 <= +189.6
 c7313: +10.9 Y491,0 <= +127.4
 c7314: +10.9 Y491,1 <= +89.3
 c7315: +10.9 Y491,2 <= +127.3
 c7316: +10.9 Y491,3 <= +104.2
 c7317: +10.9 Y491,4 <= +65.3
 c7318: +10.9 Y491,5 <= +119.6
 c7319: +10.9 Y491,6 <= +189.6
 c7320: +33.1 Y492,0 <= +127.4
 c7321: +33.1 Y492,1 <= +89.3
 c7322: +33.1 Y492,2 <= +127.3
 c7323: +33.1 Y492,3 <= +104.2
 c7324: +33.1 Y492,4 <= +65.3
 c7325: +33.1 Y492,5 <= +119.6
 c7326: +33.1 Y492,6 <= +189.6
 c7327: +32.6 Y493,0 <= +127.4
 c7328: +32.6 Y493,1 <= +89.3
 c7329: +32.6 Y493,2 <= +127.3
 c7330: +32.6 Y493,3 <= +104.2
 c7331: +32.6 Y493,4 <= +65.3
 c7332: +32.6 Y493,5 <= +119.6
 c7333: +32.6 Y493,6 <= +189.6
 c7334: +34.4 Y494,0 <= +127.4
 c7335: +34.4 Y494,1 <= +89.3
 c7336: +34.4 Y494,2 <= +127.3
 c7337: +34.4 Y494,3 <= +104.2
 c7338: +34.4 Y494,4 <= +65.3
 c7339: +34.4 Y494,5 <= +119.6
 c7340: +34.4 Y494,6 <= +189.6
 c7341: +33.9 Y495,0 <= +127.4
 c7342: +33.9 Y495,1 <= +89.3
 c7343: +33.9 Y495,2 <= +127.3
 c7344: +33.9 Y495,3 <= +104.2
 c7345: +33.9 Y495,4 <= +65.3
 c7346: +33.9 Y495,5 <= +119.6
 c7347: +33.9 Y495,6 <= +189.6
 c7348: +56.1 Y496,0 <= +127.4
 c7349: +56.1 Y496,1 <= +89.3
 c7350: +56.1 Y496,2 <= +127.3
 c7351: +56.1 Y496,3 <= +104.2
 c7352: +56.1 Y496,4 <= +65.3
 c7353: +56.1 Y496,5 <= +119.6
 c7354: +56.1 Y496,6 <= +189.6
 c7355: +12.3 Y497,0 <= +127.4
 c7356: +12.3 Y497,1 <= +89.3
 c7357: +12.3 Y497,2 <= +127.3
 c7358: +12.3 Y497,3 <= +104.2
 c7359: +12.3 Y497,4 <= +65.3
 c7360: +12.3 Y497,5 <= +119.6
 c7361: +12.3 Y497,6 <= +189.6
 c7362: +13.6 Y498,0 <= +127.4
 c7363: +13.6 Y498,1 <= +89.3
 c7364: +13.6 Y498,2 <= +127.3
 c7365: +13.6 Y498,3 <= +104.2
 c7366: +13.6 Y498,4 <= +65.3
 c7367: +13.6 Y498,5 <= +119.6
 c7368: +13.6 Y498,6 <= +189.6
 c7369: +35.8 Y499,0 <= +127.4
 c7370: +35.8 Y499,1 <= +89.3
 c7371: +35.8 Y499,2 <= +127.3
 c7372: +35.8 Y499,3 <= +104.2
 c7373: +35.8 Y499,4 <= +65.3
 c7374: +35.8 Y499,5 <= +119.6
 c7375: +35.8 Y499,6 <= +189.6
 c7376: +35.3 Y500,0 <= +127.4
 c7377: +35.3 Y500,1 <= +89.3
 c7378: +35.3 Y500,2 <= +127.3
 c7379: +35.3 Y500,3 <= +104.2
 c7380: +35.3 Y500,4 <= +65.3
 c7381: +35.3 Y500,5 <= +119.6
 c7382: +35.3 Y500,6 <= +189.6
 c7383: +14.4 Y501,0 <= +127.4
 c7384: +14.4 Y501,1 <= +89.3
 c7385: +14.4 Y501,2 <= +127.3
 c7386: +14.4 Y501,3 <= +104.2
 c7387: +14.4 Y501,4 <= +65.3
 c7388: +14.4 Y501,5 <= +119.6
 c7389: +14.4 Y501,6 <= +189.6
 c7390: +36.6 Y502,0 <= +127.4
 c7391: +36.6 Y502,1 <= +89.3
 c7392: +36.6 Y502,2 <= +127.3
 c7393: +36.6 Y502,3 <= +104.2
 c7394: +36.6 Y502,4 <= +65.3
 c7395: +36.6 Y502,5 <= +119.6
 c7396: +36.6 Y502,6 <= +189.6
 c7397: +36.1 Y503,0 <= +127.4
 c7398: +36.1 Y503,1 <= +89.3
 c7399: +36.1 Y503,2 <= +127.3
 c7400: +36.1 Y503,3 <= +104.2
 c7401: +36.1 Y503,4 <= +65.3
 c7402: +36.1 Y503,5 <= +119.6
 c7403: +36.1 Y503,6 <= +189.6
 c7404: +37.9 Y504,0 <= +127.4
 c7405: +37.9 Y504,1 <= +89.3
 c7406: +37.9 Y504,2 <= +127.3
 c7407: +37.9 Y504,3 <= +104.2
 c7408: +37.9 Y504,4 <= +65.3
 c7409: +37.9 Y504,5 <= +119.6
 c7410: +37.9 Y504,6 <= +189.6
 c7411: +37.4 Y505,0 <= +127.4
 c7412: +37.4 Y505,1 <= +89.3
 c7413: +37.4 Y505,2 <= +127.3
 c7414: +37.4 Y505,3 <= +104.2
 c7415: +37.4 Y505,4 <= +65.3
 c7416: +37.4 Y505,5 <= +119.6
 c7417: +37.4 Y505,6 <= +189.6
 c7418: +59.6 Y506,0 <= +127.4
 c7419: +59.6 Y506,1 <= +89.3
 c7420: +59.6 Y506,2 <= +127.3
 c7421: +59.6 Y506,3 <= +104.2
 c7422: +59.6 Y506,4 <= +65.3
 c7423: +59.6 Y506,5 <= +119.6
 c7424: +59.6 Y506,6 <= +189.6
 c7425: +14.9 Y507,0 <= +127.4
 c7426: +14.9 Y507,1 <= +89.3
 c7427: +14.9 Y507,2 <= +127.3
 c7428: +14.9 Y507,3 <= +104.2
 c7429: +14.9 Y507,4 <= +65.3
 c7430: +14.9 Y507,5 <= +119.6
 c7431: +14.9 Y507,6 <= +189.6
 c7432: +37.1 Y508,0 <= +127.4
 c7433: +37.1 Y508,1 <= +89.3
 c7434: +37.1 Y508,2 <= +127.3
 c7435: +37.1 Y508,3 <= +104.2
 c7436: +37.1 Y508,4 <= +65.3
 c7437: +37.1 Y508,5 <= +119.6
 c7438: +37.1 Y508,6 <= +189.6
 c7439: +36.6 Y509,0 <= +127.4
 c7440: +36.6 Y509,1 <= +89.3
 c7441: +36.6 Y509,2 <= +127.3
 c7442: +36.6 Y509,3 <= +104.2
 c7443: +36.6 Y509,4 <= +65.3
 c7444: +36.6 Y509,5 <= +119.6
 c7445: +36.6 Y509,6 <= +189.6
 c7446: +38.4 Y510,0 <= +127.4
 c7447: +38.4 Y510,1 <= +89.3
 c7448: +38.4 Y510,2 <= +127.3
 c7449: +38.4 Y510,3 <= +104.2
 c7450: +38.4 Y510,4 <= +65.3
 c7451: +38.4 Y510,5 <= +119.6
 c7452: +38.4 Y510,6 <= +189.6
 c7453: +37.9 Y511,0 <= +127.4
 c7454: +37.9 Y511,1 <= +89.3
 c7455: +37.9 Y511,2 <= +127.3
 c7456: +37.9 Y511,3 <= +104.2
 c7457: +37.9 Y511,4 <= +65.3
 c7458: +37.9 Y511,5 <= +119.6
 c7459: +37.9 Y511,6 <= +189.6
 c7460: +60.1 Y512,0 <= +127.4
 c7461: +60.1 Y512,1 <= +89.3
 c7462: +60.1 Y512,2 <= +127.3
 c7463: +60.1 Y512,3 <= +104.2
 c7464: +60.1 Y512,4 <= +65.3
 c7465: +60.1 Y512,5 <= +119.6
 c7466: +60.1 Y512,6 <= +189.6
 c7467: +39.2 Y513,0 <= +127.4
 c7468: +39.2 Y513,1 <= +89.3
 c7469: +39.2 Y513,2 <= +127.3
 c7470: +39.2 Y513,3 <= +104.2
 c7471: +39.2 Y513,4 <= +65.3
 c7472: +39.2 Y513,5 <= +119.6
 c7473: +39.2 Y513,6 <= +189.6
 c7474: +38.7 Y514,0 <= +127.4
 c7475: +38.7 Y514,1 <= +89.3
 c7476: +38.7 Y514,2 <= +127.3
 c7477: +38.7 Y514,3 <= +104.2
 c7478: +38.7 Y514,4 <= +65.3
 c7479: +38.7 Y514,5 <= +119.6
 c7480: +38.7 Y514,6 <= +189.6
 c7481: +60.9 Y515,0 <= +127.4
 c7482: +60.9 Y515,1 <= +89.3
 c7483: +60.9 Y515,2 <= +127.3
 c7484: +60.9 Y515,3 <= +104.2
 c7485: +60.9 Y515,4 <= +65.3
 c7486: +60.9 Y515,5 <= +119.6
 c7487: +60.9 Y515,6 <= +189.6
 c7488: +62.2 Y516,0 <= +127.4
 c7489: +62.2 Y516,1 <= +89.3
 c7490: +62.2 Y516,2 <= +127.3
 c7491: +62.2 Y516,3 <= +104.2
 c7492: +62.2 Y516,4 <= +65.3
 c7493: +62.2 Y516,5 <= +119.6
 c7494: +62.2 Y516,6 <= +189.6
 c7495: +18.4 Y517,0 <= +127.4
 c7496: +18.4 Y517,1 <= +89.3
 c7497: +18.4 Y517,2 <= +127.3
 c7498: +18.4 Y517,3 <= +104.2
 c7499: +18.4 Y517,4 <= +65.3
 c7500: +18.4 Y517,5 <= +119.6
 c7501: +18.4 Y517,6 <= +189.6
 c7502: +40.6 Y518,0 <= +127.4
 c7503: +40.6 Y518,1 <= +89.3
 c7504: +40.6 Y518,2 <= +127.3
 c7505: +40.6 Y518,3 <= +104.2
 c7506: +40.6 Y518,4 <= +65.3
 c7507: +40.6 Y518,5 <= +119.6
 c7508: +40.6 Y518,6 <= +189.6
 c7509: +40.1 Y519,0 <= +127.4
 c7510: +40.1 Y519,1 <= +89.3
 c7511: +40.1 Y519,2 <= +127.3
 c7512: +40.1 Y519,3 <= +104.2
 c7513: +40.1 Y519,4 <= +65.3
 c7514: +40.1 Y519,5 <= +119.6
 c7515: +40.1 Y519,6 <= +189.6
 c7516: +41.9 Y520,0 <= +127.4
 c7517: +41.9 Y520,1 <= +89.3
 c7518: +41.9 Y520,2 <= +127.3
 c7519: +41.9 Y520,3 <= +104.2
 c7520: +41.9 Y520,4 <= +65.3
 c7521: +41.9 Y520,5 <= +119.6
 c7522: +41.9 Y520,6 <= +189.6
 c7523: +41.4 Y521,0 <= +127.4
 c7524: +41.4 Y521,1 <= +89.3
 c7525: +41.4 Y521,2 <= +127.3
 c7526: +41.4 Y521,3 <= +104.2
 c7527: +41.4 Y521,4 <= +65.3
 c7528: +41.4 Y521,5 <= +119.6
 c7529: +41.4 Y521,6 <= +189.6
 c7530: +63.6 Y522,0 <= +127.4
 c7531: +63.6 Y522,1 <= +89.3
 c7532: +63.6 Y522,2 <= +127.3
 c7533: +63.6 Y522,3 <= +104.2
 c7534: +63.6 Y522,4 <= +65.3
 c7535: +63.6 Y522,5 <= +119.6
 c7536: +63.6 Y522,6 <= +189.6
 c7537: +42.7 Y523,0 <= +127.4
 c7538: +42.7 Y523,1 <= +89.3
 c7539: +42.7 Y523,2 <= +127.3
 c7540: +42.7 Y523,3 <= +104.2
 c7541: +42.7 Y523,4 <= +65.3
 c7542: +42.7 Y523,5 <= +119.6
 c7543: +42.7 Y523,6 <= +189.6
 c7544: +42.2 Y524,0 <= +127.4
 c7545: +42.2 Y524,1 <= +89.3
 c7546: +42.2 Y524,2 <= +127.3
 c7547: +42.2 Y524,3 <= +104.2
 c7548: +42.2 Y524,4 <= +65.3
 c7549: +42.2 Y524,5 <= +119.6
 c7550: +42.2 Y524,6 <= +189.6
 c7551: +64.4 Y525,0 <= +127.4
 c7552: +64.4 Y525,1 <= +89.3
 c7553: +64.4 Y525,2 <= +127.3
 c7554: +64.4 Y525,3 <= +104.2
 c7555: +64.4 Y525,4 <= +65.3
 c7556: +64.4 Y525,5 <= +119.6
 c7557: +64.4 Y525,6 <= +189.6
 c7558: +65.7 Y526,0 <= +127.4
 c7559: +65.7 Y526,1 <= +89.3
 c7560: +65.7 Y526,2 <= +127.3
 c7561: +65.7 Y526,3 <= +104.2
 c7562: +65.7 Y526,4 <= +65.3
 c7563: +65.7 Y526,5 <= +119.6
 c7564: +65.7 Y526,6 <= +189.6
 c7565: +43.2 Y527,0 <= +127.4
 c7566: +43.2 Y527,1 <= +89.3
 c7567: +43.2 Y527,2 <= +127.3
 c7568: +43.2 Y527,3 <= +104.2
 c7569: +43.2 Y527,4 <= +65.3
 c7570: +43.2 Y527,5 <= +119.6
 c7571: +43.2 Y527,6 <= +189.6
 c7572: +42.7 Y528,0 <= +127.4
 c7573: +42.7 Y528,1 <= +89.3
 c7574: +42.7 Y528,2 <= +127.3
 c7575: +42.7 Y528,3 <= +104.2
 c7576: +42.7 Y528,4 <= +65.3
 c7577: +42.7 Y528,5 <= +119.6
 c7578: +42.7 Y528,6 <= +189.6
 c7579: +64.9 Y529,0 <= +127.4
 c7580: +64.9 Y529,1 <= +89.3
 c7581: +64.9 Y529,2 <= +127.3
 c7582: +64.9 Y529,3 <= +104.2
 c7583: +64.9 Y529,4 <= +65.3
 c7584: +64.9 Y529,5 <= +119.6
 c7585: +64.9 Y529,6 <= +189.6
 c7586: +66.2 Y530,0 <= +127.4
 c7587: +66.2 Y530,1 <= +89.3
 c7588: +66.2 Y530,2 <= +127.3
 c7589: +66.2 Y530,3 <= +104.2
 c7590: +66.2 Y530,4 <= +65.3
 c7591: +66.2 Y530,5 <= +119.6
 c7592: +66.2 Y530,6 <= +189.6
 c7593: +67 Y531,0 <= +127.4
 c7594: +67 Y531,1 <= +89.3
 c7595: +67 Y531,2 <= +127.3
 c7596: +67 Y531,3 <= +104.2
 c7597: +67 Y531,4 <= +65.3
 c7598: +67 Y531,5 <= +119.6
 c7599: +67 Y531,6 <= +189.6
 c7600: +46.7 Y532,0 <= +127.4
 c7601: +46.7 Y532,1 <= +89.3
 c7602: +46.7 Y532,2 <= +127.3
 c7603: +46.7 Y532,3 <= +104.2
 c7604: +46.7 Y532,4 <= +65.3
 c7605: +46.7 Y532,5 <= +119.6
 c7606: +46.7 Y532,6 <= +189.6
 c7607: +46.2 Y533,0 <= +127.4
 c7608: +46.2 Y533,1 <= +89.3
 c7609: +46.2 Y533,2 <= +127.3
 c7610: +46.2 Y533,3 <= +104.2
 c7611: +46.2 Y533,4 <= +65.3
 c7612: +46.2 Y533,5 <= +119.6
 c7613: +46.2 Y533,6 <= +189.6
 c7614: +68.4 Y534,0 <= +127.4
 c7615: +68.4 Y534,1 <= +89.3
 c7616: +68.4 Y534,2 <= +127.3
 c7617: +68.4 Y534,3 <= +104.2
 c7618: +68.4 Y534,4 <= +65.3
 c7619: +68.4 Y534,5 <= +119.6
 c7620: +68.4 Y534,6 <= +189.6
 c7621: +69.7 Y535,0 <= +127.4
 c7622: +69.7 Y535,1 <= +89.3
 c7623: +69.7 Y535,2 <= +127.3
 c7624: +69.7 Y535,3 <= +104.2
 c7625: +69.7 Y535,4 <= +65.3
 c7626: +69.7 Y535,5 <= +119.6
 c7627: +69.7 Y535,6 <= +189.6
 c7628: +70.5 Y536,0 <= +127.4
 c7629: +70.5 Y536,1 <= +89.3
 c7630: +70.5 Y536,2 <= +127.3
 c7631: +70.5 Y536,3 <= +104.2
 c7632: +70.5 Y536,4 <= +65.3
 c7633: +70.5 Y536,5 <= +119.6
 c7634: +70.5 Y536,6 <= +189.6
 c7635: +71 Y537,0 <= +127.4
 c7636: +71 Y537,1 <= +89.3
 c7637: +71 Y537,2 <= +127.3
 c7638: +71 Y537,3 <= +104.2
 c7639: +71 Y537,4 <= +65.3
 c7640: +71 Y537,5 <= +119.6
 c7641: +71 Y537,6 <= +189.6
 c7642: +74.5 Y538,0 <= +127.4
 c7643: +74.5 Y538,1 <= +89.3
 c7644: +74.5 Y538,2 <= +127.3
 c7645: +74.5 Y538,3 <= +104.2
 c7646: +74.5 Y538,4 <= +65.3
 c7647: +74.5 Y538,5 <= +119.6
 c7648: +74.5 Y538,6 <= +189.6
 c7649: +15 Y539,0 <= +127.4
 c7650: +15 Y539,1 <= +89.3
 c7651: +15 Y539,2 <= +127.3
 c7652: +15 Y539,3 <= +104.2
 c7653: +15 Y539,4 <= +65.3
 c7654: +15 Y539,5 <= +119.6
 c7655: +15 Y539,6 <= +189.6
 c7656: +13.6 Y540,0 <= +127.4
 c7657: +13.6 Y540,1 <= +89.3
 c7658: +13.6 Y540,2 <= +127.3
 c7659: +13.6 Y540,3 <= +104.2
 c7660: +13.6 Y540,4 <= +65.3
 c7661: +13.6 Y540,5 <= +119.6
 c7662: +13.6 Y540,6 <= +189.6
 c7663: +7.8 Y541,0 <= +127.4
 c7664: +7.8 Y541,1 <= +89.3
 c7665: +7.8 Y541,2 <= +127.3
 c7666: +7.8 Y541,3 <= +104.2
 c7667: +7.8 Y541,4 <= +65.3
 c7668: +7.8 Y541,5 <= +119.6
 c7669: +7.8 Y541,6 <= +189.6
 c7670: +14.1 Y542,0 <= +127.4
 c7671: +14.1 Y542,1 <= +89.3
 c7672: +14.1 Y542,2 <= +127.3
 c7673: +14.1 Y542,3 <= +104.2
 c7674: +14.1 Y542,4 <= +65.3
 c7675: +14.1 Y542,5 <= +119.6
 c7676: +14.1 Y542,6 <= +189.6
 c7677: +28.6 Y543,0 <= +127.4
 c7678: +28.6 Y543,1 <= +89.3
 c7679: +28.6 Y543,2 <= +127.3
 c7680: +28.6 Y543,3 <= +104.2
 c7681: +28.6 Y543,4 <= +65.3
 c7682: +28.6 Y543,5 <= +119.6
 c7683: +28.6 Y543,6 <= +189.6
 c7684: +22.8 Y544,0 <= +127.4
 c7685: +22.8 Y544,1 <= +89.3
 c7686: +22.8 Y544,2 <= +127.3
 c7687: +22.8 Y544,3 <= +104.2
 c7688: +22.8 Y544,4 <= +65.3
 c7689: +22.8 Y544,5 <= +119.6
 c7690: +22.8 Y544,6 <= +189.6
 c7691: +29.1 Y545,0 <= +127.4
 c7692: +29.1 Y545,1 <= +89.3
 c7693: +29.1 Y545,2 <= +127.3
 c7694: +29.1 Y545,3 <= +104.2
 c7695: +29.1 Y545,4 <= +65.3
 c7696: +29.1 Y545,5 <= +119.6
 c7697: +29.1 Y545,6 <= +189.6
 c7698: +21.4 Y546,0 <= +127.4
 c7699: +21.4 Y546,1 <= +89.3
 c7700: +21.4 Y546,2 <= +127.3
 c7701: +21.4 Y546,3 <= +104.2
 c7702: +21.4 Y546,4 <= +65.3
 c7703: +21.4 Y546,5 <= +119.6
 c7704: +21.4 Y546,6 <= +189.6
 c7705: +27.7 Y547,0 <= +127.4
 c7706: +27.7 Y547,1 <= +89.3
 c7707: +27.7 Y547,2 <= +127.3
 c7708: +27.7 Y547,3 <= +104.2
 c7709: +27.7 Y547,4 <= +65.3
 c7710: +27.7 Y547,5 <= +119.6
 c7711: +27.7 Y547,6 <= +189.6
 c7712: +21.9 Y548,0 <= +127.4
 c7713: +21.9 Y548,1 <= +89.3
 c7714: +21.9 Y548,2 <= +127.3
 c7715: +21.9 Y548,3 <= +104.2
 c7716: +21.9 Y548,4 <= +65.3
 c7717: +21.9 Y548,5 <= +119.6
 c7718: +21.9 Y548,6 <= +189.6
 c7719: +36.4 Y549,0 <= +127.4
 c7720: +36.4 Y549,1 <= +89.3
 c7721: +36.4 Y549,2 <= +127.3
 c7722: +36.4 Y549,3 <= +104.2
 c7723: +36.4 Y549,4 <= +65.3
 c7724: +36.4 Y549,5 <= +119.6
 c7725: +36.4 Y549,6 <= +189.6
 c7726: +42.7 Y550,0 <= +127.4
 c7727: +42.7 Y550,1 <= +89.3
 c7728: +42.7 Y550,2 <= +127.3
 c7729: +42.7 Y550,3 <= +104.2
 c7730: +42.7 Y550,4 <= +65.3
 c7731: +42.7 Y550,5 <= +119.6
 c7732: +42.7 Y550,6 <= +189.6
 c7733: +36.9 Y551,0 <= +127.4
 c7734: +36.9 Y551,1 <= +89.3
 c7735: +36.9 Y551,2 <= +127.3
 c7736: +36.9 Y551,3 <= +104.2
 c7737: +36.9 Y551,4 <= +65.3
 c7738: +36.9 Y551,5 <= +119.6
 c7739: +36.9 Y551,6 <= +189.6
 c7740: +35.5 Y552,0 <= +127.4
 c7741: +35.5 Y552,1 <= +89.3
 c7742: +35.5 Y552,2 <= +127.3
 c7743: +35.5 Y552,3 <= +104.2
 c7744: +35.5 Y552,4 <= +65.3
 c7745: +35.5 Y552,5 <= +119.6
 c7746: +35.5 Y552,6 <= +189.6
 c7747: +50.5 Y553,0 <= +127.4
 c7748: +50.5 Y553,1 <= +89.3
 c7749: +50.5 Y553,2 <= +127.3
 c7750: +50.5 Y553,3 <= +104.2
 c7751: +50.5 Y553,4 <= +65.3
 c7752: +50.5 Y553,5 <= +119.6
 c7753: +50.5 Y553,6 <= +189.6
 c7754: +26.7 Y554,0 <= +127.4
 c7755: +26.7 Y554,1 <= +89.3
 c7756: +26.7 Y554,2 <= +127.3
 c7757: +26.7 Y554,3 <= +104.2
 c7758: +26.7 Y554,4 <= +65.3
 c7759: +26.7 Y554,5 <= +119.6
 c7760: +26.7 Y554,6 <= +189.6
 c7761: +21.5 Y555,0 <= +127.4
 c7762: +21.5 Y555,1 <= +89.3
 c7763: +21.5 Y555,2 <= +127.3
 c7764: +21.5 Y555,3 <= +104.2
 c7765: +21.5 Y555,4 <= +65.3
 c7766: +21.5 Y555,5 <= +119.6
 c7767: +21.5 Y555,6 <= +189.6
 c7768: +5.4 Y556,0 <= +127.4
 c7769: +5.4 Y556,1 <= +89.3
 c7770: +5.4 Y556,2 <= +127.3
 c7771: +5.4 Y556,3 <= +104.2
 c7772: +5.4 Y556,4 <= +65.3
 c7773: +5.4 Y556,5 <= +119.6
 c7774: +5.4 Y556,6 <= +189.6
 c7775: +34.9 Y557,0 <= +127.4
 c7776: +34.9 Y557,1 <= +89.3
 c7777: +34.9 Y557,2 <= +127.3
 c7778: +34.9 Y557,3 <= +104.2
 c7779: +34.9 Y557,4 <= +65.3
 c7780: +34.9 Y557,5 <= +119.6
 c7781: +34.9 Y557,6 <= +189.6
 c7782: +5.8 Y558,0 <= +127.4
 c7783: +5.8 Y558,1 <= +89.3
 c7784: +5.8 Y558,2 <= +127.3
 c7785: +5.8 Y558,3 <= +104.2
 c7786: +5.8 Y558,4 <= +65.3
 c7787: +5.8 Y558,5 <= +119.6
 c7788: +5.8 Y558,6 <= +189.6
 c7789: +48.2 Y559,0 <= +127.4
 c7790: +48.2 Y559,1 <= +89.3
 c7791: +48.2 Y559,2 <= +127.3
 c7792: +48.2 Y559,3 <= +104.2
 c7793: +48.2 Y559,4 <= +65.3
 c7794: +48.2 Y559,5 <= +119.6
 c7795: +48.2 Y559,6 <= +189.6
 c7796: +32.1 Y560,0 <= +127.4
 c7797: +32.1 Y560,1 <= +89.3
 c7798: +32.1 Y560,2 <= +127.3
 c7799: +32.1 Y560,3 <= +104.2
 c7800: +32.1 Y560,4 <= +65.3
 c7801: +32.1 Y560,5 <= +119.6
 c7802: +32.1 Y560,6 <= +189.6
 c7803: +61.6 Y561,0 <= +127.4
 c7804: +61.6 Y561,1 <= +89.3
 c7805: +61.6 Y561,2 <= +127.3
 c7806: +61.6 Y561,3 <= +104.2
 c7807: +61.6 Y561,4 <= +65.3
 c7808: +61.6 Y561,5 <= +119.6
 c7809: +61.6 Y561,6 <= +189.6
 c7810: +32.5 Y562,0 <= +127.4
 c7811: +32.5 Y562,1 <= +89.3
 c7812: +32.5 Y562,2 <= +127.3
 c7813: +32.5 Y562,3 <= +104.2
 c7814: +32.5 Y562,4 <= +65.3
 c7815: +32.5 Y562,5 <= +119.6
 c7816: +32.5 Y562,6 <= +189.6
 c7817: +26.9 Y563,0 <= +127.4
 c7818: +26.9 Y563,1 <= +89.3
 c7819: +26.9 Y563,2 <= +127.3
 c7820: +26.9 Y563,3 <= +104.2
 c7821: +26.9 Y563,4 <= +65.3
 c7822: +26.9 Y563,5 <= +119.6
 c7823: +26.9 Y563,6 <= +189.6
 c7824: +56.4 Y564,0 <= +127.4
 c7825: +56.4 Y564,1 <= +89.3
 c7826: +56.4 Y564,2 <= +127.3
 c7827: +56.4 Y564,3 <= +104.2
 c7828: +56.4 Y564,4 <= +65.3
 c7829: +56.4 Y564,5 <= +119.6
 c7830: +56.4 Y564,6 <= +189.6
 c7831: +27.3 Y565,0 <= +127.4
 c7832: +27.3 Y565,1 <= +89.3
 c7833: +27.3 Y565,2 <= +127.3
 c7834: +27.3 Y565,3 <= +104.2
 c7835: +27.3 Y565,4 <= +65.3
 c7836: +27.3 Y565,5 <= +119.6
 c7837: +27.3 Y565,6 <= +189.6
 c7838: +40.3 Y566,0 <= +127.4
 c7839: +40.3 Y566,1 <= +89.3
 c7840: +40.3 Y566,2 <= +127.3
 c7841: +40.3 Y566,3 <= +104.2
 c7842: +40.3 Y566,4 <= +65.3
 c7843: +40.3 Y566,5 <= +119.6
 c7844: +40.3 Y566,6 <= +189.6
 c7845: +11.2 Y567,0 <= +127.4
 c7846: +11.2 Y567,1 <= +89.3
 c7847: +11.2 Y567,2 <= +127.3
 c7848: +11.2 Y567,3 <= +104.2
 c7849: +11.2 Y567,4 <= +65.3
 c7850: +11.2 Y567,5 <= +119.6
 c7851: +11.2 Y567,6 <= +189.6
 c7852: +40.7 Y568,0 <= +127.4
 c7853: +40.7 Y568,1 <= +89.3
 c7854: +40.7 Y568,2 <= +127.3
 c7855: +40.7 Y568,3 <= +104.2
 c7856: +40.7 Y568,4 <= +65.3
 c7857: +40.7 Y568,5 <= +119.6
 c7858: +40.7 Y568,6 <= +189.6
 c7859: +53.6 Y569,0 <= +127.4
 c7860: +53.6 Y569,1 <= +89.3
 c7861: +53.6 Y569,2 <= +127.3
 c7862: +53.6 Y569,3 <= +104.2
 c7863: +53.6 Y569,4 <= +65.3
 c7864: +53.6 Y569,5 <= +119.6
 c7865: +53.6 Y569,6 <= +189.6
 c7866: +83.1 Y570,0 <= +127.4
 c7867: +83.1 Y570,1 <= +89.3
 c7868: +83.1 Y570,2 <= +127.3
 c7869: +83.1 Y570,3 <= +104.2
 c7870: +83.1 Y570,4 <= +65.3
 c7871: +83.1 Y570,5 <= +119.6
 c7872: +83.1 Y570,6 <= +189.6
 c7873: +54 Y571,0 <= +127.4
 c7874: +54 Y571,1 <= +89.3
 c7875: +54 Y571,2 <= +127.3
 c7876: +54 Y571,3 <= +104.2
 c7877: +54 Y571,4 <= +65.3
 c7878: +54 Y571,5 <= +119.6
 c7879: +54 Y571,6 <= +189.6
 c7880: +67 Y572,0 <= +127.4
 c7881: +67 Y572,1 <= +89.3
 c7882: +67 Y572,2 <= +127.3
 c7883: +67 Y572,3 <= +104.2
 c7884: +67 Y572,4 <= +65.3
 c7885: +67 Y572,5 <= +119.6
 c7886: +67 Y572,6 <= +189.6
 c7887: +37.9 Y573,0 <= +127.4
 c7888: +37.9 Y573,1 <= +89.3
 c7889: +37.9 Y573,2 <= +127.3
 c7890: +37.9 Y573,3 <= +104.2
 c7891: +37.9 Y573,4 <= +65.3
 c7892: +37.9 Y573,5 <= +119.6
 c7893: +37.9 Y573,6 <= +189.6
 c7894: +67.4 Y574,0 <= +127.4
 c7895: +67.4 Y574,1 <= +89.3
 c7896: +67.4 Y574,2 <= +127.3
 c7897: +67.4 Y574,3 <= +104.2
 c7898: +67.4 Y574,4 <= +65.3
 c7899: +67.4 Y574,5 <= +119.6
 c7900: +67.4 Y574,6 <= +189.6
 c7901: +61.8 Y575,0 <= +127.4
 c7902: +61.8 Y575,1 <= +89.3
 c7903: +61.8 Y575,2 <= +127.3
 c7904: +61.8 Y575,3 <= +104.2
 c7905: +61.8 Y575,4 <= +65.3
 c7906: +61.8 Y575,5 <= +119.6
 c7907: +61.8 Y575,6 <= +189.6
 c7908: +32.7 Y576,0 <= +127.4
 c7909: +32.7 Y576,1 <= +89.3
 c7910: +32.7 Y576,2 <= +127.3
 c7911: +32.7 Y576,3 <= +104.2
 c7912: +32.7 Y576,4 <= +65.3
 c7913: +32.7 Y576,5 <= +119.6
 c7914: +32.7 Y576,6 <= +189.6
 c7915: +62.2 Y577,0 <= +127.4
 c7916: +62.2 Y577,1 <= +89.3
 c7917: +62.2 Y577,2 <= +127.3
 c7918: +62.2 Y577,3 <= +104.2
 c7919: +62.2 Y577,4 <= +65.3
 c7920: +62.2 Y577,5 <= +119.6
 c7921: +62.2 Y577,6 <= +189.6
 c7922: +46.1 Y578,0 <= +127.4
 c7923: +46.1 Y578,1 <= +89.3
 c7924: +46.1 Y578,2 <= +127.3
 c7925: +46.1 Y578,3 <= +104.2
 c7926: +46.1 Y578,4 <= +65.3
 c7927: +46.1 Y578,5 <= +119.6
 c7928: +46.1 Y578,6 <= +189.6
 c7929: +88.5 Y579,0 <= +127.4
 c7930: +88.5 Y579,1 <= +89.3
 c7931: +88.5 Y579,2 <= +127.3
 c7932: +88.5 Y579,3 <= +104.2
 c7933: +88.5 Y579,4 <= +65.3
 c7934: +88.5 Y579,5 <= +119.6
 c7935: +88.5 Y579,6 <= +189.6
 c7936: +59.4 Y580,0 <= +127.4
 c7937: +59.4 Y580,1 <= +89.3
 c7938: +59.4 Y580,2 <= +127.3
 c7939: +59.4 Y580,3 <= +104.2
 c7940: +59.4 Y580,4 <= +65.3
 c7941: +59.4 Y580,5 <= +119.6
 c7942: +59.4 Y580,6 <= +189.6
 c7943: +88.9 Y581,0 <= +127.4
 c7944: +88.9 Y581,1 <= +89.3
 c7945: +88.9 Y581,2 <= +127.3
 c7946: +88.9 Y581,3 <= +104.2
 c7947: +88.9 Y581,4 <= +65.3
 c7948: +88.9 Y581,5 <= +119.6
 c7949: +88.9 Y581,6 <= +189.6
 c7950: +72.8 Y582,0 <= +127.4
 c7951: +72.8 Y582,1 <= +89.3
 c7952: +72.8 Y582,2 <= +127.3
 c7953: +72.8 Y582,3 <= +104.2
 c7954: +72.8 Y582,4 <= +65.3
 c7955: +72.8 Y582,5 <= +119.6
 c7956: +72.8 Y582,6 <= +189.6
 c7957: +67.6 Y583,0 <= +127.4
 c7958: +67.6 Y583,1 <= +89.3
 c7959: +67.6 Y583,2 <= +127.3
 c7960: +67.6 Y583,3 <= +104.2
 c7961: +67.6 Y583,4 <= +65.3
 c7962: +67.6 Y583,5 <= +119.6
 c7963: +67.6 Y583,6 <= +189.6
 c7964: +94.3 Y584,0 <= +127.4
 c7965: +94.3 Y584,1 <= +89.3
 c7966: +94.3 Y584,2 <= +127.3
 c7967: +94.3 Y584,3 <= +104.2
 c7968: +94.3 Y584,4 <= +65.3
 c7969: +94.3 Y584,5 <= +119.6
 c7970: +94.3 Y584,6 <= +189.6
 c7971: +24.6 Y585,0 <= +127.4
 c7972: +24.6 Y585,1 <= +89.3
 c7973: +24.6 Y585,2 <= +127.3
 c7974: +24.6 Y585,3 <= +104.2
 c7975: +24.6 Y585,4 <= +65.3
 c7976: +24.6 Y585,5 <= +119.6
 c7977: +24.6 Y585,6 <= +189.6
 c7978: +33.5 Y586,0 <= +127.4
 c7979: +33.5 Y586,1 <= +89.3
 c7980: +33.5 Y586,2 <= +127.3
 c7981: +33.5 Y586,3 <= +104.2
 c7982: +33.5 Y586,4 <= +65.3
 c7983: +33.5 Y586,5 <= +119.6
 c7984: +33.5 Y586,6 <= +189.6
 c7985: +3.8 Y587,0 <= +127.4
 c7986: +3.8 Y587,1 <= +89.3
 c7987: +3.8 Y587,2 <= +127.3
 c7988: +3.8 Y587,3 <= +104.2
 c7989: +3.8 Y587,4 <= +65.3
 c7990: +3.8 Y587,5 <= +119.6
 c7991: +3.8 Y587,6 <= +189.6
 c7992: +31 Y588,0 <= +127.4
 c7993: +31 Y588,1 <= +89.3
 c7994: +31 Y588,2 <= +127.3
 c7995: +31 Y588,3 <= +104.2
 c7996: +31 Y588,4 <= +65.3
 c7997: +31 Y588,5 <= +119.6
 c7998: +31 Y588,6 <= +189.6
 c7999: +22.4 Y589,0 <= +127.4
 c8000: +22.4 Y589,1 <= +89.3
 c8001: +22.4 Y589,2 <= +127.3
 c8002: +22.4 Y589,3 <= +104.2
 c8003: +22.4 Y589,4 <= +65.3
 c8004: +22.4 Y589,5 <= +119.6
 c8005: +22.4 Y589,6 <= +189.6
 c8006: +6.1 Y590,0 <= +127.4
 c8007: +6.1 Y590,1 <= +89.3
 c8008: +6.1 Y590,2 <= +127.3
 c8009: +6.1 Y590,3 <= +104.2
 c8010: +6.1 Y590,4 <= +65.3
 c8011: +6.1 Y590,5 <= +119.6
 c8012: +6.1 Y590,6 <= +189.6
 c8013: +8.1 Y591,0 <= +127.4
 c8014: +8.1 Y591,1 <= +89.3
 c8015: +8.1 Y591,2 <= +127.3
 c8016: +8.1 Y591,3 <= +104.2
 c8017: +8.1 Y591,4 <= +65.3
 c8018: +8.1 Y591,5 <= +119.6
 c8019: +8.1 Y591,6 <= +189.6
 c8020: +30.7 Y592,0 <= +127.4
 c8021: +30.7 Y592,1 <= +89.3
 c8022: +30.7 Y592,2 <= +127.3
 c8023: +30.7 Y592,3 <= +104.2
 c8024: +30.7 Y592,4 <= +65.3
 c8025: +30.7 Y592,5 <= +119.6
 c8026: +30.7 Y592,6 <= +189.6
 c8027: +58.1 Y593,0 <= +127.4
 c8028: +58.1 Y593,1 <= +89.3
 c8029: +58.1 Y593,2 <= +127.3
 c8030: +58.1 Y593,3 <= +104.2
 c8031: +58.1 Y593,4 <= +65.3
 c8032: +58.1 Y593,5 <= +119.6
 c8033: +58.1 Y593,6 <= +189.6
 c8034: +28.4 Y594,0 <= +127.4
 c8035: +28.4 Y594,1 <= +89.3
 c8036: +28.4 Y594,2 <= +127.3
 c8037: +28.4 Y594,3 <= +104.2
 c8038: +28.4 Y594,4 <= +65.3
 c8039: +28.4 Y594,5 <= +119.6
 c8040: +28.4 Y594,6 <= +189.6
 c8041: +55.6 Y595,0 <= +127.4
 c8042: +55.6 Y595,1 <= +89.3
 c8043: +55.6 Y595,2 <= +127.3
 c8044: +55.6 Y595,3 <= +104.2
 c8045: +55.6 Y595,4 <= +65.3
 c8046: +55.6 Y595,5 <= +119.6
 c8047: +55.6 Y595,6 <= +189.6
 c8048: +47 Y596,0 <= +127.4
 c8049: +47 Y596,1 <= +89.3
 c8050: +47 Y596,2 <= +127.3
 c8051: +47 Y596,3 <= +104.2
 c8052: +47 Y596,4 <= +65.3
 c8053: +47 Y596,5 <= +119.6
 c8054: +47 Y596,6 <= +189.6
 c8055: +30.7 Y597,0 <= +127.4
 c8056: +30.7 Y597,1 <= +89.3
 c8057: +30.7 Y597,2 <= +127.3
 c8058: +30.7 Y597,3 <= +104.2
 c8059: +30.7 Y597,4 <= +65.3
 c8060: +30.7 Y597,5 <= +119.6
 c8061: +30.7 Y597,6 <= +189.6
 c8062: +32.7 Y598,0 <= +127.4
 c8063: +32.7 Y598,1 <= +89.3
 c8064: +32.7 Y598,2 <= +127.3
 c8065: +32.7 Y598,3 <= +104.2
 c8066: +32.7 Y598,4 <= +65.3
 c8067: +32.7 Y598,5 <= +119.6
 c8068: +32.7 Y598,6 <= +189.6
 c8069: +55.3 Y599,0 <= +127.4
 c8070: +55.3 Y599,1 <= +89.3
 c8071: +55.3 Y599,2 <= +127.3
 c8072: +55.3 Y599,3 <= +104.2
 c8073: +55.3 Y599,4 <= +65.3
 c8074: +55.3 Y599,5 <= +119.6
 c8075: +55.3 Y599,6 <= +189.6
 c8076: +37.3 Y600,0 <= +127.4
 c8077: +37.3 Y600,1 <= +89.3
 c8078: +37.3 Y600,2 <= +127.3
 c8079: +37.3 Y600,3 <= +104.2
 c8080: +37.3 Y600,4 <= +65.3
 c8081: +37.3 Y600,5 <= +119.6
 c8082: +37.3 Y600,6 <= +189.6
 c8083: +64.5 Y601,0 <= +127.4
 c8084: +64.5 Y601,1 <= +89.3
 c8085: +64.5 Y601,2 <= +127.3
 c8086: +64.5 Y601,3 <= +104.2
 c8087: +64.5 Y601,4 <= +65.3
 c8088: +64.5 Y601,5 <= +119.6
 c8089: +64.5 Y601,6 <= +189.6
 c8090: +55.9 Y602,0 <= +127.4
 c8091: +55.9 Y602,1 <= +89.3
 c8092: +55.9 Y602,2 <= +127.3
 c8093: +55.9 Y602,3 <= +104.2
 c8094: +55.9 Y602,4 <= +65.3
 c8095: +55.9 Y602,5 <= +119.6
 c8096: +55.9 Y602,6 <= +189.6
 c8097: +39.6 Y603,0 <= +127.4
 c8098: +39.6 Y603,1 <= +89.3
 c8099: +39.6 Y603,2 <= +127.3
 c8100: +39.6 Y603,3 <= +104.2
 c8101: +39.6 Y603,4 <= +65.3
 c8102: +39.6 Y603,5 <= +119.6
 c8103: +39.6 Y603,6 <= +189.6
 c8104: +41.6 Y604,0 <= +127.4
 c8105: +41.6 Y604,1 <= +89.3
 c8106: +41.6 Y604,2 <= +127.3
 c8107: +41.6 Y604,3 <= +104.2
 c8108: +41.6 Y604,4 <= +65.3
 c8109: +41.6 Y604,5 <= +119.6
 c8110: +41.6 Y604,6 <= +189.6
 c8111: +64.2 Y605,0 <= +127.4
 c8112: +64.2 Y605,1 <= +89.3
 c8113: +64.2 Y605,2 <= +127.3
 c8114: +64.2 Y605,3 <= +104.2
 c8115: +64.2 Y605,4 <= +65.3
 c8116: +64.2 Y605,5 <= +119.6
 c8117: +64.2 Y605,6 <= +189.6
 c8118: +34.8 Y606,0 <= +127.4
 c8119: +34.8 Y606,1 <= +89.3
 c8120: +34.8 Y606,2 <= +127.3
 c8121: +34.8 Y606,3 <= +104.2
 c8122: +34.8 Y606,4 <= +65.3
 c8123: +34.8 Y606,5 <= +119.6
 c8124: +34.8 Y606,6 <= +189.6
 c8125: +26.2 Y607,0 <= +127.4
 c8126: +26.2 Y607,1 <= +89.3
 c8127: +26.2 Y607,2 <= +127.3
 c8128: +26.2 Y607,3 <= +104.2
 c8129: +26.2 Y607,4 <= +65.3
 c8130: +26.2 Y607,5 <= +119.6
 c8131: +26.2 Y607,6 <= +189.6
 c8132: +9.9 Y608,0 <= +127.4
 c8133: +9.9 Y608,1 <= +89.3
 c8134: +9.9 Y608,2 <= +127.3
 c8135: +9.9 Y608,3 <= +104.2
 c8136: +9.9 Y608,4 <= +65.3
 c8137: +9.9 Y608,5 <= +119.6
 c8138: +9.9 Y608,6 <= +189.6
 c8139: +11.9 Y609,0 <= +127.4
 c8140: +11.9 Y609,1 <= +89.3
 c8141: +11.9 Y609,2 <= +127.3
 c8142: +11.9 Y609,3 <= +104.2
 c8143: +11.9 Y609,4 <= +65.3
 c8144: +11.9 Y609,5 <= +119.6
 c8145: +11.9 Y609,6 <= +189.6
 c8146: +34.5 Y610,0 <= +127.4
 c8147: +34.5 Y610,1 <= +89.3
 c8148: +34.5 Y610,2 <= +127.3
 c8149: +34.5 Y610,3 <= +104.2
 c8150: +34.5 Y610,4 <= +65.3
 c8151: +34.5 Y610,5 <= +119.6
 c8152: +34.5 Y610,6 <= +189.6
 c8153: +53.4 Y611,0 <= +127.4
 c8154: +53.4 Y611,1 <= +89.3
 c8155: +53.4 Y611,2 <= +127.3
 c8156: +53.4 Y611,3 <= +104.2
 c8157: +53.4 Y611,4 <= +65.3
 c8158: +53.4 Y611,5 <= +119.6
 c8159: +53.4 Y611,6 <= +189.6
 c8160: +37.1 Y612,0 <= +127.4
 c8161: +37.1 Y612,1 <= +89.3
 c8162: +37.1 Y612,2 <= +127.3
 c8163: +37.1 Y612,3 <= +104.2
 c8164: +37.1 Y612,4 <= +65.3
 c8165: +37.1 Y612,5 <= +119.6
 c8166: +37.1 Y612,6 <= +189.6
 c8167: +39.1 Y613,0 <= +127.4
 c8168: +39.1 Y613,1 <= +89.3
 c8169: +39.1 Y613,2 <= +127.3
 c8170: +39.1 Y613,3 <= +104.2
 c8171: +39.1 Y613,4 <= +65.3
 c8172: +39.1 Y613,5 <= +119.6
 c8173: +39.1 Y613,6 <= +189.6
 c8174: +61.7 Y614,0 <= +127.4
 c8175: +61.7 Y614,1 <= +89.3
 c8176: +61.7 Y614,2 <= +127.3
 c8177: +61.7 Y614,3 <= +104.2
 c8178: +61.7 Y614,4 <= +65.3
 c8179: +61.7 Y614,5 <= +119.6
 c8180: +61.7 Y614,6 <= +189.6
 c8181: +28.5 Y615,0 <= +127.4
 c8182: +28.5 Y615,1 <= +89.3
 c8183: +28.5 Y615,2 <= +127.3
 c8184: +28.5 Y615,3 <= +104.2
 c8185: +28.5 Y615,4 <= +65.3
 c8186: +28.5 Y615,5 <= +119.6
 c8187: +28.5 Y615,6 <= +189.6
 c8188: +30.5 Y616,0 <= +127.4
 c8189: +30.5 Y616,1 <= +89.3
 c8190: +30.5 Y616,2 <= +127.3
 c8191: +30.5 Y616,3 <= +104.2
 c8192: +30.5 Y616,4 <= +65.3
 c8193: +30.5 Y616,5 <= +119.6
 c8194: +30.5 Y616,6 <= +189.6
 c8195: +53.1 Y617,0 <= +127.4
 c8196: +53.1 Y617,1 <= +89.3
 c8197: +53.1 Y617,2 <= +127.3
 c8198: +53.1 Y617,3 <= +104.2
 c8199: +53.1 Y617,4 <= +65.3
 c8200: +53.1 Y617,5 <= +119.6
 c8201: +53.1 Y617,6 <= +189.6
 c8202: +14.2 Y618,0 <= +127.4
 c8203: +14.2 Y618,1 <= +89.3
 c8204: +14.2 Y618,2 <= +127.3
 c8205: +14.2 Y618,3 <= +104.2
 c8206: +14.2 Y618,4 <= +65.3
 c8207: +14.2 Y618,5 <= +119.6
 c8208: +14.2 Y618,6 <= +189.6
 c8209: +36.8 Y619,0 <= +127.4
 c8210: +36.8 Y619,1 <= +89.3
 c8211: +36.8 Y619,2 <= +127.3
 c8212: +36.8 Y619,3 <= +104.2
 c8213: +36.8 Y619,4 <= +65.3
 c8214: +36.8 Y619,5 <= +119.6
 c8215: +36.8 Y619,6 <= +189.6
 c8216: +38.8 Y620,0 <= +127.4
 c8217: +38.8 Y620,1 <= +89.3
 c8218: +38.8 Y620,2 <= +127.3
 c8219: +38.8 Y620,3 <= +104.2
 c8220: +38.8 Y620,4 <= +65.3
 c8221: +38.8 Y620,5 <= +119.6
 c8222: +38.8 Y620,6 <= +189.6
 c8223: +61.9 Y621,0 <= +127.4
 c8224: +61.9 Y621,1 <= +89.3
 c8225: +61.9 Y621,2 <= +127.3
 c8226: +61.9 Y621,3 <= +104.2
 c8227: +61.9 Y621,4 <= +65.3
 c8228: +61.9 Y621,5 <= +119.6
 c8229: +61.9 Y621,6 <= +189.6
 c8230: +89.1 Y622,0 <= +127.4
 c8231: +89.1 Y622,1 <= +89.3
 c8232: +89.1 Y622,2 <= +127.3
 c8233: +89.1 Y622,3 <= +104.2
 c8234: +89.1 Y622,4 <= +65.3
 c8235: +89.1 Y622,5 <= +119.6
 c8236: +89.1 Y622,6 <= +189.6
 c8237: +80.5 Y623,0 <= +127.4
 c8238: +80.5 Y623,1 <= +89.3
 c8239: +80.5 Y623,2 <= +127.3
 c8240: +80.5 Y623,3 <= +104.2
 c8241: +80.5 Y623,4 <= +65.3
 c8242: +80.5 Y623,5 <= +119.6
 c8243: +80.5 Y623,6 <= +189.6
 c8244: +64.2 Y624,0 <= +127.4
 c8245: +64.2 Y624,1 <= +89.3
 c8246: +64.2 Y624,2 <= +127.3
 c8247: +64.2 Y624,3 <= +104.2
 c8248: +64.2 Y624,4 <= +65.3
 c8249: +64.2 Y624,5 <= +119.6
 c8250: +64.2 Y624,6 <= +189.6
 c8251: +66.2 Y625,0 <= +127.4
 c8252: +66.2 Y625,1 <= +89.3
 c8253: +66.2 Y625,2 <= +127.3
 c8254: +66.2 Y625,3 <= +104.2
 c8255: +66.2 Y625,4 <= +65.3
 c8256: +66.2 Y625,5 <= +119.6
 c8257: +66.2 Y625,6 <= +189.6
 c8258: +88.8 Y626,0 <= +127.4
 c8259: +88.8 Y626,1 <= +89.3
 c8260: +88.8 Y626,2 <= +127.3
 c8261: +88.8 Y626,3 <= +104.2
 c8262: +88.8 Y626,4 <= +65.3
 c8263: +88.8 Y626,5 <= +119.6
 c8264: +88.8 Y626,6 <= +189.6
 c8265: +59.4 Y627,0 <= +127.4
 c8266: +59.4 Y627,1 <= +89.3
 c8267: +59.4 Y627,2 <= +127.3
 c8268: +59.4 Y627,3 <= +104.2
 c8269: +59.4 Y627,4 <= +65.3
 c8270: +59.4 Y627,5 <= +119.6
 c8271: +59.4 Y627,6 <= +189.6
 c8272: +50.8 Y628,0 <= +127.4
 c8273: +50.8 Y628,1 <= +89.3
 c8274: +50.8 Y628,2 <= +127.3
 c8275: +50.8 Y628,3 <= +104.2
 c8276: +50.8 Y628,4 <= +65.3
 c8277: +50.8 Y628,5 <= +119.6
 c8278: +50.8 Y628,6 <= +189.6
 c8279: +34.5 Y629,0 <= +127.4
 c8280: +34.5 Y629,1 <= +89.3
 c8281: +34.5 Y629,2 <= +127.3
 c8282: +34.5 Y629,3 <= +104.2
 c8283: +34.5 Y629,4 <= +65.3
 c8284: +34.5 Y629,5 <= +119.6
 c8285: +34.5 Y629,6 <= +189.6
 c8286: +36.5 Y630,0 <= +127.4
 c8287: +36.5 Y630,1 <= +89.3
 c8288: +36.5 Y630,2 <= +127.3
 c8289: +36.5 Y630,3 <= +104.2
 c8290: +36.5 Y630,4 <= +65.3
 c8291: +36.5 Y630,5 <= +119.6
 c8292: +36.5 Y630,6 <= +189.6
 c8293: +59.1 Y631,0 <= +127.4
 c8294: +59.1 Y631,1 <= +89.3
 c8295: +59.1 Y631,2 <= +127.3
 c8296: +59.1 Y631,3 <= +104.2
 c8297: +59.1 Y631,4 <= +65.3
 c8298: +59.1 Y631,5 <= +119.6
 c8299: +59.1 Y631,6 <= +189.6
 c8300: +78 Y632,0 <= +127.4
 c8301: +78 Y632,1 <= +89.3
 c8302: +78 Y632,2 <= +127.3
 c8303: +78 Y632,3 <= +104.2
 c8304: +78 Y632,4 <= +65.3
 c8305: +78 Y632,5 <= +119.6
 c8306: +78 Y632,6 <= +189.6
 c8307: +61.7 Y633,0 <= +127.4
 c8308: +61.7 Y633,1 <= +89.3
 c8309: +61.7 Y633,2 <= +127.3
 c8310: +61.7 Y633,3 <= +104.2
 c8311: +61.7 Y633,4 <= +65.3
 c8312: +61.7 Y633,5 <= +119.6
 c8313: +61.7 Y633,6 <= +189.6
 c8314: +63.7 Y634,0 <= +127.4
 c8315: +63.7 Y634,1 <= +89.3
 c8316: +63.7 Y634,2 <= +127.3
 c8317: +63.7 Y634,3 <= +104.2
 c8318: +63.7 Y634,4 <= +65.3
 c8319: +63.7 Y634,5 <= +119.6
 c8320: +63.7 Y634,6 <= +189.6
 c8321: +86.3 Y635,0 <= +127.4
 c8322: +86.3 Y635,1 <= +89.3
 c8323: +86.3 Y635,2 <= +127.3
 c8324: +86.3 Y635,3 <= +104.2
 c8325: +86.3 Y635,4 <= +65.3
 c8326: +86.3 Y635,5 <= +119.6
 c8327: +86.3 Y635,6 <= +189.6
 c8328: +53.1 Y636,0 <= +127.4
 c8329: +53.1 Y636,1 <= +89.3
 c8330: +53.1 Y636,2 <= +127.3
 c8331: +53.1 Y636,3 <= +104.2
 c8332: +53.1 Y636,4 <= +65.3
 c8333: +53.1 Y636,5 <= +119.6
 c8334: +53.1 Y636,6 <= +189.6
 c8335: +55.1 Y637,0 <= +127.4
 c8336: +55.1 Y637,1 <= +89.3
 c8337: +55.1 Y637,2 <= +127.3
 c8338: +55.1 Y637,3 <= +104.2
 c8339: +55.1 Y637,4 <= +65.3
 c8340: +55.1 Y637,5 <= +119.6
 c8341: +55.1 Y637,6 <= +189.6
 c8342: +77.7 Y638,0 <= +127.4
 c8343: +77.7 Y638,1 <= +89.3
 c8344: +77.7 Y638,2 <= +127.3
 c8345: +77.7 Y638,3 <= +104.2
 c8346: +77.7 Y638,4 <= +65.3
 c8347: +77.7 Y638,5 <= +119.6
 c8348: +77.7 Y638,6 <= +189.6
 c8349: +38.8 Y639,0 <= +127.4
 c8350: +38.8 Y639,1 <= +89.3
 c8351: +38.8 Y639,2 <= +127.3
 c8352: +38.8 Y639,3 <= +104.2
 c8353: +38.8 Y639,4 <= +65.3
 c8354: +38.8 Y639,5 <= +119.6
 c8355: +38.8 Y639,6 <= +189.6
 c8356: +61.4 Y640,0 <= +127.4
 c8357: +61.4 Y640,1 <= +89.3
 c8358: +61.4 Y640,2 <= +127.3
 c8359: +61.4 Y640,3 <= +104.2
 c8360: +61.4 Y640,4 <= +65.3
 c8361: +61.4 Y640,5 <= +119.6
 c8362: +61.4 Y640,6 <= +189.6
 c8363: +63.4 Y641,0 <= +127.4
 c8364: +63.4 Y641,1 <= +89.3
 c8365: +63.4 Y641,2 <= +127.3
 c8366: +63.4 Y641,3 <= +104.2
 c8367: +63.4 Y641,4 <= +65.3
 c8368: +63.4 Y641,5 <= +119.6
 c8369: +63.4 Y641,6 <= +189.6
 c8370: +68.3 Y642,0 <= +127.4
 c8371: +68.3 Y642,1 <= +89.3
 c8372: +68.3 Y642,2 <= +127.3
 c8373: +68.3 Y642,3 <= +104.2
 c8374: +68.3 Y642,4 <= +65.3
 c8375: +68.3 Y642,5 <= +119.6
 c8376: +68.3 Y642,6 <= +189.6
 c8377: +59.7 Y643,0 <= +127.4
 c8378: +59.7 Y643,1 <= +89.3
 c8379: +59.7 Y643,2 <= +127.3
 c8380: +59.7 Y643,3 <= +104.2
 c8381: +59.7 Y643,4 <= +65.3
 c8382: +59.7 Y643,5 <= +119.6
 c8383: +59.7 Y643,6 <= +189.6
 c8384: +43.4 Y644,0 <= +127.4
 c8385: +43.4 Y644,1 <= +89.3
 c8386: +43.4 Y644,2 <= +127.3
 c8387: +43.4 Y644,3 <= +104.2
 c8388: +43.4 Y644,4 <= +65.3
 c8389: +43.4 Y644,5 <= +119.6
 c8390: +43.4 Y644,6 <= +189.6
 c8391: +45.4 Y645,0 <= +127.4
 c8392: +45.4 Y645,1 <= +89.3
 c8393: +45.4 Y645,2 <= +127.3
 c8394: +45.4 Y645,3 <= +104.2
 c8395: +45.4 Y645,4 <= +65.3
 c8396: +45.4 Y645,5 <= +119.6
 c8397: +45.4 Y645,6 <= +189.6
 c8398: +68 Y646,0 <= +127.4
 c8399: +68 Y646,1 <= +89.3
 c8400: +68 Y646,2 <= +127.3
 c8401: +68 Y646,3 <= +104.2
 c8402: +68 Y646,4 <= +65.3
 c8403: +68 Y646,5 <= +119.6
 c8404: +68 Y646,6 <= +189.6
 c8405: +86.9 Y647,0 <= +127.4
 c8406: +86.9 Y647,1 <= +89.3
 c8407: +86.9 Y647,2 <= +127.3
 c8408: +86.9 Y647,3 <= +104.2
 c8409: +86.9 Y647,4 <= +65.3
 c8410: +86.9 Y647,5 <= +119.6
 c8411: +86.9 Y647,6 <= +189.6
 c8412: +70.6 Y648,0 <= +127.4
 c8413: +70.6 Y648,1 <= +89.3
 c8414: +70.6 Y648,2 <= +127.3
 c8415: +70.6 Y648,3 <= +104.2
 c8416: +70.6 Y648,4 <= +65.3
 c8417: +70.6 Y648,5 <= +119.6
 c8418: +70.6 Y648,6 <= +189.6
 c8419: +72.6 Y649,0 <= +127.4
 c8420: +72.6 Y649,1 <= +89.3
 c8421: +72.6 Y649,2 <= +127.3
 c8422: +72.6 Y649,3 <= +104.2
 c8423: +72.6 Y649,4 <= +65.3
 c8424: +72.6 Y649,5 <= +119.6
 c8425: +72.6 Y649,6 <= +189.6
 c8426: +95.2 Y650,0 <= +127.4
 c8427: +95.2 Y650,1 <= +89.3
 c8428: +95.2 Y650,2 <= +127.3
 c8429: +95.2 Y650,3 <= +104.2
 c8430: +95.2 Y650,4 <= +65.3
 c8431: +95.2 Y650,5 <= +119.6
 c8432: +95.2 Y650,6 <= +189.6
 c8433: +62 Y651,0 <= +127.4
 c8434: +62 Y651,1 <= +89.3
 c8435: +62 Y651,2 <= +127.3
 c8436: +62 Y651,3 <= +104.2
 c8437: +62 Y651,4 <= +65.3
 c8438: +62 Y651,5 <= +119.6
 c8439: +62 Y651,6 <= +189.6
 c8440: +64 Y652,0 <= +127.4
 c8441: +64 Y652,1 <= +89.3
 c8442: +64 Y652,2 <= +127.3
 c8443: +64 Y652,3 <= +104.2
 c8444: +64 Y652,4 <= +65.3
 c8445: +64 Y652,5 <= +119.6
 c8446: +64 Y652,6 <= +189.6
 c8447: +86.6 Y653,0 <= +127.4
 c8448: +86.6 Y653,1 <= +89.3
 c8449: +86.6 Y653,2 <= +127.3
 c8450: +86.6 Y653,3 <= +104.2
 c8451: +86.6 Y653,4 <= +65.3
 c8452: +86.6 Y653,5 <= +119.6
 c8453: +86.6 Y653,6 <= +189.6
 c8454: +47.7 Y654,0 <= +127.4
 c8455: +47.7 Y654,1 <= +89.3
 c8456: +47.7 Y654,2 <= +127.3
 c8457: +47.7 Y654,3 <= +104.2
 c8458: +47.7 Y654,4 <= +65.3
 c8459: +47.7 Y654,5 <= +119.6
 c8460: +47.7 Y654,6 <= +189.6
 c8461: +70.3 Y655,0 <= +127.4
 c8462: +70.3 Y655,1 <= +89.3
 c8463: +70.3 Y655,2 <= +127.3
 c8464: +70.3 Y655,3 <= +104.2
 c8465: +70.3 Y655,4 <= +65.3
 c8466: +70.3 Y655,5 <= +119.6
 c8467: +70.3 Y655,6 <= +189.6
 c8468: +72.3 Y656,0 <= +127.4
 c8469: +72.3 Y656,1 <= +89.3
 c8470: +72.3 Y656,2 <= +127.3
 c8471: +72.3 Y656,3 <= +104.2
 c8472: +72.3 Y656,4 <= +65.3
 c8473: +72.3 Y656,5 <= +119.6
 c8474: +72.3 Y656,6 <= +189.6
 c8475: +57.2 Y657,0 <= +127.4
 c8476: +57.2 Y657,1 <= +89.3
 c8477: +57.2 Y657,2 <= +127.3
 c8478: +57.2 Y657,3 <= +104.2
 c8479: +57.2 Y657,4 <= +65.3
 c8480: +57.2 Y657,5 <= +119.6
 c8481: +57.2 Y657,6 <= +189.6
 c8482: +40.9 Y658,0 <= +127.4
 c8483: +40.9 Y658,1 <= +89.3
 c8484: +40.9 Y658,2 <= +127.3
 c8485: +40.9 Y658,3 <= +104.2
 c8486: +40.9 Y658,4 <= +65.3
 c8487: +40.9 Y658,5 <= +119.6
 c8488: +40.9 Y658,6 <= +189.6
 c8489: +42.9 Y659,0 <= +127.4
 c8490: +42.9 Y659,1 <= +89.3
 c8491: +42.9 Y659,2 <= +127.3
 c8492: +42.9 Y659,3 <= +104.2
 c8493: +42.9 Y659,4 <= +65.3
 c8494: +42.9 Y659,5 <= +119.6
 c8495: +42.9 Y659,6 <= +189.6
 c8496: +65.5 Y660,0 <= +127.4
 c8497: +65.5 Y660,1 <= +89.3
 c8498: +65.5 Y660,2 <= +127.3
 c8499: +65.5 Y660,3 <= +104.2
 c8500: +65.5 Y660,4 <= +65.3
 c8501: +65.5 Y660,5 <= +119.6
 c8502: +65.5 Y660,6 <= +189.6
 c8503: +32.3 Y661,0 <= +127.4
 c8504: +32.3 Y661,1 <= +89.3
 c8505: +32.3 Y661,2 <= +127.3
 c8506: +32.3 Y661,3 <= +104.2
 c8507: +32.3 Y661,4 <= +65.3
 c8508: +32.3 Y661,5 <= +119.6
 c8509: +32.3 Y661,6 <= +189.6
 c8510: +34.3 Y662,0 <= +127.4
 c8511: +34.3 Y662,1 <= +89.3
 c8512: +34.3 Y662,2 <= +127.3
 c8513: +34.3 Y662,3 <= +104.2
 c8514: +34.3 Y662,4 <= +65.3
 c8515: +34.3 Y662,5 <= +119.6
 c8516: +34.3 Y662,6 <= +189.6
 c8517: +56.9 Y663,0 <= +127.4
 c8518: +56.9 Y663,1 <= +89.3
 c8519: +56.9 Y663,2 <= +127.3
 c8520: +56.9 Y663,3 <= +104.2
 c8521: +56.9 Y663,4 <= +65.3
 c8522: +56.9 Y663,5 <= +119.6
 c8523: +56.9 Y663,6 <= +189.6
 c8524: +18 Y664,0 <= +127.4
 c8525: +18 Y664,1 <= +89.3
 c8526: +18 Y664,2 <= +127.3
 c8527: +18 Y664,3 <= +104.2
 c8528: +18 Y664,4 <= +65.3
 c8529: +18 Y664,5 <= +119.6
 c8530: +18 Y664,6 <= +189.6
 c8531: +40.6 Y665,0 <= +127.4
 c8532: +40.6 Y665,1 <= +89.3
 c8533: +40.6 Y665,2 <= +127.3
 c8534: +40.6 Y665,3 <= +104.2
 c8535: +40.6 Y665,4 <= +65.3
 c8536: +40.6 Y665,5 <= +119.6
 c8537: +40.6 Y665,6 <= +189.6
 c8538: +42.6 Y666,0 <= +127.4
 c8539: +42.6 Y666,1 <= +89.3
 c8540: +42.6 Y666,2 <= +127.3
 c8541: +42.6 Y666,3 <= +104.2
 c8542: +42.6 Y666,4 <= +65.3
 c8543: +42.6 Y666,5 <= +119.6
 c8544: +42.6 Y666,6 <= +189.6
 c8545: +59.5 Y667,0 <= +127.4
 c8546: +59.5 Y667,1 <= +89.3
 c8547: +59.5 Y667,2 <= +127.3
 c8548: +59.5 Y667,3 <= +104.2
 c8549: +59.5 Y667,4 <= +65.3
 c8550: +59.5 Y667,5 <= +119.6
 c8551: +59.5 Y667,6 <= +189.6
 c8552: +61.5 Y668,0 <= +127.4
 c8553: +61.5 Y668,1 <= +89.3
 c8554: +61.5 Y668,2 <= +127.3
 c8555: +61.5 Y668,3 <= +104.2
 c8556: +61.5 Y668,4 <= +65.3
 c8557: +61.5 Y668,5 <= +119.6
 c8558: +61.5 Y668,6 <= +189.6
 c8559: +84.1 Y669,0 <= +127.4
 c8560: +84.1 Y669,1 <= +89.3
 c8561: +84.1 Y669,2 <= +127.3
 c8562: +84.1 Y669,3 <= +104.2
 c8563: +84.1 Y669,4 <= +65.3
 c8564: +84.1 Y669,5 <= +119.6
 c8565: +84.1 Y669,6 <= +189.6
 c8566: +45.2 Y670,0 <= +127.4
 c8567: +45.2 Y670,1 <= +89.3
 c8568: +45.2 Y670,2 <= +127.3
 c8569: +45.2 Y670,3 <= +104.2
 c8570: +45.2 Y670,4 <= +65.3
 c8571: +45.2 Y670,5 <= +119.6
 c8572: +45.2 Y670,6 <= +189.6
 c8573: +67.8 Y671,0 <= +127.4
 c8574: +67.8 Y671,1 <= +89.3
 c8575: +67.8 Y671,2 <= +127.3
 c8576: +67.8 Y671,3 <= +104.2
 c8577: +67.8 Y671,4 <= +65.3
 c8578: +67.8 Y671,5 <= +119.6
 c8579: +67.8 Y671,6 <= +189.6
 c8580: +69.8 Y672,0 <= +127.4
 c8581: +69.8 Y672,1 <= +89.3
 c8582: +69.8 Y672,2 <= +127.3
 c8583: +69.8 Y672,3 <= +104.2
 c8584: +69.8 Y672,4 <= +65.3
 c8585: +69.8 Y672,5 <= +119.6
 c8586: +69.8 Y672,6 <= +189.6
 c8587: +36.6 Y673,0 <= +127.4
 c8588: +36.6 Y673,1 <= +89.3
 c8589: +36.6 Y673,2 <= +127.3
 c8590: +36.6 Y673,3 <= +104.2
 c8591: +36.6 Y673,4 <= +65.3
 c8592: +36.6 Y673,5 <= +119.6
 c8593: +36.6 Y673,6 <= +189.6
 c8594: +59.2 Y674,0 <= +127.4
 c8595: +59.2 Y674,1 <= +89.3
 c8596: +59.2 Y674,2 <= +127.3
 c8597: +59.2 Y674,3 <= +104.2
 c8598: +59.2 Y674,4 <= +65.3
 c8599: +59.2 Y674,5 <= +119.6
 c8600: +59.2 Y674,6 <= +189.6
 c8601: +61.2 Y675,0 <= +127.4
 c8602: +61.2 Y675,1 <= +89.3
 c8603: +61.2 Y675,2 <= +127.3
 c8604: +61.2 Y675,3 <= +104.2
 c8605: +61.2 Y675,4 <= +65.3
 c8606: +61.2 Y675,5 <= +119.6
 c8607: +61.2 Y675,6 <= +189.6
 c8608: +44.9 Y676,0 <= +127.4
 c8609: +44.9 Y676,1 <= +89.3
 c8610: +44.9 Y676,2 <= +127.3
 c8611: +44.9 Y676,3 <= +104.2
 c8612: +44.9 Y676,4 <= +65.3
 c8613: +44.9 Y676,5 <= +119.6
 c8614: +44.9 Y676,6 <= +189.6
 c8615: +92.9 Y677,0 <= +127.4
 c8616: +92.9 Y677,1 <= +89.3
 c8617: +92.9 Y677,2 <= +127.3
 c8618: +92.9 Y677,3 <= +104.2
 c8619: +92.9 Y677,4 <= +65.3
 c8620: +92.9 Y677,5 <= +119.6
 c8621: +92.9 Y677,6 <= +189.6
 c8622: +84.3 Y678,0 <= +127.4
 c8623: +84.3 Y678,1 <= +89.3
 c8624: +84.3 Y678,2 <= +127.3
 c8625: +84.3 Y678,3 <= +104.2
 c8626: +84.3 Y678,4 <= +65.3
 c8627: +84.3 Y678,5 <= +119.6
 c8628: +84.3 Y678,6 <= +189.6
 c8629: +68 Y679,0 <= +127.4
 c8630: +68 Y679,1 <= +89.3
 c8631: +68 Y679,2 <= +127.3
 c8632: +68 Y679,3 <= +104.2
 c8633: +68 Y679,4 <= +65.3
 c8634: +68 Y679,5 <= +119.6
 c8635: +68 Y679,6 <= +189.6
 c8636: +70 Y680,0 <= +127.4
 c8637: +70 Y680,1 <= +89.3
 c8638: +70 Y680,2 <= +127.3
 c8639: +70 Y680,3 <= +104.2
 c8640: +70 Y680,4 <= +65.3
 c8641: +70 Y680,5 <= +119.6
 c8642: +70 Y680,6 <= +189.6
 c8643: +92.6 Y681,0 <= +127.4
 c8644: +92.6 Y681,1 <= +89.3
 c8645: +92.6 Y681,2 <= +127.3
 c8646: +92.6 Y681,3 <= +104.2
 c8647: +92.6 Y681,4 <= +65.3
 c8648: +92.6 Y681,5 <= +119.6
 c8649: +92.6 Y681,6 <= +189.6
 c8650: +111.5 Y682,0 <= +127.4
 c8651: +111.5 Y682,1 <= +89.3
 c8652: +111.5 Y682,2 <= +127.3
 c8653: +111.5 Y682,3 <= +104.2
 c8654: +111.5 Y682,4 <= +65.3
 c8655: +111.5 Y682,5 <= +119.6
 c8656: +111.5 Y682,6 <= +189.6
 c8657: +95.2 Y683,0 <= +127.4
 c8658: +95.2 Y683,1 <= +89.3
 c8659: +95.2 Y683,2 <= +127.3
 c8660: +95.2 Y683,3 <= +104.2
 c8661: +95.2 Y683,4 <= +65.3
 c8662: +95.2 Y683,5 <= +119.6
 c8663: +95.2 Y683,6 <= +189.6
 c8664: +97.2 Y684,0 <= +127.4
 c8665: +97.2 Y684,1 <= +89.3
 c8666: +97.2 Y684,2 <= +127.3
 c8667: +97.2 Y684,3 <= +104.2
 c8668: +97.2 Y684,4 <= +65.3
 c8669: +97.2 Y684,5 <= +119.6
 c8670: +97.2 Y684,6 <= +189.6
 c8671: +119.8 Y685,0 <= +127.4
 c8672: +119.8 Y685,1 <= +89.3
 c8673: +119.8 Y685,2 <= +127.3
 c8674: +119.8 Y685,3 <= +104.2
 c8675: +119.8 Y685,4 <= +65.3
 c8676: +119.8 Y685,5 <= +119.6
 c8677: +119.8 Y685,6 <= +189.6
 c8678: +86.6 Y686,0 <= +127.4
 c8679: +86.6 Y686,1 <= +89.3
 c8680: +86.6 Y686,2 <= +127.3
 c8681: +86.6 Y686,3 <= +104.2
 c8682: +86.6 Y686,4 <= +65.3
 c8683: +86.6 Y686,5 <= +119.6
 c8684: +86.6 Y686,6 <= +189.6
 c8685: +88.6 Y687,0 <= +127.4
 c8686: +88.6 Y687,1 <= +89.3
 c8687: +88.6 Y687,2 <= +127.3
 c8688: +88.6 Y687,3 <= +104.2
 c8689: +88.6 Y687,4 <= +65.3
 c8690: +88.6 Y687,5 <= +119.6
 c8691: +88.6 Y687,6 <= +189.6
 c8692: +111.2 Y688,0 <= +127.4
 c8693: +111.2 Y688,1 <= +89.3
 c8694: +111.2 Y688,2 <= +127.3
 c8695: +111.2 Y688,3 <= +104.2
 c8696: +111.2 Y688,4 <= +65.3
 c8697: +111.2 Y688,5 <= +119.6
 c8698: +111.2 Y688,6 <= +189.6
 c8699: +72.3 Y689,0 <= +127.4
 c8700: +72.3 Y689,1 <= +89.3
 c8701: +72.3 Y689,2 <= +127.3
 c8702: +72.3 Y689,3 <= +104.2
 c8703: +72.3 Y689,4 <= +65.3
 c8704: +72.3 Y689,5 <= +119.6
 c8705: +72.3 Y689,6 <= +189.6
 c8706: +94.9 Y690,0 <= +127.4
 c8707: +94.9 Y690,1 <= +89.3
 c8708: +94.9 Y690,2 <= +127.3
 c8709: +94.9 Y690,3 <= +104.2
 c8710: +94.9 Y690,4 <= +65.3
 c8711: +94.9 Y690,5 <= +119.6
 c8712: +94.9 Y690,6 <= +189.6
 c8713: +96.9 Y691,0 <= +127.4
 c8714: +96.9 Y691,1 <= +89.3
 c8715: +96.9 Y691,2 <= +127.3
 c8716: +96.9 Y691,3 <= +104.2
 c8717: +96.9 Y691,4 <= +65.3
 c8718: +96.9 Y691,5 <= +119.6
 c8719: +96.9 Y691,6 <= +189.6
 c8720: +81.8 Y692,0 <= +127.4
 c8721: +81.8 Y692,1 <= +89.3
 c8722: +81.8 Y692,2 <= +127.3
 c8723: +81.8 Y692,3 <= +104.2
 c8724: +81.8 Y692,4 <= +65.3
 c8725: +81.8 Y692,5 <= +119.6
 c8726: +81.8 Y692,6 <= +189.6
 c8727: +65.5 Y693,0 <= +127.4
 c8728: +65.5 Y693,1 <= +89.3
 c8729: +65.5 Y693,2 <= +127.3
 c8730: +65.5 Y693,3 <= +104.2
 c8731: +65.5 Y693,4 <= +65.3
 c8732: +65.5 Y693,5 <= +119.6
 c8733: +65.5 Y693,6 <= +189.6
 c8734: +67.5 Y694,0 <= +127.4
 c8735: +67.5 Y694,1 <= +89.3
 c8736: +67.5 Y694,2 <= +127.3
 c8737: +67.5 Y694,3 <= +104.2
 c8738: +67.5 Y694,4 <= +65.3
 c8739: +67.5 Y694,5 <= +119.6
 c8740: +67.5 Y694,6 <= +189.6
 c8741: +90.1 Y695,0 <= +127.4
 c8742: +90.1 Y695,1 <= +89.3
 c8743: +90.1 Y695,2 <= +127.3
 c8744: +90.1 Y695,3 <= +104.2
 c8745: +90.1 Y695,4 <= +65.3
 c8746: +90.1 Y695,5 <= +119.6
 c8747: +90.1 Y695,6 <= +189.6
 c8748: +56.9 Y696,0 <= +127.4
 c8749: +56.9 Y696,1 <= +89.3
 c8750: +56.9 Y696,2 <= +127.3
 c8751: +56.9 Y696,3 <= +104.2
 c8752: +56.9 Y696,4 <= +65.3
 c8753: +56.9 Y696,5 <= +119.6
 c8754: +56.9 Y696,6 <= +189.6
 c8755: +58.9 Y697,0 <= +127.4
 c8756: +58.9 Y697,1 <= +89.3
 c8757: +58.9 Y697,2 <= +127.3
 c8758: +58.9 Y697,3 <= +104.2
 c8759: +58.9 Y697,4 <= +65.3
 c8760: +58.9 Y697,5 <= +119.6
 c8761: +58.9 Y697,6 <= +189.6
 c8762: +81.5 Y698,0 <= +127.4
 c8763: +81.5 Y698,1 <= +89.3
 c8764: +81.5 Y698,2 <= +127.3
 c8765: +81.5 Y698,3 <= +104.2
 c8766: +81.5 Y698,4 <= +65.3
 c8767: +81.5 Y698,5 <= +119.6
 c8768: +81.5 Y698,6 <= +189.6
 c8769: +42.6 Y699,0 <= +127.4
 c8770: +42.6 Y699,1 <= +89.3
 c8771: +42.6 Y699,2 <= +127.3
 c8772: +42.6 Y699,3 <= +104.2
 c8773: +42.6 Y699,4 <= +65.3
 c8774: +42.6 Y699,5 <= +119.6
 c8775: +42.6 Y699,6 <= +189.6
 c8776: +65.2 Y700,0 <= +127.4
 c8777: +65.2 Y700,1 <= +89.3
 c8778: +65.2 Y700,2 <= +127.3
 c8779: +65.2 Y700,3 <= +104.2
 c8780: +65.2 Y700,4 <= +65.3
 c8781: +65.2 Y700,5 <= +119.6
 c8782: +65.2 Y700,6 <= +189.6
 c8783: +67.2 Y701,0 <= +127.4
 c8784: +67.2 Y701,1 <= +89.3
 c8785: +67.2 Y701,2 <= +127.3
 c8786: +67.2 Y701,3 <= +104.2
 c8787: +67.2 Y701,4 <= +65.3
 c8788: +67.2 Y701,5 <= +119.6
 c8789: +67.2 Y701,6 <= +189.6
 c8790: +84.1 Y702,0 <= +127.4
 c8791: +84.1 Y702,1 <= +89.3
 c8792: +84.1 Y702,2 <= +127.3
 c8793: +84.1 Y702,3 <= +104.2
 c8794: +84.1 Y702,4 <= +65.3
 c8795: +84.1 Y702,5 <= +119.6
 c8796: +84.1 Y702,6 <= +189.6
 c8797: +86.1 Y703,0 <= +127.4
 c8798: +86.1 Y703,1 <= +89.3
 c8799: +86.1 Y703,2 <= +127.3
 c8800: +86.1 Y703,3 <= +104.2
 c8801: +86.1 Y703,4 <= +65.3
 c8802: +86.1 Y703,5 <= +119.6
 c8803: +86.1 Y703,6 <= +189.6
 c8804: +108.7 Y704,0 <= +127.4
 c8805: +108.7 Y704,1 <= +89.3
 c8806: +108.7 Y704,2 <= +127.3
 c8807: +108.7 Y704,3 <= +104.2
 c8808: +108.7 Y704,4 <= +65.3
 c8809: +108.7 Y704,5 <= +119.6
 c8810: +108.7 Y704,6 <= +189.6
 c8811: +69.8 Y705,0 <= +127.4
 c8812: +69.8 Y705,1 <= +89.3
 c8813: +69.8 Y705,2 <= +127.3
 c8814: +69.8 Y705,3 <= +104.2
 c8815: +69.8 Y705,4 <= +65.3
 c8816: +69.8 Y705,5 <= +119.6
 c8817: +69.8 Y705,6 <= +189.6
 c8818: +92.4 Y706,0 <= +127.4
 c8819: +92.4 Y706,1 <= +89.3
 c8820: +92.4 Y706,2 <= +127.3
 c8821: +92.4 Y706,3 <= +104.2
 c8822: +92.4 Y706,4 <= +65.3
 c8823: +92.4 Y706,5 <= +119.6
 c8824: +92.4 Y706,6 <= +189.6
 c8825: +94.4 Y707,0 <= +127.4
 c8826: +94.4 Y707,1 <= +89.3
 c8827: +94.4 Y707,2 <= +127.3
 c8828: +94.4 Y707,3 <= +104.2
 c8829: +94.4 Y707,4 <= +65.3
 c8830: +94.4 Y707,5 <= +119.6
 c8831: +94.4 Y707,6 <= +189.6
 c8832: +61.2 Y708,0 <= +127.4
 c8833: +61.2 Y708,1 <= +89.3
 c8834: +61.2 Y708,2 <= +127.3
 c8835: +61.2 Y708,3 <= +104.2
 c8836: +61.2 Y708,4 <= +65.3
 c8837: +61.2 Y708,5 <= +119.6
 c8838: +61.2 Y708,6 <= +189.6
 c8839: +83.8 Y709,0 <= +127.4
 c8840: +83.8 Y709,1 <= +89.3
 c8841: +83.8 Y709,2 <= +127.3
 c8842: +83.8 Y709,3 <= +104.2
 c8843: +83.8 Y709,4 <= +65.3
 c8844: +83.8 Y709,5 <= +119.6
 c8845: +83.8 Y709,6 <= +189.6
 c8846: +85.8 Y710,0 <= +127.4
 c8847: +85.8 Y710,1 <= +89.3
 c8848: +85.8 Y710,2 <= +127.3
 c8849: +85.8 Y710,3 <= +104.2
 c8850: +85.8 Y710,4 <= +65.3
 c8851: +85.8 Y710,5 <= +119.6
 c8852: +85.8 Y710,6 <= +189.6
 c8853: +69.5 Y711,0 <= +127.4
 c8854: +69.5 Y711,1 <= +89.3
 c8855: +69.5 Y711,2 <= +127.3
 c8856: +69.5 Y711,3 <= +104.2
 c8857: +69.5 Y711,4 <= +65.3
 c8858: +69.5 Y711,5 <= +119.6
 c8859: +69.5 Y711,6 <= +189.6
 c8860: +90.7 Y712,0 <= +127.4
 c8861: +90.7 Y712,1 <= +89.3
 c8862: +90.7 Y712,2 <= +127.3
 c8863: +90.7 Y712,3 <= +104.2
 c8864: +90.7 Y712,4 <= +65.3
 c8865: +90.7 Y712,5 <= +119.6
 c8866: +90.7 Y712,6 <= +189.6
 c8867: +74.4 Y713,0 <= +127.4
 c8868: +74.4 Y713,1 <= +89.3
 c8869: +74.4 Y713,2 <= +127.3
 c8870: +74.4 Y713,3 <= +104.2
 c8871: +74.4 Y713,4 <= +65.3
 c8872: +74.4 Y713,5 <= +119.6
 c8873: +74.4 Y713,6 <= +189.6
 c8874: +76.4 Y714,0 <= +127.4
 c8875: +76.4 Y714,1 <= +89.3
 c8876: +76.4 Y714,2 <= +127.3
 c8877: +76.4 Y714,3 <= +104.2
 c8878: +76.4 Y714,4 <= +65.3
 c8879: +76.4 Y714,5 <= +119.6
 c8880: +76.4 Y714,6 <= +189.6
 c8881: +99 Y715,0 <= +127.4
 c8882: +99 Y715,1 <= +89.3
 c8883: +99 Y715,2 <= +127.3
 c8884: +99 Y715,3 <= +104.2
 c8885: +99 Y715,4 <= +65.3
 c8886: +99 Y715,5 <= +119.6
 c8887: +99 Y715,6 <= +189.6
 c8888: +65.8 Y716,0 <= +127.4
 c8889: +65.8 Y716,1 <= +89.3
 c8890: +65.8 Y716,2 <= +127.3
 c8891: +65.8 Y716,3 <= +104.2
 c8892: +65.8 Y716,4 <= +65.3
 c8893: +65.8 Y716,5 <= +119.6
 c8894: +65.8 Y716,6 <= +189.6
 c8895: +67.8 Y717,0 <= +127.4
 c8896: +67.8 Y717,1 <= +89.3
 c8897: +67.8 Y717,2 <= +127.3
 c8898: +67.8 Y717,3 <= +104.2
 c8899: +67.8 Y717,4 <= +65.3
 c8900: +67.8 Y717,5 <= +119.6
 c8901: +67.8 Y717,6 <= +189.6
 c8902: +90.4 Y718,0 <= +127.4
 c8903: +90.4 Y718,1 <= +89.3
 c8904: +90.4 Y718,2 <= +127.3
 c8905: +90.4 Y718,3 <= +104.2
 c8906: +90.4 Y718,4 <= +65.3
 c8907: +90.4 Y718,5 <= +119.6
 c8908: +90.4 Y718,6 <= +189.6
 c8909: +51.5 Y719,0 <= +127.4
 c8910: +51.5 Y719,1 <= +89.3
 c8911: +51.5 Y719,2 <= +127.3
 c8912: +51.5 Y719,3 <= +104.2
 c8913: +51.5 Y719,4 <= +65.3
 c8914: +51.5 Y719,5 <= +119.6
 c8915: +51.5 Y719,6 <= +189.6
 c8916: +74.1 Y720,0 <= +127.4
 c8917: +74.1 Y720,1 <= +89.3
 c8918: +74.1 Y720,2 <= +127.3
 c8919: +74.1 Y720,3 <= +104.2
 c8920: +74.1 Y720,4 <= +65.3
 c8921: +74.1 Y720,5 <= +119.6
 c8922: +74.1 Y720,6 <= +189.6
 c8923: +76.1 Y721,0 <= +127.4
 c8924: +76.1 Y721,1 <= +89.3
 c8925: +76.1 Y721,2 <= +127.3
 c8926: +76.1 Y721,3 <= +104.2
 c8927: +76.1 Y721,4 <= +65.3
 c8928: +76.1 Y721,5 <= +119.6
 c8929: +76.1 Y721,6 <= +189.6
 c8930: +93 Y722,0 <= +127.4
 c8931: +93 Y722,1 <= +89.3
 c8932: +93 Y722,2 <= +127.3
 c8933: +93 Y722,3 <= +104.2
 c8934: +93 Y722,4 <= +65.3
 c8935: +93 Y722,5 <= +119.6
 c8936: +93 Y722,6 <= +189.6
 c8937: +95 Y723,0 <= +127.4
 c8938: +95 Y723,1 <= +89.3
 c8939: +95 Y723,2 <= +127.3
 c8940: +95 Y723,3 <= +104.2
 c8941: +95 Y723,4 <= +65.3
 c8942: +95 Y723,5 <= +119.6
 c8943: +95 Y723,6 <= +189.6
 c8944: +117.6 Y724,0 <= +127.4
 c8945: +117.6 Y724,1 <= +89.3
 c8946: +117.6 Y724,2 <= +127.3
 c8947: +117.6 Y724,3 <= +104.2
 c8948: +117.6 Y724,4 <= +65.3
 c8949: +117.6 Y724,5 <= +119.6
 c8950: +117.6 Y724,6 <= +189.6
 c8951: +78.7 Y725,0 <= +127.4
 c8952: +78.7 Y725,1 <= +89.3
 c8953: +78.7 Y725,2 <= +127.3
 c8954: +78.7 Y725,3 <= +104.2
 c8955: +78.7 Y725,4 <= +65.3
 c8956: +78.7 Y725,5 <= +119.6
 c8957: +78.7 Y725,6 <= +189.6
 c8958: +101.3 Y726,0 <= +127.4
 c8959: +101.3 Y726,1 <= +89.3
 c8960: +101.3 Y726,2 <= +127.3
 c8961: +101.3 Y726,3 <= +104.2
 c8962: +101.3 Y726,4 <= +65.3
 c8963: +101.3 Y726,5 <= +119.6
 c8964: +101.3 Y726,6 <= +189.6
 c8965: +103.3 Y727,0 <= +127.4
 c8966: +103.3 Y727,1 <= +89.3
 c8967: +103.3 Y727,2 <= +127.3
 c8968: +103.3 Y727,3 <= +104.2
 c8969: +103.3 Y727,4 <= +65.3
 c8970: +103.3 Y727,5 <= +119.6
 c8971: +103.3 Y727,6 <= +189.6
 c8972: +70.1 Y728,0 <= +127.4
 c8973: +70.1 Y728,1 <= +89.3
 c8974: +70.1 Y728,2 <= +127.3
 c8975: +70.1 Y728,3 <= +104.2
 c8976: +70.1 Y728,4 <= +65.3
 c8977: +70.1 Y728,5 <= +119.6
 c8978: +70.1 Y728,6 <= +189.6
 c8979: +92.7 Y729,0 <= +127.4
 c8980: +92.7 Y729,1 <= +89.3
 c8981: +92.7 Y729,2 <= +127.3
 c8982: +92.7 Y729,3 <= +104.2
 c8983: +92.7 Y729,4 <= +65.3
 c8984: +92.7 Y729,5 <= +119.6
 c8985: +92.7 Y729,6 <= +189.6
 c8986: +94.7 Y730,0 <= +127.4
 c8987: +94.7 Y730,1 <= +89.3
 c8988: +94.7 Y730,2 <= +127.3
 c8989: +94.7 Y730,3 <= +104.2
 c8990: +94.7 Y730,4 <= +65.3
 c8991: +94.7 Y730,5 <= +119.6
 c8992: +94.7 Y730,6 <= +189.6
 c8993: +78.4 Y731,0 <= +127.4
 c8994: +78.4 Y731,1 <= +89.3
 c8995: +78.4 Y731,2 <= +127.3
 c8996: +78.4 Y731,3 <= +104.2
 c8997: +78.4 Y731,4 <= +65.3
 c8998: +78.4 Y731,5 <= +119.6
 c8999: +78.4 Y731,6 <= +189.6
 c9000: +63.3 Y732,0 <= +127.4
 c9001: +63.3 Y732,1 <= +89.3
 c9002: +63.3 Y732,2 <= +127.3
 c9003: +63.3 Y732,3 <= +104.2
 c9004: +63.3 Y732,4 <= +65.3
 c9005: +63.3 Y732,5 <= +119.6
 c9006: +63.3 Y732,6 <= +189.6
 c9007: +65.3 Y733,0 <= +127.4
 c9008: +65.3 Y733,1 <= +89.3
 c9009: +65.3 Y733,2 <= +127.3
 c9010: +65.3 Y733,3 <= +104.2
 c9011: +65.3 Y733,4 <= +65.3
 c9012: +65.3 Y733,5 <= +119.6
 c9013: +65.3 Y733,6 <= +189.6
 c9014: +87.9 Y734,0 <= +127.4
 c9015: +87.9 Y734,1 <= +89.3
 c9016: +87.9 Y734,2 <= +127.3
 c9017: +87.9 Y734,3 <= +104.2
 c9018: +87.9 Y734,4 <= +65.3
 c9019: +87.9 Y734,5 <= +119.6
 c9020: +87.9 Y734,6 <= +189.6
 c9021: +49 Y735,0 <= +127.4
 c9022: +49 Y735,1 <= +89.3
 c9023: +49 Y735,2 <= +127.3
 c9024: +49 Y735,3 <= +104.2
 c9025: +49 Y735,4 <= +65.3
 c9026: +49 Y735,5 <= +119.6
 c9027: +49 Y735,6 <= +189.6
 c9028: +71.6 Y736,0 <= +127.4
 c9029: +71.6 Y736,1 <= +89.3
 c9030: +71.6 Y736,2 <= +127.3
 c9031: +71.6 Y736,3 <= +104.2
 c9032: +71.6 Y736,4 <= +65.3
 c9033: +71.6 Y736,5 <= +119.6
 c9034: +71.6 Y736,6 <= +189.6
 c9035: +73.6 Y737,0 <= +127.4
 c9036: +73.6 Y737,1 <= +89.3
 c9037: +73.6 Y737,2 <= +127.3
 c9038: +73.6 Y737,3 <= +104.2
 c9039: +73.6 Y737,4 <= +65.3
 c9040: +73.6 Y737,5 <= +119.6
 c9041: +73.6 Y737,6 <= +189.6
 c9042: +40.4 Y738,0 <= +127.4
 c9043: +40.4 Y738,1 <= +89.3
 c9044: +40.4 Y738,2 <= +127.3
 c9045: +40.4 Y738,3 <= +104.2
 c9046: +40.4 Y738,4 <= +65.3
 c9047: +40.4 Y738,5 <= +119.6
 c9048: +40.4 Y738,6 <= +189.6
 c9049: +63 Y739,0 <= +127.4
 c9050: +63 Y739,1 <= +89.3
 c9051: +63 Y739,2 <= +127.3
 c9052: +63 Y739,3 <= +104.2
 c9053: +63 Y739,4 <= +65.3
 c9054: +63 Y739,5 <= +119.6
 c9055: +63 Y739,6 <= +189.6
 c9056: +65 Y740,0 <= +127.4
 c9057: +65 Y740,1 <= +89.3
 c9058: +65 Y740,2 <= +127.3
 c9059: +65 Y740,3 <= +104.2
 c9060: +65 Y740,4 <= +65.3
 c9061: +65 Y740,5 <= +119.6
 c9062: +65 Y740,6 <= +189.6
 c9063: +48.7 Y741,0 <= +127.4
 c9064: +48.7 Y741,1 <= +89.3
 c9065: +48.7 Y741,2 <= +127.3
 c9066: +48.7 Y741,3 <= +104.2
 c9067: +48.7 Y741,4 <= +65.3
 c9068: +48.7 Y741,5 <= +119.6
 c9069: +48.7 Y741,6 <= +189.6
 c9070: +67.6 Y742,0 <= +127.4
 c9071: +67.6 Y742,1 <= +89.3
 c9072: +67.6 Y742,2 <= +127.3
 c9073: +67.6 Y742,3 <= +104.2
 c9074: +67.6 Y742,4 <= +65.3
 c9075: +67.6 Y742,5 <= +119.6
 c9076: +67.6 Y742,6 <= +189.6
 c9077: +90.2 Y743,0 <= +127.4
 c9078: +90.2 Y743,1 <= +89.3
 c9079: +90.2 Y743,2 <= +127.3
 c9080: +90.2 Y743,3 <= +104.2
 c9081: +90.2 Y743,4 <= +65.3
 c9082: +90.2 Y743,5 <= +119.6
 c9083: +90.2 Y743,6 <= +189.6
 c9084: +92.2 Y744,0 <= +127.4
 c9085: +92.2 Y744,1 <= +89.3
 c9086: +92.2 Y744,2 <= +127.3
 c9087: +92.2 Y744,3 <= +104.2
 c9088: +92.2 Y744,4 <= +65.3
 c9089: +92.2 Y744,5 <= +119.6
 c9090: +92.2 Y744,6 <= +189.6
 c9091: +75.9 Y745,0 <= +127.4
 c9092: +75.9 Y745,1 <= +89.3
 c9093: +75.9 Y745,2 <= +127.3
 c9094: +75.9 Y745,3 <= +104.2
 c9095: +75.9 Y745,4 <= +65.3
 c9096: +75.9 Y745,5 <= +119.6
 c9097: +75.9 Y745,6 <= +189.6
 c9098: +67.3 Y746,0 <= +127.4
 c9099: +67.3 Y746,1 <= +89.3
 c9100: +67.3 Y746,2 <= +127.3
 c9101: +67.3 Y746,3 <= +104.2
 c9102: +67.3 Y746,4 <= +65.3
 c9103: +67.3 Y746,5 <= +119.6
 c9104: +67.3 Y746,6 <= +189.6
 c9105: +115.3 Y747,0 <= +127.4
 c9106: +115.3 Y747,1 <= +89.3
 c9107: +115.3 Y747,2 <= +127.3
 c9108: +115.3 Y747,3 <= +104.2
 c9109: +115.3 Y747,4 <= +65.3
 c9110: +115.3 Y747,5 <= +119.6
 c9111: +115.3 Y747,6 <= +189.6
 c9112: +99 Y748,0 <= +127.4
 c9113: +99 Y748,1 <= +89.3
 c9114: +99 Y748,2 <= +127.3
 c9115: +99 Y748,3 <= +104.2
 c9116: +99 Y748,4 <= +65.3
 c9117: +99 Y748,5 <= +119.6
 c9118: +99 Y748,6 <= +189.6
 c9119: +101 Y749,0 <= +127.4
 c9120: +101 Y749,1 <= +89.3
 c9121: +101 Y749,2 <= +127.3
 c9122: +101 Y749,3 <= +104.2
 c9123: +101 Y749,4 <= +65.3
 c9124: +101 Y749,5 <= +119.6
 c9125: +101 Y749,6 <= +189.6
 c9126: +123.6 Y750,0 <= +127.4
 c9127: +123.6 Y750,1 <= +89.3
 c9128: +123.6 Y750,2 <= +127.3
 c9129: +123.6 Y750,3 <= +104.2
 c9130: +123.6 Y750,4 <= +65.3
 c9131: +123.6 Y750,5 <= +119.6
 c9132: +123.6 Y750,6 <= +189.6
 c9133: +90.4 Y751,0 <= +127.4
 c9134: +90.4 Y751,1 <= +89.3
 c9135: +90.4 Y751,2 <= +127.3
 c9136: +90.4 Y751,3 <= +104.2
 c9137: +90.4 Y751,4 <= +65.3
 c9138: +90.4 Y751,5 <= +119.6
 c9139: +90.4 Y751,6 <= +189.6
 c9140: +92.4 Y752,0 <= +127.4
 c9141: +92.4 Y752,1 <= +89.3
 c9142: +92.4 Y752,2 <= +127.3
 c9143: +92.4 Y752,3 <= +104.2
 c9144: +92.4 Y752,4 <= +65.3
 c9145: +92.4 Y752,5 <= +119.6
 c9146: +92.4 Y752,6 <= +189.6
 c9147: +115 Y753,0 <= +127.4
 c9148: +115 Y753,1 <= +89.3
 c9149: +115 Y753,2 <= +127.3
 c9150: +115 Y753,3 <= +104.2
 c9151: +115 Y753,4 <= +65.3
 c9152: +115 Y753,5 <= +119.6
 c9153: +115 Y753,6 <= +189.6
 c9154: +76.1 Y754,0 <= +127.4
 c9155: +76.1 Y754,1 <= +89.3
 c9156: +76.1 Y754,2 <= +127.3
 c9157: +76.1 Y754,3 <= +104.2
 c9158: +76.1 Y754,4 <= +65.3
 c9159: +76.1 Y754,5 <= +119.6
 c9160: +76.1 Y754,6 <= +189.6
 c9161: +98.7 Y755,0 <= +127.4
 c9162: +98.7 Y755,1 <= +89.3
 c9163: +98.7 Y755,2 <= +127.3
 c9164: +98.7 Y755,3 <= +104.2
 c9165: +98.7 Y755,4 <= +65.3
 c9166: +98.7 Y755,5 <= +119.6
 c9167: +98.7 Y755,6 <= +189.6
 c9168: +100.7 Y756,0 <= +127.4
 c9169: +100.7 Y756,1 <= +89.3
 c9170: +100.7 Y756,2 <= +127.3
 c9171: +100.7 Y756,3 <= +104.2
 c9172: +100.7 Y756,4 <= +65.3
 c9173: +100.7 Y756,5 <= +119.6
 c9174: +100.7 Y756,6 <= +189.6
 c9175: +117.6 Y757,0 <= +127.4
 c9176: +117.6 Y757,1 <= +89.3
 c9177: +117.6 Y757,2 <= +127.3
 c9178: +117.6 Y757,3 <= +104.2
 c9179: +117.6 Y757,4 <= +65.3
 c9180: +117.6 Y757,5 <= +119.6
 c9181: +117.6 Y757,6 <= +189.6
 c9182: +119.6 Y758,0 <= +127.4
 c9183: +119.6 Y758,1 <= +89.3
 c9184: +119.6 Y758,2 <= +127.3
 c9185: +119.6 Y758,3 <= +104.2
 c9186: +119.6 Y758,4 <= +65.3
 c9187: +119.6 Y758,5 <= +119.6
 c9188: +119.6 Y758,6 <= +189.6
 c9189: +142.2 Y759,0 <= +127.4
 c9190: +142.2 Y759,1 <= +89.3
 c9191: +142.2 Y759,2 <= +127.3
 c9192: +142.2 Y759,3 <= +104.2
 c9193: +142.2 Y759,4 <= +65.3
 c9194: +142.2 Y759,5 <= +119.6
 c9195: +142.2 Y759,6 <= +189.6
 c9196: +103.3 Y760,0 <= +127.4
 c9197: +103.3 Y760,1 <= +89.3
 c9198: +103.3 Y760,2 <= +127.3
 c9199: +103.3 Y760,3 <= +104.2
 c9200: +103.3 Y760,4 <= +65.3
 c9201: +103.3 Y760,5 <= +119.6
 c9202: +103.3 Y760,6 <= +189.6
 c9203: +125.9 Y761,0 <= +127.4
 c9204: +125.9 Y761,1 <= +89.3
 c9205: +125.9 Y761,2 <= +127.3
 c9206: +125.9 Y761,3 <= +104.2
 c9207: +125.9 Y761,4 <= +65.3
 c9208: +125.9 Y761,5 <= +119.6
 c9209: +125.9 Y761,6 <= +189.6
 c9210: +127.9 Y762,0 <= +127.4
 c9211: +127.9 Y762,1 <= +89.3
 c9212: +127.9 Y762,2 <= +127.3
 c9213: +127.9 Y762,3 <= +104.2
 c9214: +127.9 Y762,4 <= +65.3
 c9215: +127.9 Y762,5 <= +119.6
 c9216: +127.9 Y762,6 <= +189.6
 c9217: +94.7 Y763,0 <= +127.4
 c9218: +94.7 Y763,1 <= +89.3
 c9219: +94.7 Y763,2 <= +127.3
 c9220: +94.7 Y763,3 <= +104.2
 c9221: +94.7 Y763,4 <= +65.3
 c9222: +94.7 Y763,5 <= +119.6
 c9223: +94.7 Y763,6 <= +189.6
 c9224: +117.3 Y764,0 <= +127.4
 c9225: +117.3 Y764,1 <= +89.3
 c9226: +117.3 Y764,2 <= +127.3
 c9227: +117.3 Y764,3 <= +104.2
 c9228: +117.3 Y764,4 <= +65.3
 c9229: +117.3 Y764,5 <= +119.6
 c9230: +117.3 Y764,6 <= +189.6
 c9231: +119.3 Y765,0 <= +127.4
 c9232: +119.3 Y765,1 <= +89.3
 c9233: +119.3 Y765,2 <= +127.3
 c9234: +119.3 Y765,3 <= +104.2
 c9235: +119.3 Y765,4 <= +65.3
 c9236: +119.3 Y765,5 <= +119.6
 c9237: +119.3 Y765,6 <= +189.6
 c9238: +103 Y766,0 <= +127.4
 c9239: +103 Y766,1 <= +89.3
 c9240: +103 Y766,2 <= +127.3
 c9241: +103 Y766,3 <= +104.2
 c9242: +103 Y766,4 <= +65.3
 c9243: +103 Y766,5 <= +119.6
 c9244: +103 Y766,6 <= +189.6
 c9245: +87.9 Y767,0 <= +127.4
 c9246: +87.9 Y767,1 <= +89.3
 c9247: +87.9 Y767,2 <= +127.3
 c9248: +87.9 Y767,3 <= +104.2
 c9249: +87.9 Y767,4 <= +65.3
 c9250: +87.9 Y767,5 <= +119.6
 c9251: +87.9 Y767,6 <= +189.6
 c9252: +89.9 Y768,0 <= +127.4
 c9253: +89.9 Y768,1 <= +89.3
 c9254: +89.9 Y768,2 <= +127.3
 c9255: +89.9 Y768,3 <= +104.2
 c9256: +89.9 Y768,4 <= +65.3
 c9257: +89.9 Y768,5 <= +119.6
 c9258: +89.9 Y768,6 <= +189.6
 c9259: +112.5 Y769,0 <= +127.4
 c9260: +112.5 Y769,1 <= +89.3
 c9261: +112.5 Y769,2 <= +127.3
 c9262: +112.5 Y769,3 <= +104.2
 c9263: +112.5 Y769,4 <= +65.3
 c9264: +112.5 Y769,5 <= +119.6
 c9265: +112.5 Y769,6 <= +189.6
 c9266: +73.6 Y770,0 <= +127.4
 c9267: +73.6 Y770,1 <= +89.3
 c9268: +73.6 Y770,2 <= +127.3
 c9269: +73.6 Y770,3 <= +104.2
 c9270: +73.6 Y770,4 <= +65.3
 c9271: +73.6 Y770,5 <= +119.6
 c9272: +73.6 Y770,6 <= +189.6
 c9273: +96.2 Y771,0 <= +127.4
 c9274: +96.2 Y771,1 <= +89.3
 c9275: +96.2 Y771,2 <= +127.3
 c9276: +96.2 Y771,3 <= +104.2
 c9277: +96.2 Y771,4 <= +65.3
 c9278: +96.2 Y771,5 <= +119.6
 c9279: +96.2 Y771,6 <= +189.6
 c9280: +98.2 Y772,0 <= +127.4
 c9281: +98.2 Y772,1 <= +89.3
 c9282: +98.2 Y772,2 <= +127.3
 c9283: +98.2 Y772,3 <= +104.2
 c9284: +98.2 Y772,4 <= +65.3
 c9285: +98.2 Y772,5 <= +119.6
 c9286: +98.2 Y772,6 <= +189.6
 c9287: +65 Y773,0 <= +127.4
 c9288: +65 Y773,1 <= +89.3
 c9289: +65 Y773,2 <= +127.3
 c9290: +65 Y773,3 <= +104.2
 c9291: +65 Y773,4 <= +65.3
 c9292: +65 Y773,5 <= +119.6
 c9293: +65 Y773,6 <= +189.6
 c9294: +87.6 Y774,0 <= +127.4
 c9295: +87.6 Y774,1 <= +89.3
 c9296: +87.6 Y774,2 <= +127.3
 c9297: +87.6 Y774,3 <= +104.2
 c9298: +87.6 Y774,4 <= +65.3
 c9299: +87.6 Y774,5 <= +119.6
 c9300: +87.6 Y774,6 <= +189.6
 c9301: +89.6 Y775,0 <= +127.4
 c9302: +89.6 Y775,1 <= +89.3
 c9303: +89.6 Y775,2 <= +127.3
 c9304: +89.6 Y775,3 <= +104.2
 c9305: +89.6 Y775,4 <= +65.3
 c9306: +89.6 Y775,5 <= +119.6
 c9307: +89.6 Y775,6 <= +189.6
 c9308: +73.3 Y776,0 <= +127.4
 c9309: +73.3 Y776,1 <= +89.3
 c9310: +73.3 Y776,2 <= +127.3
 c9311: +73.3 Y776,3 <= +104.2
 c9312: +73.3 Y776,4 <= +65.3
 c9313: +73.3 Y776,5 <= +119.6
 c9314: +73.3 Y776,6 <= +189.6
 c9315: +92.2 Y777,0 <= +127.4
 c9316: +92.2 Y777,1 <= +89.3
 c9317: +92.2 Y777,2 <= +127.3
 c9318: +92.2 Y777,3 <= +104.2
 c9319: +92.2 Y777,4 <= +65.3
 c9320: +92.2 Y777,5 <= +119.6
 c9321: +92.2 Y777,6 <= +189.6
 c9322: +114.8 Y778,0 <= +127.4
 c9323: +114.8 Y778,1 <= +89.3
 c9324: +114.8 Y778,2 <= +127.3
 c9325: +114.8 Y778,3 <= +104.2
 c9326: +114.8 Y778,4 <= +65.3
 c9327: +114.8 Y778,5 <= +119.6
 c9328: +114.8 Y778,6 <= +189.6
 c9329: +116.8 Y779,0 <= +127.4
 c9330: +116.8 Y779,1 <= +89.3
 c9331: +116.8 Y779,2 <= +127.3
 c9332: +116.8 Y779,3 <= +104.2
 c9333: +116.8 Y779,4 <= +65.3
 c9334: +116.8 Y779,5 <= +119.6
 c9335: +116.8 Y779,6 <= +189.6
 c9336: +100.5 Y780,0 <= +127.4
 c9337: +100.5 Y780,1 <= +89.3
 c9338: +100.5 Y780,2 <= +127.3
 c9339: +100.5 Y780,3 <= +104.2
 c9340: +100.5 Y780,4 <= +65.3
 c9341: +100.5 Y780,5 <= +119.6
 c9342: +100.5 Y780,6 <= +189.6
 c9343: +91.9 Y781,0 <= +127.4
 c9344: +91.9 Y781,1 <= +89.3
 c9345: +91.9 Y781,2 <= +127.3
 c9346: +91.9 Y781,3 <= +104.2
 c9347: +91.9 Y781,4 <= +65.3
 c9348: +91.9 Y781,5 <= +119.6
 c9349: +91.9 Y781,6 <= +189.6
 c9350: +96.8 Y782,0 <= +127.4
 c9351: +96.8 Y782,1 <= +89.3
 c9352: +96.8 Y782,2 <= +127.3
 c9353: +96.8 Y782,3 <= +104.2
 c9354: +96.8 Y782,4 <= +65.3
 c9355: +96.8 Y782,5 <= +119.6
 c9356: +96.8 Y782,6 <= +189.6
 c9357: +98.8 Y783,0 <= +127.4
 c9358: +98.8 Y783,1 <= +89.3
 c9359: +98.8 Y783,2 <= +127.3
 c9360: +98.8 Y783,3 <= +104.2
 c9361: +98.8 Y783,4 <= +65.3
 c9362: +98.8 Y783,5 <= +119.6
 c9363: +98.8 Y783,6 <= +189.6
 c9364: +121.4 Y784,0 <= +127.4
 c9365: +121.4 Y784,1 <= +89.3
 c9366: +121.4 Y784,2 <= +127.3
 c9367: +121.4 Y784,3 <= +104.2
 c9368: +121.4 Y784,4 <= +65.3
 c9369: +121.4 Y784,5 <= +119.6
 c9370: +121.4 Y784,6 <= +189.6
 c9371: +82.5 Y785,0 <= +127.4
 c9372: +82.5 Y785,1 <= +89.3
 c9373: +82.5 Y785,2 <= +127.3
 c9374: +82.5 Y785,3 <= +104.2
 c9375: +82.5 Y785,4 <= +65.3
 c9376: +82.5 Y785,5 <= +119.6
 c9377: +82.5 Y785,6 <= +189.6
 c9378: +105.1 Y786,0 <= +127.4
 c9379: +105.1 Y786,1 <= +89.3
 c9380: +105.1 Y786,2 <= +127.3
 c9381: +105.1 Y786,3 <= +104.2
 c9382: +105.1 Y786,4 <= +65.3
 c9383: +105.1 Y786,5 <= +119.6
 c9384: +105.1 Y786,6 <= +189.6
 c9385: +107.1 Y787,0 <= +127.4
 c9386: +107.1 Y787,1 <= +89.3
 c9387: +107.1 Y787,2 <= +127.3
 c9388: +107.1 Y787,3 <= +104.2
 c9389: +107.1 Y787,4 <= +65.3
 c9390: +107.1 Y787,5 <= +119.6
 c9391: +107.1 Y787,6 <= +189.6
 c9392: +73.9 Y788,0 <= +127.4
 c9393: +73.9 Y788,1 <= +89.3
 c9394: +73.9 Y788,2 <= +127.3
 c9395: +73.9 Y788,3 <= +104.2
 c9396: +73.9 Y788,4 <= +65.3
 c9397: +73.9 Y788,5 <= +119.6
 c9398: +73.9 Y788,6 <= +189.6
 c9399: +96.5 Y789,0 <= +127.4
 c9400: +96.5 Y789,1 <= +89.3
 c9401: +96.5 Y789,2 <= +127.3
 c9402: +96.5 Y789,3 <= +104.2
 c9403: +96.5 Y789,4 <= +65.3
 c9404: +96.5 Y789,5 <= +119.6
 c9405: +96.5 Y789,6 <= +189.6
 c9406: +98.5 Y790,0 <= +127.4
 c9407: +98.5 Y790,1 <= +89.3
 c9408: +98.5 Y790,2 <= +127.3
 c9409: +98.5 Y790,3 <= +104.2
 c9410: +98.5 Y790,4 <= +65.3
 c9411: +98.5 Y790,5 <= +119.6
 c9412: +98.5 Y790,6 <= +189.6
 c9413: +82.2 Y791,0 <= +127.4
 c9414: +82.2 Y791,1 <= +89.3
 c9415: +82.2 Y791,2 <= +127.3
 c9416: +82.2 Y791,3 <= +104.2
 c9417: +82.2 Y791,4 <= +65.3
 c9418: +82.2 Y791,5 <= +119.6
 c9419: +82.2 Y791,6 <= +189.6
 c9420: +101.1 Y792,0 <= +127.4
 c9421: +101.1 Y792,1 <= +89.3
 c9422: +101.1 Y792,2 <= +127.3
 c9423: +101.1 Y792,3 <= +104.2
 c9424: +101.1 Y792,4 <= +65.3
 c9425: +101.1 Y792,5 <= +119.6
 c9426: +101.1 Y792,6 <= +189.6
 c9427: +123.7 Y793,0 <= +127.4
 c9428: +123.7 Y793,1 <= +89.3
 c9429: +123.7 Y793,2 <= +127.3
 c9430: +123.7 Y793,3 <= +104.2
 c9431: +123.7 Y793,4 <= +65.3
 c9432: +123.7 Y793,5 <= +119.6
 c9433: +123.7 Y793,6 <= +189.6
 c9434: +125.7 Y794,0 <= +127.4
 c9435: +125.7 Y794,1 <= +89.3
 c9436: +125.7 Y794,2 <= +127.3
 c9437: +125.7 Y794,3 <= +104.2
 c9438: +125.7 Y794,4 <= +65.3
 c9439: +125.7 Y794,5 <= +119.6
 c9440: +125.7 Y794,6 <= +189.6
 c9441: +109.4 Y795,0 <= +127.4
 c9442: +109.4 Y795,1 <= +89.3
 c9443: +109.4 Y795,2 <= +127.3
 c9444: +109.4 Y795,3 <= +104.2
 c9445: +109.4 Y795,4 <= +65.3
 c9446: +109.4 Y795,5 <= +119.6
 c9447: +109.4 Y795,6 <= +189.6
 c9448: +100.8 Y796,0 <= +127.4
 c9449: +100.8 Y796,1 <= +89.3
 c9450: +100.8 Y796,2 <= +127.3
 c9451: +100.8 Y796,3 <= +104.2
 c9452: +100.8 Y796,4 <= +65.3
 c9453: +100.8 Y796,5 <= +119.6
 c9454: +100.8 Y796,6 <= +189.6
 c9455: +71.4 Y797,0 <= +127.4
 c9456: +71.4 Y797,1 <= +89.3
 c9457: +71.4 Y797,2 <= +127.3
 c9458: +71.4 Y797,3 <= +104.2
 c9459: +71.4 Y797,4 <= +65.3
 c9460: +71.4 Y797,5 <= +119.6
 c9461: +71.4 Y797,6 <= +189.6
 c9462: +94 Y798,0 <= +127.4
 c9463: +94 Y798,1 <= +89.3
 c9464: +94 Y798,2 <= +127.3
 c9465: +94 Y798,3 <= +104.2
 c9466: +94 Y798,4 <= +65.3
 c9467: +94 Y798,5 <= +119.6
 c9468: +94 Y798,6 <= +189.6
 c9469: +96 Y799,0 <= +127.4
 c9470: +96 Y799,1 <= +89.3
 c9471: +96 Y799,2 <= +127.3
 c9472: +96 Y799,3 <= +104.2
 c9473: +96 Y799,4 <= +65.3
 c9474: +96 Y799,5 <= +119.6
 c9475: +96 Y799,6 <= +189.6
 c9476: +79.7 Y800,0 <= +127.4
 c9477: +79.7 Y800,1 <= +89.3
 c9478: +79.7 Y800,2 <= +127.3
 c9479: +79.7 Y800,3 <= +104.2
 c9480: +79.7 Y800,4 <= +65.3
 c9481: +79.7 Y800,5 <= +119.6
 c9482: +79.7 Y800,6 <= +189.6
 c9483: +71.1 Y801,0 <= +127.4
 c9484: +71.1 Y801,1 <= +89.3
 c9485: +71.1 Y801,2 <= +127.3
 c9486: +71.1 Y801,3 <= +104.2
 c9487: +71.1 Y801,4 <= +65.3
 c9488: +71.1 Y801,5 <= +119.6
 c9489: +71.1 Y801,6 <= +189.6
 c9490: +98.3 Y802,0 <= +127.4
 c9491: +98.3 Y802,1 <= +89.3
 c9492: +98.3 Y802,2 <= +127.3
 c9493: +98.3 Y802,3 <= +104.2
 c9494: +98.3 Y802,4 <= +65.3
 c9495: +98.3 Y802,5 <= +119.6
 c9496: +98.3 Y802,6 <= +189.6
 c9497: +121.4 Y803,0 <= +127.4
 c9498: +121.4 Y803,1 <= +89.3
 c9499: +121.4 Y803,2 <= +127.3
 c9500: +121.4 Y803,3 <= +104.2
 c9501: +121.4 Y803,4 <= +65.3
 c9502: +121.4 Y803,5 <= +119.6
 c9503: +121.4 Y803,6 <= +189.6
 c9504: +123.4 Y804,0 <= +127.4
 c9505: +123.4 Y804,1 <= +89.3
 c9506: +123.4 Y804,2 <= +127.3
 c9507: +123.4 Y804,3 <= +104.2
 c9508: +123.4 Y804,4 <= +65.3
 c9509: +123.4 Y804,5 <= +119.6
 c9510: +123.4 Y804,6 <= +189.6
 c9511: +146 Y805,0 <= +127.4
 c9512: +146 Y805,1 <= +89.3
 c9513: +146 Y805,2 <= +127.3
 c9514: +146 Y805,3 <= +104.2
 c9515: +146 Y805,4 <= +65.3
 c9516: +146 Y805,5 <= +119.6
 c9517: +146 Y805,6 <= +189.6
 c9518: +107.1 Y806,0 <= +127.4
 c9519: +107.1 Y806,1 <= +89.3
 c9520: +107.1 Y806,2 <= +127.3
 c9521: +107.1 Y806,3 <= +104.2
 c9522: +107.1 Y806,4 <= +65.3
 c9523: +107.1 Y806,5 <= +119.6
 c9524: +107.1 Y806,6 <= +189.6
 c9525: +129.7 Y807,0 <= +127.4
 c9526: +129.7 Y807,1 <= +89.3
 c9527: +129.7 Y807,2 <= +127.3
 c9528: +129.7 Y807,3 <= +104.2
 c9529: +129.7 Y807,4 <= +65.3
 c9530: +129.7 Y807,5 <= +119.6
 c9531: +129.7 Y807,6 <= +189.6
 c9532: +131.7 Y808,0 <= +127.4
 c9533: +131.7 Y808,1 <= +89.3
 c9534: +131.7 Y808,2 <= +127.3
 c9535: +131.7 Y808,3 <= +104.2
 c9536: +131.7 Y808,4 <= +65.3
 c9537: +131.7 Y808,5 <= +119.6
 c9538: +131.7 Y808,6 <= +189.6
 c9539: +98.5 Y809,0 <= +127.4
 c9540: +98.5 Y809,1 <= +89.3
 c9541: +98.5 Y809,2 <= +127.3
 c9542: +98.5 Y809,3 <= +104.2
 c9543: +98.5 Y809,4 <= +65.3
 c9544: +98.5 Y809,5 <= +119.6
 c9545: +98.5 Y809,6 <= +189.6
 c9546: +121.1 Y810,0 <= +127.4
 c9547: +121.1 Y810,1 <= +89.3
 c9548: +121.1 Y810,2 <= +127.3
 c9549: +121.1 Y810,3 <= +104.2
 c9550: +121.1 Y810,4 <= +65.3
 c9551: +121.1 Y810,5 <= +119.6
 c9552: +121.1 Y810,6 <= +189.6
 c9553: +123.1 Y811,0 <= +127.4
 c9554: +123.1 Y811,1 <= +89.3
 c9555: +123.1 Y811,2 <= +127.3
 c9556: +123.1 Y811,3 <= +104.2
 c9557: +123.1 Y811,4 <= +65.3
 c9558: +123.1 Y811,5 <= +119.6
 c9559: +123.1 Y811,6 <= +189.6
 c9560: +106.8 Y812,0 <= +127.4
 c9561: +106.8 Y812,1 <= +89.3
 c9562: +106.8 Y812,2 <= +127.3
 c9563: +106.8 Y812,3 <= +104.2
 c9564: +106.8 Y812,4 <= +65.3
 c9565: +106.8 Y812,5 <= +119.6
 c9566: +106.8 Y812,6 <= +189.6
 c9567: +125.7 Y813,0 <= +127.4
 c9568: +125.7 Y813,1 <= +89.3
 c9569: +125.7 Y813,2 <= +127.3
 c9570: +125.7 Y813,3 <= +104.2
 c9571: +125.7 Y813,4 <= +65.3
 c9572: +125.7 Y813,5 <= +119.6
 c9573: +125.7 Y813,6 <= +189.6
 c9574: +148.3 Y814,0 <= +127.4
 c9575: +148.3 Y814,1 <= +89.3
 c9576: +148.3 Y814,2 <= +127.3
 c9577: +148.3 Y814,3 <= +104.2
 c9578: +148.3 Y814,4 <= +65.3
 c9579: +148.3 Y814,5 <= +119.6
 c9580: +148.3 Y814,6 <= +189.6
 c9581: +150.3 Y815,0 <= +127.4
 c9582: +150.3 Y815,1 <= +89.3
 c9583: +150.3 Y815,2 <= +127.3
 c9584: +150.3 Y815,3 <= +104.2
 c9585: +150.3 Y815,4 <= +65.3
 c9586: +150.3 Y815,5 <= +119.6
 c9587: +150.3 Y815,6 <= +189.6
 c9588: +134 Y816,0 <= +127.4
 c9589: +134 Y816,1 <= +89.3
 c9590: +134 Y816,2 <= +127.3
 c9591: +134 Y816,3 <= +104.2
 c9592: +134 Y816,4 <= +65.3
 c9593: +134 Y816,5 <= +119.6
 c9594: +134 Y816,6 <= +189.6
 c9595: +125.4 Y817,0 <= +127.4
 c9596: +125.4 Y817,1 <= +89.3
 c9597: +125.4 Y817,2 <= +127.3
 c9598: +125.4 Y817,3 <= +104.2
 c9599: +125.4 Y817,4 <= +65.3
 c9600: +125.4 Y817,5 <= +119.6
 c9601: +125.4 Y817,6 <= +189.6
 c9602: +96 Y818,0 <= +127.4
 c9603: +96 Y818,1 <= +89.3
 c9604: +96 Y818,2 <= +127.3
 c9605: +96 Y818,3 <= +104.2
 c9606: +96 Y818,4 <= +65.3
 c9607: +96 Y818,5 <= +119.6
 c9608: +96 Y818,6 <= +189.6
 c9609: +118.6 Y819,0 <= +127.4
 c9610: +118.6 Y819,1 <= +89.3
 c9611: +118.6 Y819,2 <= +127.3
 c9612: +118.6 Y819,3 <= +104.2
 c9613: +118.6 Y819,4 <= +65.3
 c9614: +118.6 Y819,5 <= +119.6
 c9615: +118.6 Y819,6 <= +189.6
 c9616: +120.6 Y820,0 <= +127.4
 c9617: +120.6 Y820,1 <= +89.3
 c9618: +120.6 Y820,2 <= +127.3
 c9619: +120.6 Y820,3 <= +104.2
 c9620: +120.6 Y820,4 <= +65.3
 c9621: +120.6 Y820,5 <= +119.6
 c9622: +120.6 Y820,6 <= +189.6
 c9623: +104.3 Y821,0 <= +127.4
 c9624: +104.3 Y821,1 <= +89.3
 c9625: +104.3 Y821,2 <= +127.3
 c9626: +104.3 Y821,3 <= +104.2
 c9627: +104.3 Y821,4 <= +65.3
 c9628: +104.3 Y821,5 <= +119.6
 c9629: +104.3 Y821,6 <= +189.6
 c9630: +95.7 Y822,0 <= +127.4
 c9631: +95.7 Y822,1 <= +89.3
 c9632: +95.7 Y822,2 <= +127.3
 c9633: +95.7 Y822,3 <= +104.2
 c9634: +95.7 Y822,4 <= +65.3
 c9635: +95.7 Y822,5 <= +119.6
 c9636: +95.7 Y822,6 <= +189.6
 c9637: +122.9 Y823,0 <= +127.4
 c9638: +122.9 Y823,1 <= +89.3
 c9639: +122.9 Y823,2 <= +127.3
 c9640: +122.9 Y823,3 <= +104.2
 c9641: +122.9 Y823,4 <= +65.3
 c9642: +122.9 Y823,5 <= +119.6
 c9643: +122.9 Y823,6 <= +189.6
 c9644: +104.9 Y824,0 <= +127.4
 c9645: +104.9 Y824,1 <= +89.3
 c9646: +104.9 Y824,2 <= +127.3
 c9647: +104.9 Y824,3 <= +104.2
 c9648: +104.9 Y824,4 <= +65.3
 c9649: +104.9 Y824,5 <= +119.6
 c9650: +104.9 Y824,6 <= +189.6
 c9651: +127.5 Y825,0 <= +127.4
 c9652: +127.5 Y825,1 <= +89.3
 c9653: +127.5 Y825,2 <= +127.3
 c9654: +127.5 Y825,3 <= +104.2
 c9655: +127.5 Y825,4 <= +65.3
 c9656: +127.5 Y825,5 <= +119.6
 c9657: +127.5 Y825,6 <= +189.6
 c9658: +129.5 Y826,0 <= +127.4
 c9659: +129.5 Y826,1 <= +89.3
 c9660: +129.5 Y826,2 <= +127.3
 c9661: +129.5 Y826,3 <= +104.2
 c9662: +129.5 Y826,4 <= +65.3
 c9663: +129.5 Y826,5 <= +119.6
 c9664: +129.5 Y826,6 <= +189.6
 c9665: +113.2 Y827,0 <= +127.4
 c9666: +113.2 Y827,1 <= +89.3
 c9667: +113.2 Y827,2 <= +127.3
 c9668: +113.2 Y827,3 <= +104.2
 c9669: +113.2 Y827,4 <= +65.3
 c9670: +113.2 Y827,5 <= +119.6
 c9671: +113.2 Y827,6 <= +189.6
 c9672: +104.6 Y828,0 <= +127.4
 c9673: +104.6 Y828,1 <= +89.3
 c9674: +104.6 Y828,2 <= +127.3
 c9675: +104.6 Y828,3 <= +104.2
 c9676: +104.6 Y828,4 <= +65.3
 c9677: +104.6 Y828,5 <= +119.6
 c9678: +104.6 Y828,6 <= +189.6
 c9679: +131.8 Y829,0 <= +127.4
 c9680: +131.8 Y829,1 <= +89.3
 c9681: +131.8 Y829,2 <= +127.3
 c9682: +131.8 Y829,3 <= +104.2
 c9683: +131.8 Y829,4 <= +65.3
 c9684: +131.8 Y829,5 <= +119.6
 c9685: +131.8 Y829,6 <= +189.6
 c9686: +102.1 Y830,0 <= +127.4
 c9687: +102.1 Y830,1 <= +89.3
 c9688: +102.1 Y830,2 <= +127.3
 c9689: +102.1 Y830,3 <= +104.2
 c9690: +102.1 Y830,4 <= +65.3
 c9691: +102.1 Y830,5 <= +119.6
 c9692: +102.1 Y830,6 <= +189.6
 c9693: +129.5 Y831,0 <= +127.4
 c9694: +129.5 Y831,1 <= +89.3
 c9695: +129.5 Y831,2 <= +127.3
 c9696: +129.5 Y831,3 <= +104.2
 c9697: +129.5 Y831,4 <= +65.3
 c9698: +129.5 Y831,5 <= +119.6
 c9699: +129.5 Y831,6 <= +189.6
 c9700: +152.1 Y832,0 <= +127.4
 c9701: +152.1 Y832,1 <= +89.3
 c9702: +152.1 Y832,2 <= +127.3
 c9703: +152.1 Y832,3 <= +104.2
 c9704: +152.1 Y832,4 <= +65.3
 c9705: +152.1 Y832,5 <= +119.6
 c9706: +152.1 Y832,6 <= +189.6
 c9707: +154.1 Y833,0 <= +127.4
 c9708: +154.1 Y833,1 <= +89.3
 c9709: +154.1 Y833,2 <= +127.3
 c9710: +154.1 Y833,3 <= +104.2
 c9711: +154.1 Y833,4 <= +65.3
 c9712: +154.1 Y833,5 <= +119.6
 c9713: +154.1 Y833,6 <= +189.6
 c9714: +137.8 Y834,0 <= +127.4
 c9715: +137.8 Y834,1 <= +89.3
 c9716: +137.8 Y834,2 <= +127.3
 c9717: +137.8 Y834,3 <= +104.2
 c9718: +137.8 Y834,4 <= +65.3
 c9719: +137.8 Y834,5 <= +119.6
 c9720: +137.8 Y834,6 <= +189.6
 c9721: +129.2 Y835,0 <= +127.4
 c9722: +129.2 Y835,1 <= +89.3
 c9723: +129.2 Y835,2 <= +127.3
 c9724: +129.2 Y835,3 <= +104.2
 c9725: +129.2 Y835,4 <= +65.3
 c9726: +129.2 Y835,5 <= +119.6
 c9727: +129.2 Y835,6 <= +189.6
 c9728: +156.4 Y836,0 <= +127.4
 c9729: +156.4 Y836,1 <= +89.3
 c9730: +156.4 Y836,2 <= +127.3
 c9731: +156.4 Y836,3 <= +104.2
 c9732: +156.4 Y836,4 <= +65.3
 c9733: +156.4 Y836,5 <= +119.6
 c9734: +156.4 Y836,6 <= +189.6
 c9735: +126.7 Y837,0 <= +127.4
 c9736: +126.7 Y837,1 <= +89.3
 c9737: +126.7 Y837,2 <= +127.3
 c9738: +126.7 Y837,3 <= +104.2
 c9739: +126.7 Y837,4 <= +65.3
 c9740: +126.7 Y837,5 <= +119.6
 c9741: +126.7 Y837,6 <= +189.6
 c9742: +135.6 Y838,0 <= +127.4
 c9743: +135.6 Y838,1 <= +89.3
 c9744: +135.6 Y838,2 <= +127.3
 c9745: +135.6 Y838,3 <= +104.2
 c9746: +135.6 Y838,4 <= +65.3
 c9747: +135.6 Y838,5 <= +119.6
 c9748: +135.6 Y838,6 <= +189.6
 c9749: +160.2 Y839,0 <= +127.4
 c9750: +160.2 Y839,1 <= +89.3
 c9751: +160.2 Y839,2 <= +127.3
 c9752: +160.2 Y839,3 <= +104.2
 c9753: +160.2 Y839,4 <= +65.3
 c9754: +160.2 Y839,5 <= +119.6
 c9755: +160.2 Y839,6 <= +189.6
 c9756: +3.2 Y840,0 <= +127.4
 c9757: +3.2 Y840,1 <= +89.3
 c9758: +3.2 Y840,2 <= +127.3
 c9759: +3.2 Y840,3 <= +104.2
 c9760: +3.2 Y840,4 <= +65.3
 c9761: +3.2 Y840,5 <= +119.6
 c9762: +3.2 Y840,6 <= +189.6
 c9763: +7.7 Y841,0 <= +127.4
 c9764: +7.7 Y841,1 <= +89.3
 c9765: +7.7 Y841,2 <= +127.3
 c9766: +7.7 Y841,3 <= +104.2
 c9767: +7.7 Y841,4 <= +65.3
 c9768: +7.7 Y841,5 <= +119.6
 c9769: +7.7 Y841,6 <= +189.6
 c9770: +10.9 Y842,0 <= +127.4
 c9771: +10.9 Y842,1 <= +89.3
 c9772: +10.9 Y842,2 <= +127.3
 c9773: +10.9 Y842,3 <= +104.2
 c9774: +10.9 Y842,4 <= +65.3
 c9775: +10.9 Y842,5 <= +119.6
 c9776: +10.9 Y842,6 <= +189.6
 c9777: +29.1 Y843,0 <= +127.4
 c9778: +29.1 Y843,1 <= +89.3
 c9779: +29.1 Y843,2 <= +127.3
 c9780: +29.1 Y843,3 <= +104.2
 c9781: +29.1 Y843,4 <= +65.3
 c9782: +29.1 Y843,5 <= +119.6
 c9783: +29.1 Y843,6 <= +189.6
 c9784: +32 Y844,0 <= +127.4
 c9785: +32 Y844,1 <= +89.3
 c9786: +32 Y844,2 <= +127.3
 c9787: +32 Y844,3 <= +104.2
 c9788: +32 Y844,4 <= +65.3
 c9789: +32 Y844,5 <= +119.6
 c9790: +32 Y844,6 <= +189.6
 c9791: +19.1 Y845,0 <= +127.4
 c9792: +19.1 Y845,1 <= +89.3
 c9793: +19.1 Y845,2 <= +127.3
 c9794: +19.1 Y845,3 <= +104.2
 c9795: +19.1 Y845,4 <= +65.3
 c9796: +19.1 Y845,5 <= +119.6
 c9797: +19.1 Y845,6 <= +189.6
 c9798: +15.3 Y846,0 <= +127.4
 c9799: +15.3 Y846,1 <= +89.3
 c9800: +15.3 Y846,2 <= +127.3
 c9801: +15.3 Y846,3 <= +104.2
 c9802: +15.3 Y846,4 <= +65.3
 c9803: +15.3 Y846,5 <= +119.6
 c9804: +15.3 Y846,6 <= +189.6
 c9805: +61.1 Y847,0 <= +127.4
 c9806: +61.1 Y847,1 <= +89.3
 c9807: +61.1 Y847,2 <= +127.3
 c9808: +61.1 Y847,3 <= +104.2
 c9809: +61.1 Y847,4 <= +65.3
 c9810: +61.1 Y847,5 <= +119.6
 c9811: +61.1 Y847,6 <= +189.6
 c9812: +48.2 Y848,0 <= +127.4
 c9813: +48.2 Y848,1 <= +89.3
 c9814: +48.2 Y848,2 <= +127.3
 c9815: +48.2 Y848,3 <= +104.2
 c9816: +48.2 Y848,4 <= +65.3
 c9817: +48.2 Y848,5 <= +119.6
 c9818: +48.2 Y848,6 <= +189.6
 c9819: +44.4 Y849,0 <= +127.4
 c9820: +44.4 Y849,1 <= +89.3
 c9821: +44.4 Y849,2 <= +127.3
 c9822: +44.4 Y849,3 <= +104.2
 c9823: +44.4 Y849,4 <= +65.3
 c9824: +44.4 Y849,5 <= +119.6
 c9825: +44.4 Y849,6 <= +189.6
 c9826: +51.1 Y850,0 <= +127.4
 c9827: +51.1 Y850,1 <= +89.3
 c9828: +51.1 Y850,2 <= +127.3
 c9829: +51.1 Y850,3 <= +104.2
 c9830: +51.1 Y850,4 <= +65.3
 c9831: +51.1 Y850,5 <= +119.6
 c9832: +51.1 Y850,6 <= +189.6
 c9833: +47.3 Y851,0 <= +127.4
 c9834: +47.3 Y851,1 <= +89.3
 c9835: +47.3 Y851,2 <= +127.3
 c9836: +47.3 Y851,3 <= +104.2
 c9837: +47.3 Y851,4 <= +65.3
 c9838: +47.3 Y851,5 <= +119.6
 c9839: +47.3 Y851,6 <= +189.6
 c9840: +34.4 Y852,0 <= +127.4
 c9841: +34.4 Y852,1 <= +89.3
 c9842: +34.4 Y852,2 <= +127.3
 c9843: +34.4 Y852,3 <= +104.2
 c9844: +34.4 Y852,4 <= +65.3
 c9845: +34.4 Y852,5 <= +119.6
 c9846: +34.4 Y852,6 <= +189.6
 c9847: +80.2 Y853,0 <= +127.4
 c9848: +80.2 Y853,1 <= +89.3
 c9849: +80.2 Y853,2 <= +127.3
 c9850: +80.2 Y853,3 <= +104.2
 c9851: +80.2 Y853,4 <= +65.3
 c9852: +80.2 Y853,5 <= +119.6
 c9853: +80.2 Y853,6 <= +189.6
 c9854: +76.4 Y854,0 <= +127.4
 c9855: +76.4 Y854,1 <= +89.3
 c9856: +76.4 Y854,2 <= +127.3
 c9857: +76.4 Y854,3 <= +104.2
 c9858: +76.4 Y854,4 <= +65.3
 c9859: +76.4 Y854,5 <= +119.6
 c9860: +76.4 Y854,6 <= +189.6
 c9861: +63.5 Y855,0 <= +127.4
 c9862: +63.5 Y855,1 <= +89.3
 c9863: +63.5 Y855,2 <= +127.3
 c9864: +63.5 Y855,3 <= +104.2
 c9865: +63.5 Y855,4 <= +65.3
 c9866: +63.5 Y855,5 <= +119.6
 c9867: +63.5 Y855,6 <= +189.6
 c9868: +66.4 Y856,0 <= +127.4
 c9869: +66.4 Y856,1 <= +89.3
 c9870: +66.4 Y856,2 <= +127.3
 c9871: +66.4 Y856,3 <= +104.2
 c9872: +66.4 Y856,4 <= +65.3
 c9873: +66.4 Y856,5 <= +119.6
 c9874: +66.4 Y856,6 <= +189.6
 c9875: +95.5 Y857,0 <= +127.4
 c9876: +95.5 Y857,1 <= +89.3
 c9877: +95.5 Y857,2 <= +127.3
 c9878: +95.5 Y857,3 <= +104.2
 c9879: +95.5 Y857,4 <= +65.3
 c9880: +95.5 Y857,5 <= +119.6
 c9881: +95.5 Y857,6 <= +189.6
Bounds
 0 <= Y0,0 <= 1
 0 <= Y0,1 <= 1
 0 <= Y0,2 <= 1
 0 <= Y0,3 <= 1
 0 <= Y0,4 <= 1
 0 <= Y0,5 <= 1
 0 <= Y0,6 <= 1
 0 <= Y1,0 <= 1
 0 <= Y1,1 <= 1
 0 <= Y1,2 <= 1
 0 <= Y1,3 <= 1
 0 <= Y1,4 <= 1
 0 <= Y1,5 <= 1
 0 <= Y1,6 <= 1
 0 <= Y2,0 <= 1
 0 <= Y2,1 <= 1
 0 <= Y2,2 <= 1
 0 <= Y2,3 <= 1
 0 <= Y2,4 <= 1
 0 <= Y2,5 <= 1
 0 <= Y2,6 <= 1
 0 <= Y3,0 <= 1
 0 <= Y3,1 <= 1
 0 <= Y3,2 <= 1
 0 <= Y3,3 <= 1
 0 <= Y3,4 <= 1
 0 <= Y3,5 <= 1
 0 <= Y3,6 <= 1
 0 <= Y4,0 <= 1
 0 <= Y4,1 <= 1
 0 <= Y4,2 <= 1
 0 <= Y4,3 <= 1
 0 <= Y4,4 <= 1
 0 <= Y4,5 <= 1
 0 <= Y4,6 <= 1
 0 <= Y5,0 <= 1
 0 <= Y5,1 <= 1
 0 <= Y5,2 <= 1
 0 <= Y5,3 <= 1
 0 <= Y5,4 <= 1
 0 <= Y5,5 <= 1
 0 <= Y5,6 <= 1
 0 <= Y6,0 <= 1
 0 <= Y6,1 <= 1
 0 <= Y6,2 <= 1
 0 <= Y6,3 <= 1
 0 <= Y6,4 <= 1
 0 <= Y6,5 <= 1
 0 <= Y6,6 <= 1
 0 <= Y7,0 <= 1
 0 <= Y7,1 <= 1
 0 <= Y7,2 <= 1
 0 <= Y7,3 <= 1
 0 <= Y7,4 <= 1
 0 <= Y7,5 <= 1
 0 <= Y7,6 <= 1
 0 <= Y8,0 <= 1
 0 <= Y8,1 <= 1
 0 <= Y8,2 <= 1
 0 <= Y8,3 <= 1
 0 <= Y8,4 <= 1
 0 <= Y8,5 <= 1
 0 <= Y8,6 <= 1
 0 <= Y9,0 <= 1
 0 <= Y9,1 <= 1
 0 <= Y9,2 <= 1
 0 <= Y9,3 <= 1
 0 <= Y9,4 <= 1
 0 <= Y9,5 <= 1
 0 <= Y9,6 <= 1
 0 <= Y10,0 <= 1
 0 <= Y10,1 <= 1
 0 <= Y10,2 <= 1
 0 <= Y10,3 <= 1
 0 <= Y10,4 <= 1
 0 <= Y10,5 <= 1
 0 <= Y10,6 <= 1
 0 <= Y11,0 <= 1
 0 <= Y11,1 <= 1
 0 <= Y11,2 <= 1
 0 <= Y11,3 <= 1
 0 <= Y11,4 <= 1
 0 <= Y11,5 <= 1
 0 <= Y11,6 <= 1
 0 <= Y12,0 <= 1
 0 <= Y12,1 <= 1
 0 <= Y12,2 <= 1
 0 <= Y12,3 <= 1
 0 <= Y12,4 <= 1
 0 <= Y12,5 <= 1
 0 <= Y12,6 <= 1
 0 <= Y13,0 <= 1
 0 <= Y13,1 <= 1
 0 <= Y13,2 <= 1
 0 <= Y13,3 <= 1
 0 <= Y13,4 <= 1
 0 <= Y13,5 <= 1
 0 <= Y13,6 <= 1
 0 <= Y14,0 <= 1
 0 <= Y14,1 <= 1
 0 <= Y14,2 <= 1
 0 <= Y14,3 <= 1
 0 <= Y14,4 <= 1
 0 <= Y14,5 <= 1
 0 <= Y14,6 <= 1
 0 <= Y15,0 <= 1
 0 <= Y15,1 <= 1
 0 <= Y15,2 <= 1
 0 <= Y15,3 <= 1
 0 <= Y15,4 <= 1
 0 <= Y15,5 <= 1
 0 <= Y15,6 <= 1
 0 <= Y16,0 <= 1
 0 <= Y16,1 <= 1
 0 <= Y16,2 <= 1
 0 <= Y16,3 <= 1
 0 <= Y16,4 <= 1
 0 <= Y16,5 <= 1
 0 <= Y16,6 <= 1
 0 <= Y17,0 <= 1
 0 <= Y17,1 <= 1
 0 <= Y17,2 <= 1
 0 <= Y17,3 <= 1
 0 <= Y17,4 <= 1
 0 <= Y17,5 <= 1
 0 <= Y17,6 <= 1
 0 <= Y18,0 <= 1
 0 <= Y18,1 <= 1
 0 <= Y18,2 <= 1
 0 <= Y18,3 <= 1
 0 <= Y18,4 <= 1
 0 <= Y18,5 <= 1
 0 <= Y18,6 <= 1
 0 <= Y19,0 <= 1
 0 <= Y19,1 <= 1
 0 <= Y19,2 <= 1
 0 <= Y19,3 <= 1
 0 <= Y19,4 <= 1
 0 <= Y19,5 <= 1
 0 <= Y19,6 <= 1
 0 <= Y20,0 <= 1
 0 <= Y20,1 <= 1
 0 <= Y20,2 <= 1
 0 <= Y20,3 <= 1
 0 <= Y20,4 <= 1
 0 <= Y20,5 <= 1
 0 <= Y20,6 <= 1
 0 <= Y21,0 <= 1
 0 <= Y21,1 <= 1
 0 <= Y21,2 <= 1
 0 <= Y21,3 <= 1
 0 <= Y21,4 <= 1
 0 <= Y21,5 <= 1
 0 <= Y21,6 <= 1
 0 <= Y22,0 <= 1
 0 <= Y22,1 <= 1
 0 <= Y22,2 <= 1
 0 <= Y22,3 <= 1
 0 <= Y22,4 <= 1
 0 <= Y22,5 <= 1
 0 <= Y22,6 <= 1
 0 <= Y23,0 <= 1
 0 <= Y23,1 <= 1
 0 <= Y23,2 <= 1
 0 <= Y23,3 <= 1
 0 <= Y23,4 <= 1
 0 <= Y23,5 <= 1
 0 <= Y23,6 <= 1
 0 <= Y24,0 <= 1
 0 <= Y24,1 <= 1
 0 <= Y24,2 <= 1
 0 <= Y24,3 <= 1
 0 <= Y24,4 <= 1
 0 <= Y24,5 <= 1
 0 <= Y24,6 <= 1
 0 <= Y25,0 <= 1
 0 <= Y25,1 <= 1
 0 <= Y25,2 <= 1
 0 <= Y25,3 <= 1
 0 <= Y25,4 <= 1
 0 <= Y25,5 <= 1
 0 <= Y25,6 <= 1
 0 <= Y26,0 <= 1
 0 <= Y26,1 <= 1
 0 <= Y26,2 <= 1
 0 <= Y26,3 <= 1
 0 <= Y26,4 <= 1
 0 <= Y26,5 <= 1
 0 <= Y26,6 <= 1
 0 <= Y27,0 <= 1
 0 <= Y27,1 <= 1
 0 <= Y27,2 <= 1
 0 <= Y27,3 <= 1
 0 <= Y27,4 <= 1
 0 <= Y27,5 <= 1
 0 <= Y27,6 <= 1
 0 <= Y28,0 <= 1
 0 <= Y28,1 <= 1
 0 <= Y28,2 <= 1
 0 <= Y28,3 <= 1
 0 <= Y28,4 <= 1
 0 <= Y28,5 <= 1
 0 <= Y28,6 <= 1
 0 <= Y29,0 <= 1
 0 <= Y29,1 <= 1
 0 <= Y29,2 <= 1
 0 <= Y29,3 <= 1
 0 <= Y29,4 <= 1
 0 <= Y29,5 <= 1
 0 <= Y29,6 <= 1
 0 <= Y30,0 <= 1
 0 <= Y30,1 <= 1
 0 <= Y30,2 <= 1
 0 <= Y30,3 <= 1
 0 <= Y30,4 <= 1
 0 <= Y30,5 <= 1
 0 <= Y30,6 <= 1
 0 <= Y31,0 <= 1
 0 <= Y31,1 <= 1
 0 <= Y31,2 <= 1
 0 <= Y31,3 <= 1
 0 <= Y31,4 <= 1
 0 <= Y31,5 <= 1
 0 <= Y31,6 <= 1
 0 <= Y32,0 <= 1
 0 <= Y32,1 <= 1
 0 <= Y32,2 <= 1
 0 <= Y32,3 <= 1
 0 <= Y32,4 <= 1
 0 <= Y32,5 <= 1
 0 <= Y32,6 <= 1
 0 <= Y33,0 <= 1
 0 <= Y33,1 <= 1
 0 <= Y33,2 <= 1
 0 <= Y33,3 <= 1
 0 <= Y33,4 <= 1
 0 <= Y33,5 <= 1
 0 <= Y33,6 <= 1
 0 <= Y34,0 <= 1
 0 <= Y34,1 <= 1
 0 <= Y34,2 <= 1
 0 <= Y34,3 <= 1
 0 <= Y34,4 <= 1
 0 <= Y34,5 <= 1
 0 <= Y34,6 <= 1
 0 <= Y35,0 <= 1
 0 <= Y35,1 <= 1
 0 <= Y35,2 <= 1
 0 <= Y35,3 <= 1
 0 <= Y35,4 <= 1
 0 <= Y35,5 <= 1
 0 <= Y35,6 <= 1
 0 <= Y36,0 <= 1
 0 <= Y36,1 <= 1
 0 <= Y36,2 <= 1
 0 <= Y36,3 <= 1
 0 <= Y36,4 <= 1
 0 <= Y36,5 <= 1
 0 <= Y36,6 <= 1
 0 <= Y37,0 <= 1
 0 <= Y37,1 <= 1
 0 <= Y37,2 <= 1
 0 <= Y37,3 <= 1
 0 <= Y37,4 <= 1
 0 <= Y37,5 <= 1
 0 <= Y37,6 <= 1
 0 <= Y38,0 <= 1
 0 <= Y38,1 <= 1
 0 <= Y38,2 <= 1
 0 <= Y38,3 <= 1
 0 <= Y38,4 <= 1
 0 <= Y38,5 <= 1
 0 <= Y38,6 <= 1
 0 <= Y39,0 <= 1
 0 <= Y39,1 <= 1
 0 <= Y39,2 <= 1
 0 <= Y39,3 <= 1
 0 <= Y39,4 <= 1
 0 <= Y39,5 <= 1
 0 <= Y39,6 <= 1
 0 <= Y40,0 <= 1
 0 <= Y40,1 <= 1
 0 <= Y40,2 <= 1
 0 <= Y40,3 <= 1
 0 <= Y40,4 <= 1
 0 <= Y40,5 <= 1
 0 <= Y40,6 <= 1
 0 <= Y41,0 <= 1
 0 <= Y41,1 <= 1
 0 <= Y41,2 <= 1
 0 <= Y41,3 <= 1
 0 <= Y41,4 <= 1
 0 <= Y41,5 <= 1
 0 <= Y41,6 <= 1
 0 <= Y42,0 <= 1
 0 <= Y42,1 <= 1
 0 <= Y42,2 <= 1
 0 <= Y42,3 <= 1
 0 <= Y42,4 <= 1
 0 <= Y42,5 <= 1
 0 <= Y42,6 <= 1
 0 <= Y43,0 <= 1
 0 <= Y43,1 <= 1
 0 <= Y43,2 <= 1
 0 <= Y43,3 <= 1
 0 <= Y43,4 <= 1
 0 <= Y43,5 <= 1
 0 <= Y43,6 <= 1
 0 <= Y44,0 <= 1
 0 <= Y44,1 <= 1
 0 <= Y44,2 <= 1
 0 <= Y44,3 <= 1
 0 <= Y44,4 <= 1
 0 <= Y44,5 <= 1
 0 <= Y44,6 <= 1
 0 <= Y45,0 <= 1
 0 <= Y45,1 <= 1
 0 <= Y45,2 <= 1
 0 <= Y45,3 <= 1
 0 <= Y45,4 <= 1
 0 <= Y45,5 <= 1
 0 <= Y45,6 <= 1
 0 <= Y46,0 <= 1
 0 <= Y46,1 <= 1
 0 <= Y46,2 <= 1
 0 <= Y46,3 <= 1
 0 <= Y46,4 <= 1
 0 <= Y46,5 <= 1
 0 <= Y46,6 <= 1
 0 <= Y47,0 <= 1
 0 <= Y47,1 <= 1
 0 <= Y47,2 <= 1
 0 <= Y47,3 <= 1
 0 <= Y47,4 <= 1
 0 <= Y47,5 <= 1
 0 <= Y47,6 <= 1
 0 <= Y48,0 <= 1
 0 <= Y48,1 <= 1
 0 <= Y48,2 <= 1
 0 <= Y48,3 <= 1
 0 <= Y48,4 <= 1
 0 <= Y48,5 <= 1
 0 <= Y48,6 <= 1
 0 <= Y49,0 <= 1
 0 <= Y49,1 <= 1
 0 <= Y49,2 <= 1
 0 <= Y49,3 <= 1
 0 <= Y49,4 <= 1
 0 <= Y49,5 <= 1
 0 <= Y49,6 <= 1
 0 <= Y50,0 <= 1
 0 <= Y50,1 <= 1
 0 <= Y50,2 <= 1
 0 <= Y50,3 <= 1
 0 <= Y50,4 <= 1
 0 <= Y50,5 <= 1
 0 <= Y50,6 <= 1
 0 <= Y51,0 <= 1
 0 <= Y51,1 <= 1
 0 <= Y51,2 <= 1
 0 <= Y51,3 <= 1
 0 <= Y51,4 <= 1
 0 <= Y51,5 <= 1
 0 <= Y51,6 <= 1
 0 <= Y52,0 <= 1
 0 <= Y52,1 <= 1
 0 <= Y52,2 <= 1
 0 <= Y52,3 <= 1
 0 <= Y52,4 <= 1
 0 <= Y52,5 <= 1
 0 <= Y52,6 <= 1
 0 <= Y53,0 <= 1
 0 <= Y53,1 <= 1
 0 <= Y53,2 <= 1
 0 <= Y53,3 <= 1
 0 <= Y53,4 <= 1
 0 <= Y53,5 <= 1
 0 <= Y53,6 <= 1
 0 <= Y54,0 <= 1
 0 <= Y54,1 <= 1
 0 <= Y54,2 <= 1
 0 <= Y54,3 <= 1
 0 <= Y54,4 <= 1
 0 <= Y54,5 <= 1
 0 <= Y54,6 <= 1
 0 <= Y55,0 <= 1
 0 <= Y55,1 <= 1
 0 <= Y55,2 <= 1
 0 <= Y55,3 <= 1
 0 <= Y55,4 <= 1
 0 <= Y55,5 <= 1
 0 <= Y55,6 <= 1
 0 <= Y56,0 <= 1
 0 <= Y56,1 <= 1
 0 <= Y56,2 <= 1
 0 <= Y56,3 <= 1
 0 <= Y56,4 <= 1
 0 <= Y56,5 <= 1
 0 <= Y56,6 <= 1
 0 <= Y57,0 <= 1
 0 <= Y57,1 <= 1
 0 <= Y57,2 <= 1
 0 <= Y57,3 <= 1
 0 <= Y57,4 <= 1
 0 <= Y57,5 <= 1
 0 <= Y57,6 <= 1
 0 <= Y58,0 <= 1
 0 <= Y58,1 <= 1
 0 <= Y58,2 <= 1
 0 <= Y58,3 <= 1
 0 <= Y58,4 <= 1
 0 <= Y58,5 <= 1
 0 <= Y58,6 <= 1
 0 <= Y59,0 <= 1
 0 <= Y59,1 <= 1
 0 <= Y59,2 <= 1
 0 <= Y59,3 <= 1
 0 <= Y59,4 <= 1
 0 <= Y59,5 <= 1
 0 <= Y59,6 <= 1
 0 <= Y60,0 <= 1
 0 <= Y60,1 <= 1
 0 <= Y60,2 <= 1
 0 <= Y60,3 <= 1
 0 <= Y60,4 <= 1
 0 <= Y60,5 <= 1
 0 <= Y60,6 <= 1
 0 <= Y61,0 <= 1
 0 <= Y61,1 <= 1
 0 <= Y61,2 <= 1
 0 <= Y61,3 <= 1
 0 <= Y61,4 <= 1
 0 <= Y61,5 <= 1
 0 <= Y61,6 <= 1
 0 <= Y62,0 <= 1
 0 <= Y62,1 <= 1
 0 <= Y62,2 <= 1
 0 <= Y62,3 <= 1
 0 <= Y62,4 <= 1
 0 <= Y62,5 <= 1
 0 <= Y62,6 <= 1
 0 <= Y63,0 <= 1
 0 <= Y63,1 <= 1
 0 <= Y63,2 <= 1
 0 <= Y63,3 <= 1
 0 <= Y63,4 <= 1
 0 <= Y63,5 <= 1
 0 <= Y63,6 <= 1
 0 <= Y64,0 <= 1
 0 <= Y64,1 <= 1
 0 <= Y64,2 <= 1
 0 <= Y64,3 <= 1
 0 <= Y64,4 <= 1
 0 <= Y64,5 <= 1
 0 <= Y64,6 <= 1
 0 <= Y65,0 <= 1
 0 <= Y65,1 <= 1
 0 <= Y65,2 <= 1
 0 <= Y65,3 <= 1
 0 <= Y65,4 <= 1
 0 <= Y65,5 <= 1
 0 <= Y65,6 <= 1
 0 <= Y66,0 <= 1
 0 <= Y66,1 <= 1
 0 <= Y66,2 <= 1
 0 <= Y66,3 <= 1
 0 <= Y66,4 <= 1
 0 <= Y66,5 <= 1
 0 <= Y66,6 <= 1
 0 <= Y67,0 <= 1
 0 <= Y67,1 <= 1
 0 <= Y67,2 <= 1
 0 <= Y67,3 <= 1
 0 <= Y67,4 <= 1
 0 <= Y67,5 <= 1
 0 <= Y67,6 <= 1
 0 <= Y68,0 <= 1
 0 <= Y68,1 <= 1
 0 <= Y68,2 <= 1
 0 <= Y68,3 <= 1
 0 <= Y68,4 <= 1
 0 <= Y68,5 <= 1
 0 <= Y68,6 <= 1
 0 <= Y69,0 <= 1
 0 <= Y69,1 <= 1
 0 <= Y69,2 <= 1
 0 <= Y69,3 <= 1
 0 <= Y69,4 <= 1
 0 <= Y69,5 <= 1
 0 <= Y69,6 <= 1
 0 <= Y70,0 <= 1
 0 <= Y70,1 <= 1
 0 <= Y70,2 <= 1
 0 <= Y70,3 <= 1
 0 <= Y70,4 <= 1
 0 <= Y70,5 <= 1
 0 <= Y70,6 <= 1
 0 <= Y71,0 <= 1
 0 <= Y71,1 <= 1
 0 <= Y71,2 <= 1
 0 <= Y71,3 <= 1
 0 <= Y71,4 <= 1
 0 <= Y71,5 <= 1
 0 <= Y71,6 <= 1
 0 <= Y72,0 <= 1
 0 <= Y72,1 <= 1
 0 <= Y72,2 <= 1
 0 <= Y72,3 <= 1
 0 <= Y72,4 <= 1
 0 <= Y72,5 <= 1
 0 <= Y72,6 <= 1
 0 <= Y73,0 <= 1
 0 <= Y73,1 <= 1
 0 <= Y73,2 <= 1
 0 <= Y73,3 <= 1
 0 <= Y73,4 <= 1
 0 <= Y73,5 <= 1
 0 <= Y73,6 <= 1
 0 <= Y74,0 <= 1
 0 <= Y74,1 <= 1
 0 <= Y74,2 <= 1
 0 <= Y74,3 <= 1
 0 <= Y74,4 <= 1
 0 <= Y74,5 <= 1
 0 <= Y74,6 <= 1
 0 <= Y75,0 <= 1
 0 <= Y75,1 <= 1
 0 <= Y75,2 <= 1
 0 <= Y75,3 <= 1
 0 <= Y75,4 <= 1
 0 <= Y75,5 <= 1
 0 <= Y75,6 <= 1
 0 <= Y76,0 <= 1
 0 <= Y76,1 <= 1
 0 <= Y76,2 <= 1
 0 <= Y76,3 <= 1
 0 <= Y76,4 <= 1
 0 <= Y76,5 <= 1
 0 <= Y76,6 <= 1
 0 <= Y77,0 <= 1
 0 <= Y77,1 <= 1
 0 <= Y77,2 <= 1
 0 <= Y77,3 <= 1
 0 <= Y77,4 <= 1
 0 <= Y77,5 <= 1
 0 <= Y77,6 <= 1
 0 <= Y78,0 <= 1
 0 <= Y78,1 <= 1
 0 <= Y78,2 <= 1
 0 <= Y78,3 <= 1
 0 <= Y78,4 <= 1
 0 <= Y78,5 <= 1
 0 <= Y78,6 <= 1
 0 <= Y79,0 <= 1
 0 <= Y79,1 <= 1
 0 <= Y79,2 <= 1
 0 <= Y79,3 <= 1
 0 <= Y79,4 <= 1
 0 <= Y79,5 <= 1
 0 <= Y79,6 <= 1
 0 <= Y80,0 <= 1
 0 <= Y80,1 <= 1
 0 <= Y80,2 <= 1
 0 <= Y80,3 <= 1
 0 <= Y80,4 <= 1
 0 <= Y80,5 <= 1
 0 <= Y80,6 <= 1
 0 <= Y81,0 <= 1
 0 <= Y81,1 <= 1
 0 <= Y81,2 <= 1
 0 <= Y81,3 <= 1
 0 <= Y81,4 <= 1
 0 <= Y81,5 <= 1
 0 <= Y81,6 <= 1
 0 <= Y82,0 <= 1
 0 <= Y82,1 <= 1
 0 <= Y82,2 <= 1
 0 <= Y82,3 <= 1
 0 <= Y82,4 <= 1
 0 <= Y82,5 <= 1
 0 <= Y82,6 <= 1
 0 <= Y83,0 <= 1
 0 <= Y83,1 <= 1
 0 <= Y83,2 <= 1
 0 <= Y83,3 <= 1
 0 <= Y83,4 <= 1
 0 <= Y83,5 <= 1
 0 <= Y83,6 <= 1
 0 <= Y84,0 <= 1
 0 <= Y84,1 <= 1
 0 <= Y84,2 <= 1
 0 <= Y84,3 <= 1
 0 <= Y84,4 <= 1
 0 <= Y84,5 <= 1
 0 <= Y84,6 <= 1
 0 <= Y85,0 <= 1
 0 <= Y85,1 <= 1
 0 <= Y85,2 <= 1
 0 <= Y85,3 <= 1
 0 <= Y85,4 <= 1
 0 <= Y85,5 <= 1
 0 <= Y85,6 <= 1
 0 <= Y86,0 <= 1
 0 <= Y86,1 <= 1
 0 <= Y86,2 <= 1
 0 <= Y86,3 <= 1
 0 <= Y86,4 <= 1
 0 <= Y86,5 <= 1
 0 <= Y86,6 <= 1
 0 <= Y87,0 <= 1
 0 <= Y87,1 <= 1
 0 <= Y87,2 <= 1
 0 <= Y87,3 <= 1
 0 <= Y87,4 <= 1
 0 <= Y87,5 <= 1
 0 <= Y87,6 <= 1
 0 <= Y88,0 <= 1
 0 <= Y88,1 <= 1
 0 <= Y88,2 <= 1
 0 <= Y88,3 <= 1
 0 <= Y88,4 <= 1
 0 <= Y88,5 <= 1
 0 <= Y88,6 <= 1
 0 <= Y89,0 <= 1
 0 <= Y89,1 <= 1
 0 <= Y89,2 <= 1
 0 <= Y89,3 <= 1
 0 <= Y89,4 <= 1
 0 <= Y89,5 <= 1
 0 <= Y89,6 <= 1
 0 <= Y90,0 <= 1
 0 <= Y90,1 <= 1
 0 <= Y90,2 <= 1
 0 <= Y90,3 <= 1
 0 <= Y90,4 <= 1
 0 <= Y90,5 <= 1
 0 <= Y90,6 <= 1
 0 <= Y91,0 <= 1
 0 <= Y91,1 <= 1
 0 <= Y91,2 <= 1
 0 <= Y91,3 <= 1
 0 <= Y91,4 <= 1
 0 <= Y91,5 <= 1
 0 <= Y91,6 <= 1
 0 <= Y92,0 <= 1
 0 <= Y92,1 <= 1
 0 <= Y92,2 <= 1
 0 <= Y92,3 <= 1
 0 <= Y92,4 <= 1
 0 <= Y92,5 <= 1
 0 <= Y92,6 <= 1
 0 <= Y93,0 <= 1
 0 <= Y93,1 <= 1
 0 <= Y93,2 <= 1
 0 <= Y93,3 <= 1
 0 <= Y93,4 <= 1
 0 <= Y93,5 <= 1
 0 <= Y93,6 <= 1
 0 <= Y94,0 <= 1
 0 <= Y94,1 <= 1
 0 <= Y94,2 <= 1
 0 <= Y94,3 <= 1
 0 <= Y94,4 <= 1
 0 <= Y94,5 <= 1
 0 <= Y94,6 <= 1
 0 <= Y95,0 <= 1
 0 <= Y95,1 <= 1
 0 <= Y95,2 <= 1
 0 <= Y95,3 <= 1
 0 <= Y95,4 <= 1
 0 <= Y95,5 <= 1
 0 <= Y95,6 <= 1
 0 <= Y96,0 <= 1
 0 <= Y96,1 <= 1
 0 <= Y96,2 <= 1
 0 <= Y96,3 <= 1
 0 <= Y96,4 <= 1
 0 <= Y96,5 <= 1
 0 <= Y96,6 <= 1
 0 <= Y97,0 <= 1
 0 <= Y97,1 <= 1
 0 <= Y97,2 <= 1
 0 <= Y97,3 <= 1
 0 <= Y97,4 <= 1
 0 <= Y97,5 <= 1
 0 <= Y97,6 <= 1
 0 <= Y98,0 <= 1
 0 <= Y98,1 <= 1
 0 <= Y98,2 <= 1
 0 <= Y98,3 <= 1
 0 <= Y98,4 <= 1
 0 <= Y98,5 <= 1
 0 <= Y98,6 <= 1
 0 <= Y99,0 <= 1
 0 <= Y99,1 <= 1
 0 <= Y99,2 <= 1
 0 <= Y99,3 <= 1
 0 <= Y99,4 <= 1
 0 <= Y99,5 <= 1
 0 <= Y99,6 <= 1
 0 <= Y100,0 <= 1
 0 <= Y100,1 <= 1
 0 <= Y100,2 <= 1
 0 <= Y100,3 <= 1
 0 <= Y100,4 <= 1
 0 <= Y100,5 <= 1
 0 <= Y100,6 <= 1
 0 <= Y101,0 <= 1
 0 <= Y101,1 <= 1
 0 <= Y101,2 <= 1
 0 <= Y101,3 <= 1
 0 <= Y101,4 <= 1
 0 <= Y101,5 <= 1
 0 <= Y101,6 <= 1
 0 <= Y102,0 <= 1
 0 <= Y102,1 <= 1
 0 <= Y102,2 <= 1
 0 <= Y102,3 <= 1
 0 <= Y102,4 <= 1
 0 <= Y102,5 <= 1
 0 <= Y102,6 <= 1
 0 <= Y103,0 <= 1
 0 <= Y103,1 <= 1
 0 <= Y103,2 <= 1
 0 <= Y103,3 <= 1
 0 <= Y103,4 <= 1
 0 <= Y103,5 <= 1
 0 <= Y103,6 <= 1
 0 <= Y104,0 <= 1
 0 <= Y104,1 <= 1
 0 <= Y104,2 <= 1
 0 <= Y104,3 <= 1
 0 <= Y104,4 <= 1
 0 <= Y104,5 <= 1
 0 <= Y104,6 <= 1
 0 <= Y105,0 <= 1
 0 <= Y105,1 <= 1
 0 <= Y105,2 <= 1
 0 <= Y105,3 <= 1
 0 <= Y105,4 <= 1
 0 <= Y105,5 <= 1
 0 <= Y105,6 <= 1
 0 <= Y106,0 <= 1
 0 <= Y106,1 <= 1
 0 <= Y106,2 <= 1
 0 <= Y106,3 <= 1
 0 <= Y106,4 <= 1
 0 <= Y106,5 <= 1
 0 <= Y106,6 <= 1
 0 <= Y107,0 <= 1
 0 <= Y107,1 <= 1
 0 <= Y107,2 <= 1
 0 <= Y107,3 <= 1
 0 <= Y107,4 <= 1
 0 <= Y107,5 <= 1
 0 <= Y107,6 <= 1
 0 <= Y108,0 <= 1
 0 <= Y108,1 <= 1
 0 <= Y108,2 <= 1
 0 <= Y108,3 <= 1
 0 <= Y108,4 <= 1
 0 <= Y108,5 <= 1
 0 <= Y108,6 <= 1
 0 <= Y109,0 <= 1
 0 <= Y109,1 <= 1
 0 <= Y109,2 <= 1
 0 <= Y109,3 <= 1
 0 <= Y109,4 <= 1
 0 <= Y109,5 <= 1
 0 <= Y109,6 <= 1
 0 <= Y110,0 <= 1
 0 <= Y110,1 <= 1
 0 <= Y110,2 <= 1
 0 <= Y110,3 <= 1
 0 <= Y110,4 <= 1
 0 <= Y110,5 <= 1
 0 <= Y110,6 <= 1
 0 <= Y111,0 <= 1
 0 <= Y111,1 <= 1
 0 <= Y111,2 <= 1
 0 <= Y111,3 <= 1
 0 <= Y111,4 <= 1
 0 <= Y111,5 <= 1
 0 <= Y111,6 <= 1
 0 <= Y112,0 <= 1
 0 <= Y112,1 <= 1
 0 <= Y112,2 <= 1
 0 <= Y112,3 <= 1
 0 <= Y112,4 <= 1
 0 <= Y112,5 <= 1
 0 <= Y112,6 <= 1
 0 <= Y113,0 <= 1
 0 <= Y113,1 <= 1
 0 <= Y113,2 <= 1
 0 <= Y113,3 <= 1
 0 <= Y113,4 <= 1
 0 <= Y113,5 <= 1
 0 <= Y113,6 <= 1
 0 <= Y114,0 <= 1
 0 <= Y114,1 <= 1
 0 <= Y114,2 <= 1
 0 <= Y114,3 <= 1
 0 <= Y114,4 <= 1
 0 <= Y114,5 <= 1
 0 <= Y114,6 <= 1
 0 <= Y115,0 <= 1
 0 <= Y115,1 <= 1
 0 <= Y115,2 <= 1
 0 <= Y115,3 <= 1
 0 <= Y115,4 <= 1
 0 <= Y115,5 <= 1
 0 <= Y115,6 <= 1
 0 <= Y116,0 <= 1
 0 <= Y116,1 <= 1
 0 <= Y116,2 <= 1
 0 <= Y116,3 <= 1
 0 <= Y116,4 <= 1
 0 <= Y116,5 <= 1
 0 <= Y116,6 <= 1
 0 <= Y117,0 <= 1
 0 <= Y117,1 <= 1
 0 <= Y117,2 <= 1
 0 <= Y117,3 <= 1
 0 <= Y117,4 <= 1
 0 <= Y117,5 <= 1
 0 <= Y117,6 <= 1
 0 <= Y118,0 <= 1
 0 <= Y118,1 <= 1
 0 <= Y118,2 <= 1
 0 <= Y118,3 <= 1
 0 <= Y118,4 <= 1
 0 <= Y118,5 <= 1
 0 <= Y118,6 <= 1
 0 <= Y119,0 <= 1
 0 <= Y119,1 <= 1
 0 <= Y119,2 <= 1
 0 <= Y119,3 <= 1
 0 <= Y119,4 <= 1
 0 <= Y119,5 <= 1
 0 <= Y119,6 <= 1
 0 <= Y120,0 <= 1
 0 <= Y120,1 <= 1
 0 <= Y120,2 <= 1
 0 <= Y120,3 <= 1
 0 <= Y120,4 <= 1
 0 <= Y120,5 <= 1
 0 <= Y120,6 <= 1
 0 <= Y121,0 <= 1
 0 <= Y121,1 <= 1
 0 <= Y121,2 <= 1
 0 <= Y121,3 <= 1
 0 <= Y121,4 <= 1
 0 <= Y121,5 <= 1
 0 <= Y121,6 <= 1
 0 <= Y122,0 <= 1
 0 <= Y122,1 <= 1
 0 <= Y122,2 <= 1
 0 <= Y122,3 <= 1
 0 <= Y122,4 <= 1
 0 <= Y122,5 <= 1
 0 <= Y122,6 <= 1
 0 <= Y123,0 <= 1
 0 <= Y123,1 <= 1
 0 <= Y123,2 <= 1
 0 <= Y123,3 <= 1
 0 <= Y123,4 <= 1
 0 <= Y123,5 <= 1
 0 <= Y123,6 <= 1
 0 <= Y124,0 <= 1
 0 <= Y124,1 <= 1
 0 <= Y124,2 <= 1
 0 <= Y124,3 <= 1
 0 <= Y124,4 <= 1
 0 <= Y124,5 <= 1
 0 <= Y124,6 <= 1
 0 <= Y125,0 <= 1
 0 <= Y125,1 <= 1
 0 <= Y125,2 <= 1
 0 <= Y125,3 <= 1
 0 <= Y125,4 <= 1
 0 <= Y125,5 <= 1
 0 <= Y125,6 <= 1
 0 <= Y126,0 <= 1
 0 <= Y126,1 <= 1
 0 <= Y126,2 <= 1
 0 <= Y126,3 <= 1
 0 <= Y126,4 <= 1
 0 <= Y126,5 <= 1
 0 <= Y126,6 <= 1
 0 <= Y127,0 <= 1
 0 <= Y127,1 <= 1
 0 <= Y127,2 <= 1
 0 <= Y127,3 <= 1
 0 <= Y127,4 <= 1
 0 <= Y127,5 <= 1
 0 <= Y127,6 <= 1
 0 <= Y128,0 <= 1
 0 <= Y128,1 <= 1
 0 <= Y128,2 <= 1
 0 <= Y128,3 <= 1
 0 <= Y128,4 <= 1
 0 <= Y128,5 <= 1
 0 <= Y128,6 <= 1
 0 <= Y129,0 <= 1
 0 <= Y129,1 <= 1
 0 <= Y129,2 <= 1
 0 <= Y129,3 <= 1
 0 <= Y129,4 <= 1
 0 <= Y129,5 <= 1
 0 <= Y129,6 <= 1
 0 <= Y130,0 <= 1
 0 <= Y130,1 <= 1
 0 <= Y130,2 <= 1
 0 <= Y130,3 <= 1
 0 <= Y130,4 <= 1
 0 <= Y130,5 <= 1
 0 <= Y130,6 <= 1
 0 <= Y131,0 <= 1
 0 <= Y131,1 <= 1
 0 <= Y131,2 <= 1
 0 <= Y131,3 <= 1
 0 <= Y131,4 <= 1
 0 <= Y131,5 <= 1
 0 <= Y131,6 <= 1
 0 <= Y132,0 <= 1
 0 <= Y132,1 <= 1
 0 <= Y132,2 <= 1
 0 <= Y132,3 <= 1
 0 <= Y132,4 <= 1
 0 <= Y132,5 <= 1
 0 <= Y132,6 <= 1
 0 <= Y133,0 <= 1
 0 <= Y133,1 <= 1
 0 <= Y133,2 <= 1
 0 <= Y133,3 <= 1
 0 <= Y133,4 <= 1
 0 <= Y133,5 <= 1
 0 <= Y133,6 <= 1
 0 <= Y134,0 <= 1
 0 <= Y134,1 <= 1
 0 <= Y134,2 <= 1
 0 <= Y134,3 <= 1
 0 <= Y134,4 <= 1
 0 <= Y134,5 <= 1
 0 <= Y134,6 <= 1
 0 <= Y135,0 <= 1
 0 <= Y135,1 <= 1
 0 <= Y135,2 <= 1
 0 <= Y135,3 <= 1
 0 <= Y135,4 <= 1
 0 <= Y135,5 <= 1
 0 <= Y135,6 <= 1
 0 <= Y136,0 <= 1
 0 <= Y136,1 <= 1
 0 <= Y136,2 <= 1
 0 <= Y136,3 <= 1
 0 <= Y136,4 <= 1
 0 <= Y136,5 <= 1
 0 <= Y136,6 <= 1
 0 <= Y137,0 <= 1
 0 <= Y137,1 <= 1
 0 <= Y137,2 <= 1
 0 <= Y137,3 <= 1
 0 <= Y137,4 <= 1
 0 <= Y137,5 <= 1
 0 <= Y137,6 <= 1
 0 <= Y138,0 <= 1
 0 <= Y138,1 <= 1
 0 <= Y138,2 <= 1
 0 <= Y138,3 <= 1
 0 <= Y138,4 <= 1
 0 <= Y138,5 <= 1
 0 <= Y138,6 <= 1
 0 <= Y139,0 <= 1
 0 <= Y139,1 <= 1
 0 <= Y139,2 <= 1
 0 <= Y139,3 <= 1
 0 <= Y139,4 <= 1
 0 <= Y139,5 <= 1
 0 <= Y139,6 <= 1
 0 <= Y140,0 <= 1
 0 <= Y140,1 <= 1
 0 <= Y140,2 <= 1
 0 <= Y140,3 <= 1
 0 <= Y140,4 <= 1
 0 <= Y140,5 <= 1
 0 <= Y140,6 <= 1
 0 <= Y141,0 <= 1
 0 <= Y141,1 <= 1
 0 <= Y141,2 <= 1
 0 <= Y141,3 <= 1
 0 <= Y141,4 <= 1
 0 <= Y141,5 <= 1
 0 <= Y141,6 <= 1
 0 <= Y142,0 <= 1
 0 <= Y142,1 <= 1
 0 <= Y142,2 <= 1
 0 <= Y142,3 <= 1
 0 <= Y142,4 <= 1
 0 <= Y142,5 <= 1
 0 <= Y142,6 <= 1
 0 <= Y143,0 <= 1
 0 <= Y143,1 <= 1
 0 <= Y143,2 <= 1
 0 <= Y143,3 <= 1
 0 <= Y143,4 <= 1
 0 <= Y143,5 <= 1
 0 <= Y143,6 <= 1
 0 <= Y144,0 <= 1
 0 <= Y144,1 <= 1
 0 <= Y144,2 <= 1
 0 <= Y144,3 <= 1
 0 <= Y144,4 <= 1
 0 <= Y144,5 <= 1
 0 <= Y144,6 <= 1
 0 <= Y145,0 <= 1
 0 <= Y145,1 <= 1
 0 <= Y145,2 <= 1
 0 <= Y145,3 <= 1
 0 <= Y145,4 <= 1
 0 <= Y145,5 <= 1
 0 <= Y145,6 <= 1
 0 <= Y146,0 <= 1
 0 <= Y146,1 <= 1
 0 <= Y146,2 <= 1
 0 <= Y146,3 <= 1
 0 <= Y146,4 <= 1
 0 <= Y146,5 <= 1
 0 <= Y146,6 <= 1
 0 <= Y147,0 <= 1
 0 <= Y147,1 <= 1
 0 <= Y147,2 <= 1
 0 <= Y147,3 <= 1
 0 <= Y147,4 <= 1
 0 <= Y147,5 <= 1
 0 <= Y147,6 <= 1
 0 <= Y148,0 <= 1
 0 <= Y148,1 <= 1
 0 <= Y148,2 <= 1
 0 <= Y148,3 <= 1
 0 <= Y148,4 <= 1
 0 <= Y148,5 <= 1
 0 <= Y148,6 <= 1
 0 <= Y149,0 <= 1
 0 <= Y149,1 <= 1
 0 <= Y149,2 <= 1
 0 <= Y149,3 <= 1
 0 <= Y149,4 <= 1
 0 <= Y149,5 <= 1
 0 <= Y149,6 <= 1
 0 <= Y150,0 <= 1
 0 <= Y150,1 <= 1
 0 <= Y150,2 <= 1
 0 <= Y150,3 <= 1
 0 <= Y150,4 <= 1
 0 <= Y150,5 <= 1
 0 <= Y150,6 <= 1
 0 <= Y151,0 <= 1
 0 <= Y151,1 <= 1
 0 <= Y151,2 <= 1
 0 <= Y151,3 <= 1
 0 <= Y151,4 <= 1
 0 <= Y151,5 <= 1
 0 <= Y151,6 <= 1
 0 <= Y152,0 <= 1
 0 <= Y152,1 <= 1
 0 <= Y152,2 <= 1
 0 <= Y152,3 <= 1
 0 <= Y152,4 <= 1
 0 <= Y152,5 <= 1
 0 <= Y152,6 <= 1
 0 <= Y153,0 <= 1
 0 <= Y153,1 <= 1
 0 <= Y153,2 <= 1
 0 <= Y153,3 <= 1
 0 <= Y153,4 <= 1
 0 <= Y153,5 <= 1
 0 <= Y153,6 <= 1
 0 <= Y154,0 <= 1
 0 <= Y154,1 <= 1
 0 <= Y154,2 <= 1
 0 <= Y154,3 <= 1
 0 <= Y154,4 <= 1
 0 <= Y154,5 <= 1
 0 <= Y154,6 <= 1
 0 <= Y155,0 <= 1
 0 <= Y155,1 <= 1
 0 <= Y155,2 <= 1
 0 <= Y155,3 <= 1
 0 <= Y155,4 <= 1
 0 <= Y155,5 <= 1
 0 <= Y155,6 <= 1
 0 <= Y156,0 <= 1
 0 <= Y156,1 <= 1
 0 <= Y156,2 <= 1
 0 <= Y156,3 <= 1
 0 <= Y156,4 <= 1
 0 <= Y156,5 <= 1
 0 <= Y156,6 <= 1
 0 <= Y157,0 <= 1
 0 <= Y157,1 <= 1
 0 <= Y157,2 <= 1
 0 <= Y157,3 <= 1
 0 <= Y157,4 <= 1
 0 <= Y157,5 <= 1
 0 <= Y157,6 <= 1
 0 <= Y158,0 <= 1
 0 <= Y158,1 <= 1
 0 <= Y158,2 <= 1
 0 <= Y158,3 <= 1
 0 <= Y158,4 <= 1
 0 <= Y158,5 <= 1
 0 <= Y158,6 <= 1
 0 <= Y159,0 <= 1
 0 <= Y159,1 <= 1
 0 <= Y159,2 <= 1
 0 <= Y159,3 <= 1
 0 <= Y159,4 <= 1
 0 <= Y159,5 <= 1
 0 <= Y159,6 <= 1
 0 <= Y160,0 <= 1
 0 <= Y160,1 <= 1
 0 <= Y160,2 <= 1
 0 <= Y160,3 <= 1
 0 <= Y160,4 <= 1
 0 <= Y160,5 <= 1
 0 <= Y160,6 <= 1
 0 <= Y161,0 <= 1
 0 <= Y161,1 <= 1
 0 <= Y161,2 <= 1
 0 <= Y161,3 <= 1
 0 <= Y161,4 <= 1
 0 <= Y161,5 <= 1
 0 <= Y161,6 <= 1
 0 <= Y162,0 <= 1
 0 <= Y162,1 <= 1
 0 <= Y162,2 <= 1
 0 <= Y162,3 <= 1
 0 <= Y162,4 <= 1
 0 <= Y162,5 <= 1
 0 <= Y162,6 <= 1
 0 <= Y163,0 <= 1
 0 <= Y163,1 <= 1
 0 <= Y163,2 <= 1
 0 <= Y163,3 <= 1
 0 <= Y163,4 <= 1
 0 <= Y163,5 <= 1
 0 <= Y163,6 <= 1
 0 <= Y164,0 <= 1
 0 <= Y164,1 <= 1
 0 <= Y164,2 <= 1
 0 <= Y164,3 <= 1
 0 <= Y164,4 <= 1
 0 <= Y164,5 <= 1
 0 <= Y164,6 <= 1
 0 <= Y165,0 <= 1
 0 <= Y165,1 <= 1
 0 <= Y165,2 <= 1
 0 <= Y165,3 <= 1
 0 <= Y165,4 <= 1
 0 <= Y165,5 <= 1
 0 <= Y165,6 <= 1
 0 <= Y166,0 <= 1
 0 <= Y166,1 <= 1
 0 <= Y166,2 <= 1
 0 <= Y166,3 <= 1
 0 <= Y166,4 <= 1
 0 <= Y166,5 <= 1
 0 <= Y166,6 <= 1
 0 <= Y167,0 <= 1
 0 <= Y167,1 <= 1
 0 <= Y167,2 <= 1
 0 <= Y167,3 <= 1
 0 <= Y167,4 <= 1
 0 <= Y167,5 <= 1
 0 <= Y167,6 <= 1
 0 <= Y168,0 <= 1
 0 <= Y168,1 <= 1
 0 <= Y168,2 <= 1
 0 <= Y168,3 <= 1
 0 <= Y168,4 <= 1
 0 <= Y168,5 <= 1
 0 <= Y168,6 <= 1
 0 <= Y169,0 <= 1
 0 <= Y169,1 <= 1
 0 <= Y169,2 <= 1
 0 <= Y169,3 <= 1
 0 <= Y169,4 <= 1
 0 <= Y169,5 <= 1
 0 <= Y169,6 <= 1
 0 <= Y170,0 <= 1
 0 <= Y170,1 <= 1
 0 <= Y170,2 <= 1
 0 <= Y170,3 <= 1
 0 <= Y170,4 <= 1
 0 <= Y170,5 <= 1
 0 <= Y170,6 <= 1
 0 <= Y171,0 <= 1
 0 <= Y171,1 <= 1
 0 <= Y171,2 <= 1
 0 <= Y171,3 <= 1
 0 <= Y171,4 <= 1
 0 <= Y171,5 <= 1
 0 <= Y171,6 <= 1
 0 <= Y172,0 <= 1
 0 <= Y172,1 <= 1
 0 <= Y172,2 <= 1
 0 <= Y172,3 <= 1
 0 <= Y172,4 <= 1
 0 <= Y172,5 <= 1
 0 <= Y172,6 <= 1
 0 <= Y173,0 <= 1
 0 <= Y173,1 <= 1
 0 <= Y173,2 <= 1
 0 <= Y173,3 <= 1
 0 <= Y173,4 <= 1
 0 <= Y173,5 <= 1
 0 <= Y173,6 <= 1
 0 <= Y174,0 <= 1
 0 <= Y174,1 <= 1
 0 <= Y174,2 <= 1
 0 <= Y174,3 <= 1
 0 <= Y174,4 <= 1
 0 <= Y174,5 <= 1
 0 <= Y174,6 <= 1
 0 <= Y175,0 <= 1
 0 <= Y175,1 <= 1
 0 <= Y175,2 <= 1
 0 <= Y175,3 <= 1
 0 <= Y175,4 <= 1
 0 <= Y175,5 <= 1
 0 <= Y175,6 <= 1
 0 <= Y176,0 <= 1
 0 <= Y176,1 <= 1
 0 <= Y176,2 <= 1
 0 <= Y176,3 <= 1
 0 <= Y176,4 <= 1
 0 <= Y176,5 <= 1
 0 <= Y176,6 <= 1
 0 <= Y177,0 <= 1
 0 <= Y177,1 <= 1
 0 <= Y177,2 <= 1
 0 <= Y177,3 <= 1
 0 <= Y177,4 <= 1
 0 <= Y177,5 <= 1
 0 <= Y177,6 <= 1
 0 <= Y178,0 <= 1
 0 <= Y178,1 <= 1
 0 <= Y178,2 <= 1
 0 <= Y178,3 <= 1
 0 <= Y178,4 <= 1
 0 <= Y178,5 <= 1
 0 <= Y178,6 <= 1
 0 <= Y179,0 <= 1
 0 <= Y179,1 <= 1
 0 <= Y179,2 <= 1
 0 <= Y179,3 <= 1
 0 <= Y179,4 <= 1
 0 <= Y179,5 <= 1
 0 <= Y179,6 <= 1
 0 <= Y180,0 <= 1
 0 <= Y180,1 <= 1
 0 <= Y180,2 <= 1
 0 <= Y180,3 <= 1
 0 <= Y180,4 <= 1
 0 <= Y180,5 <= 1
 0 <= Y180,6 <= 1
 0 <= Y181,0 <= 1
 0 <= Y181,1 <= 1
 0 <= Y181,2 <= 1
 0 <= Y181,3 <= 1
 0 <= Y181,4 <= 1
 0 <= Y181,5 <= 1
 0 <= Y181,6 <= 1
 0 <= Y182,0 <= 1
 0 <= Y182,1 <= 1
 0 <= Y182,2 <= 1
 0 <= Y182,3 <= 1
 0 <= Y182,4 <= 1
 0 <= Y182,5 <= 1
 0 <= Y182,6 <= 1
 0 <= Y183,0 <= 1
 0 <= Y183,1 <= 1
 0 <= Y183,2 <= 1
 0 <= Y183,3 <= 1
 0 <= Y183,4 <= 1
 0 <= Y183,5 <= 1
 0 <= Y183,6 <= 1
 0 <= Y184,0 <= 1
 0 <= Y184,1 <= 1
 0 <= Y184,2 <= 1
 0 <= Y184,3 <= 1
 0 <= Y184,4 <= 1
 0 <= Y184,5 <= 1
 0 <= Y184,6 <= 1
 0 <= Y185,0 <= 1
 0 <= Y185,1 <= 1
 0 <= Y185,2 <= 1
 0 <= Y185,3 <= 1
 0 <= Y185,4 <= 1
 0 <= Y185,5 <= 1
 0 <= Y185,6 <= 1
 0 <= Y186,0 <= 1
 0 <= Y186,1 <= 1
 0 <= Y186,2 <= 1
 0 <= Y186,3 <= 1
 0 <= Y186,4 <= 1
 0 <= Y186,5 <= 1
 0 <= Y186,6 <= 1
 0 <= Y187,0 <= 1
 0 <= Y187,1 <= 1
 0 <= Y187,2 <= 1
 0 <= Y187,3 <= 1
 0 <= Y187,4 <= 1
 0 <= Y187,5 <= 1
 0 <= Y187,6 <= 1
 0 <= Y188,0 <= 1
 0 <= Y188,1 <= 1
 0 <= Y188,2 <= 1
 0 <= Y188,3 <= 1
 0 <= Y188,4 <= 1
 0 <= Y188,5 <= 1
 0 <= Y188,6 <= 1
 0 <= Y189,0 <= 1
 0 <= Y189,1 <= 1
 0 <= Y189,2 <= 1
 0 <= Y189,3 <= 1
 0 <= Y189,4 <= 1
 0 <= Y189,5 <= 1
 0 <= Y189,6 <= 1
 0 <= Y190,0 <= 1
 0 <= Y190,1 <= 1
 0 <= Y190,2 <= 1
 0 <= Y190,3 <= 1
 0 <= Y190,4 <= 1
 0 <= Y190,5 <= 1
 0 <= Y190,6 <= 1
 0 <= Y191,0 <= 1
 0 <= Y191,1 <= 1
 0 <= Y191,2 <= 1
 0 <= Y191,3 <= 1
 0 <= Y191,4 <= 1
 0 <= Y191,5 <= 1
 0 <= Y191,6 <= 1
 0 <= Y192,0 <= 1
 0 <= Y192,1 <= 1
 0 <= Y192,2 <= 1
 0 <= Y192,3 <= 1
 0 <= Y192,4 <= 1
 0 <= Y192,5 <= 1
 0 <= Y192,6 <= 1
 0 <= Y193,0 <= 1
 0 <= Y193,1 <= 1
 0 <= Y193,2 <= 1
 0 <= Y193,3 <= 1
 0 <= Y193,4 <= 1
 0 <= Y193,5 <= 1
 0 <= Y193,6 <= 1
 0 <= Y194,0 <= 1
 0 <= Y194,1 <= 1
 0 <= Y194,2 <= 1
 0 <= Y194,3 <= 1
 0 <= Y194,4 <= 1
 0 <= Y194,5 <= 1
 0 <= Y194,6 <= 1
 0 <= Y195,0 <= 1
 0 <= Y195,1 <= 1
 0 <= Y195,2 <= 1
 0 <= Y195,3 <= 1
 0 <= Y195,4 <= 1
 0 <= Y195,5 <= 1
 0 <= Y195,6 <= 1
 0 <= Y196,0 <= 1
 0 <= Y196,1 <= 1
 0 <= Y196,2 <= 1
 0 <= Y196,3 <= 1
 0 <= Y196,4 <= 1
 0 <= Y196,5 <= 1
 0 <= Y196,6 <= 1
 0 <= Y197,0 <= 1
 0 <= Y197,1 <= 1
 0 <= Y197,2 <= 1
 0 <= Y197,3 <= 1
 0 <= Y197,4 <= 1
 0 <= Y197,5 <= 1
 0 <= Y197,6 <= 1
 0 <= Y198,0 <= 1
 0 <= Y198,1 <= 1
 0 <= Y198,2 <= 1
 0 <= Y198,3 <= 1
 0 <= Y198,4 <= 1
 0 <= Y198,5 <= 1
 0 <= Y198,6 <= 1
 0 <= Y199,0 <= 1
 0 <= Y199,1 <= 1
 0 <= Y199,2 <= 1
 0 <= Y199,3 <= 1
 0 <= Y199,4 <= 1
 0 <= Y199,5 <= 1
 0 <= Y199,6 <= 1
 0 <= Y200,0 <= 1
 0 <= Y200,1 <= 1
 0 <= Y200,2 <= 1
 0 <= Y200,3 <= 1
 0 <= Y200,4 <= 1
 0 <= Y200,5 <= 1
 0 <= Y200,6 <= 1
 0 <= Y201,0 <= 1
 0 <= Y201,1 <= 1
 0 <= Y201,2 <= 1
 0 <= Y201,3 <= 1
 0 <= Y201,4 <= 1
 0 <= Y201,5 <= 1
 0 <= Y201,6 <= 1
 0 <= Y202,0 <= 1
 0 <= Y202,1 <= 1
 0 <= Y202,2 <= 1
 0 <= Y202,3 <= 1
 0 <= Y202,4 <= 1
 0 <= Y202,5 <= 1
 0 <= Y202,6 <= 1
 0 <= Y203,0 <= 1
 0 <= Y203,1 <= 1
 0 <= Y203,2 <= 1
 0 <= Y203,3 <= 1
 0 <= Y203,4 <= 1
 0 <= Y203,5 <= 1
 0 <= Y203,6 <= 1
 0 <= Y204,0 <= 1
 0 <= Y204,1 <= 1
 0 <= Y204,2 <= 1
 0 <= Y204,3 <= 1
 0 <= Y204,4 <= 1
 0 <= Y204,5 <= 1
 0 <= Y204,6 <= 1
 0 <= Y205,0 <= 1
 0 <= Y205,1 <= 1
 0 <= Y205,2 <= 1
 0 <= Y205,3 <= 1
 0 <= Y205,4 <= 1
 0 <= Y205,5 <= 1
 0 <= Y205,6 <= 1
 0 <= Y206,0 <= 1
 0 <= Y206,1 <= 1
 0 <= Y206,2 <= 1
 0 <= Y206,3 <= 1
 0 <= Y206,4 <= 1
 0 <= Y206,5 <= 1
 0 <= Y206,6 <= 1
 0 <= Y207,0 <= 1
 0 <= Y207,1 <= 1
 0 <= Y207,2 <= 1
 0 <= Y207,3 <= 1
 0 <= Y207,4 <= 1
 0 <= Y207,5 <= 1
 0 <= Y207,6 <= 1
 0 <= Y208,0 <= 1
 0 <= Y208,1 <= 1
 0 <= Y208,2 <= 1
 0 <= Y208,3 <= 1
 0 <= Y208,4 <= 1
 0 <= Y208,5 <= 1
 0 <= Y208,6 <= 1
 0 <= Y209,0 <= 1
 0 <= Y209,1 <= 1
 0 <= Y209,2 <= 1
 0 <= Y209,3 <= 1
 0 <= Y209,4 <= 1
 0 <= Y209,5 <= 1
 0 <= Y209,6 <= 1
 0 <= Y210,0 <= 1
 0 <= Y210,1 <= 1
 0 <= Y210,2 <= 1
 0 <= Y210,3 <= 1
 0 <= Y210,4 <= 1
 0 <= Y210,5 <= 1
 0 <= Y210,6 <= 1
 0 <= Y211,0 <= 1
 0 <= Y211,1 <= 1
 0 <= Y211,2 <= 1
 0 <= Y211,3 <= 1
 0 <= Y211,4 <= 1
 0 <= Y211,5 <= 1
 0 <= Y211,6 <= 1
 0 <= Y212,0 <= 1
 0 <= Y212,1 <= 1
 0 <= Y212,2 <= 1
 0 <= Y212,3 <= 1
 0 <= Y212,4 <= 1
 0 <= Y212,5 <= 1
 0 <= Y212,6 <= 1
 0 <= Y213,0 <= 1
 0 <= Y213,1 <= 1
 0 <= Y213,2 <= 1
 0 <= Y213,3 <= 1
 0 <= Y213,4 <= 1
 0 <= Y213,5 <= 1
 0 <= Y213,6 <= 1
 0 <= Y214,0 <= 1
 0 <= Y214,1 <= 1
 0 <= Y214,2 <= 1
 0 <= Y214,3 <= 1
 0 <= Y214,4 <= 1
 0 <= Y214,5 <= 1
 0 <= Y214,6 <= 1
 0 <= Y215,0 <= 1
 0 <= Y215,1 <= 1
 0 <= Y215,2 <= 1
 0 <= Y215,3 <= 1
 0 <= Y215,4 <= 1
 0 <= Y215,5 <= 1
 0 <= Y215,6 <= 1
 0 <= Y216,0 <= 1
 0 <= Y216,1 <= 1
 0 <= Y216,2 <= 1
 0 <= Y216,3 <= 1
 0 <= Y216,4 <= 1
 0 <= Y216,5 <= 1
 0 <= Y216,6 <= 1
 0 <= Y217,0 <= 1
 0 <= Y217,1 <= 1
 0 <= Y217,2 <= 1
 0 <= Y217,3 <= 1
 0 <= Y217,4 <= 1
 0 <= Y217,5 <= 1
 0 <= Y217,6 <= 1
 0 <= Y218,0 <= 1
 0 <= Y218,1 <= 1
 0 <= Y218,2 <= 1
 0 <= Y218,3 <= 1
 0 <= Y218,4 <= 1
 0 <= Y218,5 <= 1
 0 <= Y218,6 <= 1
 0 <= Y219,0 <= 1
 0 <= Y219,1 <= 1
 0 <= Y219,2 <= 1
 0 <= Y219,3 <= 1
 0 <= Y219,4 <= 1
 0 <= Y219,5 <= 1
 0 <= Y219,6 <= 1
 0 <= Y220,0 <= 1
 0 <= Y220,1 <= 1
 0 <= Y220,2 <= 1
 0 <= Y220,3 <= 1
 0 <= Y220,4 <= 1
 0 <= Y220,5 <= 1
 0 <= Y220,6 <= 1
 0 <= Y221,0 <= 1
 0 <= Y221,1 <= 1
 0 <= Y221,2 <= 1
 0 <= Y221,3 <= 1
 0 <= Y221,4 <= 1
 0 <= Y221,5 <= 1
 0 <= Y221,6 <= 1
 0 <= Y222,0 <= 1
 0 <= Y222,1 <= 1
 0 <= Y222,2 <= 1
 0 <= Y222,3 <= 1
 0 <= Y222,4 <= 1
 0 <= Y222,5 <= 1
 0 <= Y222,6 <= 1
 0 <= Y223,0 <= 1
 0 <= Y223,1 <= 1
 0 <= Y223,2 <= 1
 0 <= Y223,3 <= 1
 0 <= Y223,4 <= 1
 0 <= Y223,5 <= 1
 0 <= Y223,6 <= 1
 0 <= Y224,0 <= 1
 0 <= Y224,1 <= 1
 0 <= Y224,2 <= 1
 0 <= Y224,3 <= 1
 0 <= Y224,4 <= 1
 0 <= Y224,5 <= 1
 0 <= Y224,6 <= 1
 0 <= Y225,0 <= 1
 0 <= Y225,1 <= 1
 0 <= Y225,2 <= 1
 0 <= Y225,3 <= 1
 0 <= Y225,4 <= 1
 0 <= Y225,5 <= 1
 0 <= Y225,6 <= 1
 0 <= Y226,0 <= 1
 0 <= Y226,1 <= 1
 0 <= Y226,2 <= 1
 0 <= Y226,3 <= 1
 0 <= Y226,4 <= 1
 0 <= Y226,5 <= 1
 0 <= Y226,6 <= 1
 0 <= Y227,0 <= 1
 0 <= Y227,1 <= 1
 0 <= Y227,2 <= 1
 0 <= Y227,3 <= 1
 0 <= Y227,4 <= 1
 0 <= Y227,5 <= 1
 0 <= Y227,6 <= 1
 0 <= Y228,0 <= 1
 0 <= Y228,1 <= 1
 0 <= Y228,2 <= 1
 0 <= Y228,3 <= 1
 0 <= Y228,4 <= 1
 0 <= Y228,5 <= 1
 0 <= Y228,6 <= 1
 0 <= Y229,0 <= 1
 0 <= Y229,1 <= 1
 0 <= Y229,2 <= 1
 0 <= Y229,3 <= 1
 0 <= Y229,4 <= 1
 0 <= Y229,5 <= 1
 0 <= Y229,6 <= 1
 0 <= Y230,0 <= 1
 0 <= Y230,1 <= 1
 0 <= Y230,2 <= 1
 0 <= Y230,3 <= 1
 0 <= Y230,4 <= 1
 0 <= Y230,5 <= 1
 0 <= Y230,6 <= 1
 0 <= Y231,0 <= 1
 0 <= Y231,1 <= 1
 0 <= Y231,2 <= 1
 0 <= Y231,3 <= 1
 0 <= Y231,4 <= 1
 0 <= Y231,5 <= 1
 0 <= Y231,6 <= 1
 0 <= Y232,0 <= 1
 0 <= Y232,1 <= 1
 0 <= Y232,2 <= 1
 0 <= Y232,3 <= 1
 0 <= Y232,4 <= 1
 0 <= Y232,5 <= 1
 0 <= Y232,6 <= 1
 0 <= Y233,0 <= 1
 0 <= Y233,1 <= 1
 0 <= Y233,2 <= 1
 0 <= Y233,3 <= 1
 0 <= Y233,4 <= 1
 0 <= Y233,5 <= 1
 0 <= Y233,6 <= 1
 0 <= Y234,0 <= 1
 0 <= Y234,1 <= 1
 0 <= Y234,2 <= 1
 0 <= Y234,3 <= 1
 0 <= Y234,4 <= 1
 0 <= Y234,5 <= 1
 0 <= Y234,6 <= 1
 0 <= Y235,0 <= 1
 0 <= Y235,1 <= 1
 0 <= Y235,2 <= 1
 0 <= Y235,3 <= 1
 0 <= Y235,4 <= 1
 0 <= Y235,5 <= 1
 0 <= Y235,6 <= 1
 0 <= Y236,0 <= 1
 0 <= Y236,1 <= 1
 0 <= Y236,2 <= 1
 0 <= Y236,3 <= 1
 0 <= Y236,4 <= 1
 0 <= Y236,5 <= 1
 0 <= Y236,6 <= 1
 0 <= Y237,0 <= 1
 0 <= Y237,1 <= 1
 0 <= Y237,2 <= 1
 0 <= Y237,3 <= 1
 0 <= Y237,4 <= 1
 0 <= Y237,5 <= 1
 0 <= Y237,6 <= 1
 0 <= Y238,0 <= 1
 0 <= Y238,1 <= 1
 0 <= Y238,2 <= 1
 0 <= Y238,3 <= 1
 0 <= Y238,4 <= 1
 0 <= Y238,5 <= 1
 0 <= Y238,6 <= 1
 0 <= Y239,0 <= 1
 0 <= Y239,1 <= 1
 0 <= Y239,2 <= 1
 0 <= Y239,3 <= 1
 0 <= Y239,4 <= 1
 0 <= Y239,5 <= 1
 0 <= Y239,6 <= 1
 0 <= Y240,0 <= 1
 0 <= Y240,1 <= 1
 0 <= Y240,2 <= 1
 0 <= Y240,3 <= 1
 0 <= Y240,4 <= 1
 0 <= Y240,5 <= 1
 0 <= Y240,6 <= 1
 0 <= Y241,0 <= 1
 0 <= Y241,1 <= 1
 0 <= Y241,2 <= 1
 0 <= Y241,3 <= 1
 0 <= Y241,4 <= 1
 0 <= Y241,5 <= 1
 0 <= Y241,6 <= 1
 0 <= Y242,0 <= 1
 0 <= Y242,1 <= 1
 0 <= Y242,2 <= 1
 0 <= Y242,3 <= 1
 0 <= Y242,4 <= 1
 0 <= Y242,5 <= 1
 0 <= Y242,6 <= 1
 0 <= Y243,0 <= 1
 0 <= Y243,1 <= 1
 0 <= Y243,2 <= 1
 0 <= Y243,3 <= 1
 0 <= Y243,4 <= 1
 0 <= Y243,5 <= 1
 0 <= Y243,6 <= 1
 0 <= Y244,0 <= 1
 0 <= Y244,1 <= 1
 0 <= Y244,2 <= 1
 0 <= Y244,3 <= 1
 0 <= Y244,4 <= 1
 0 <= Y244,5 <= 1
 0 <= Y244,6 <= 1
 0 <= Y245,0 <= 1
 0 <= Y245,1 <= 1
 0 <= Y245,2 <= 1
 0 <= Y245,3 <= 1
 0 <= Y245,4 <= 1
 0 <= Y245,5 <= 1
 0 <= Y245,6 <= 1
 0 <= Y246,0 <= 1
 0 <= Y246,1 <= 1
 0 <= Y246,2 <= 1
 0 <= Y246,3 <= 1
 0 <= Y246,4 <= 1
 0 <= Y246,5 <= 1
 0 <= Y246,6 <= 1
 0 <= Y247,0 <= 1
 0 <= Y247,1 <= 1
 0 <= Y247,2 <= 1
 0 <= Y247,3 <= 1
 0 <= Y247,4 <= 1
 0 <= Y247,5 <= 1
 0 <= Y247,6 <= 1
 0 <= Y248,0 <= 1
 0 <= Y248,1 <= 1
 0 <= Y248,2 <= 1
 0 <= Y248,3 <= 1
 0 <= Y248,4 <= 1
 0 <= Y248,5 <= 1
 0 <= Y248,6 <= 1
 0 <= Y249,0 <= 1
 0 <= Y249,1 <= 1
 0 <= Y249,2 <= 1
 0 <= Y249,3 <= 1
 0 <= Y249,4 <= 1
 0 <= Y249,5 <= 1
 0 <= Y249,6 <= 1
 0 <= Y250,0 <= 1
 0 <= Y250,1 <= 1
 0 <= Y250,2 <= 1
 0 <= Y250,3 <= 1
 0 <= Y250,4 <= 1
 0 <= Y250,5 <= 1
 0 <= Y250,6 <= 1
 0 <= Y251,0 <= 1
 0 <= Y251,1 <= 1
 0 <= Y251,2 <= 1
 0 <= Y251,3 <= 1
 0 <= Y251,4 <= 1
 0 <= Y251,5 <= 1
 0 <= Y251,6 <= 1
 0 <= Y252,0 <= 1
 0 <= Y252,1 <= 1
 0 <= Y252,2 <= 1
 0 <= Y252,3 <= 1
 0 <= Y252,4 <= 1
 0 <= Y252,5 <= 1
 0 <= Y252,6 <= 1
 0 <= Y253,0 <= 1
 0 <= Y253,1 <= 1
 0 <= Y253,2 <= 1
 0 <= Y253,3 <= 1
 0 <= Y253,4 <= 1
 0 <= Y253,5 <= 1
 0 <= Y253,6 <= 1
 0 <= Y254,0 <= 1
 0 <= Y254,1 <= 1
 0 <= Y254,2 <= 1
 0 <= Y254,3 <= 1
 0 <= Y254,4 <= 1
 0 <= Y254,5 <= 1
 0 <= Y254,6 <= 1
 0 <= Y255,0 <= 1
 0 <= Y255,1 <= 1
 0 <= Y255,2 <= 1
 0 <= Y255,3 <= 1
 0 <= Y255,4 <= 1
 0 <= Y255,5 <= 1
 0 <= Y255,6 <= 1
 0 <= Y256,0 <= 1
 0 <= Y256,1 <= 1
 0 <= Y256,2 <= 1
 0 <= Y256,3 <= 1
 0 <= Y256,4 <= 1
 0 <= Y256,5 <= 1
 0 <= Y256,6 <= 1
 0 <= Y257,0 <= 1
 0 <= Y257,1 <= 1
 0 <= Y257,2 <= 1
 0 <= Y257,3 <= 1
 0 <= Y257,4 <= 1
 0 <= Y257,5 <= 1
 0 <= Y257,6 <= 1
 0 <= Y258,0 <= 1
 0 <= Y258,1 <= 1
 0 <= Y258,2 <= 1
 0 <= Y258,3 <= 1
 0 <= Y258,4 <= 1
 0 <= Y258,5 <= 1
 0 <= Y258,6 <= 1
 0 <= Y259,0 <= 1
 0 <= Y259,1 <= 1
 0 <= Y259,2 <= 1
 0 <= Y259,3 <= 1
 0 <= Y259,4 <= 1
 0 <= Y259,5 <= 1
 0 <= Y259,6 <= 1
 0 <= Y260,0 <= 1
 0 <= Y260,1 <= 1
 0 <= Y260,2 <= 1
 0 <= Y260,3 <= 1
 0 <= Y260,4 <= 1
 0 <= Y260,5 <= 1
 0 <= Y260,6 <= 1
 0 <= Y261,0 <= 1
 0 <= Y261,1 <= 1
 0 <= Y261,2 <= 1
 0 <= Y261,3 <= 1
 0 <= Y261,4 <= 1
 0 <= Y261,5 <= 1
 0 <= Y261,6 <= 1
 0 <= Y262,0 <= 1
 0 <= Y262,1 <= 1
 0 <= Y262,2 <= 1
 0 <= Y262,3 <= 1
 0 <= Y262,4 <= 1
 0 <= Y262,5 <= 1
 0 <= Y262,6 <= 1
 0 <= Y263,0 <= 1
 0 <= Y263,1 <= 1
 0 <= Y263,2 <= 1
 0 <= Y263,3 <= 1
 0 <= Y263,4 <= 1
 0 <= Y263,5 <= 1
 0 <= Y263,6 <= 1
 0 <= Y264,0 <= 1
 0 <= Y264,1 <= 1
 0 <= Y264,2 <= 1
 0 <= Y264,3 <= 1
 0 <= Y264,4 <= 1
 0 <= Y264,5 <= 1
 0 <= Y264,6 <= 1
 0 <= Y265,0 <= 1
 0 <= Y265,1 <= 1
 0 <= Y265,2 <= 1
 0 <= Y265,3 <= 1
 0 <= Y265,4 <= 1
 0 <= Y265,5 <= 1
 0 <= Y265,6 <= 1
 0 <= Y266,0 <= 1
 0 <= Y266,1 <= 1
 0 <= Y266,2 <= 1
 0 <= Y266,3 <= 1
 0 <= Y266,4 <= 1
 0 <= Y266,5 <= 1
 0 <= Y266,6 <= 1
 0 <= Y267,0 <= 1
 0 <= Y267,1 <= 1
 0 <= Y267,2 <= 1
 0 <= Y267,3 <= 1
 0 <= Y267,4 <= 1
 0 <= Y267,5 <= 1
 0 <= Y267,6 <= 1
 0 <= Y268,0 <= 1
 0 <= Y268,1 <= 1
 0 <= Y268,2 <= 1
 0 <= Y268,3 <= 1
 0 <= Y268,4 <= 1
 0 <= Y268,5 <= 1
 0 <= Y268,6 <= 1
 0 <= Y269,0 <= 1
 0 <= Y269,1 <= 1
 0 <= Y269,2 <= 1
 0 <= Y269,3 <= 1
 0 <= Y269,4 <= 1
 0 <= Y269,5 <= 1
 0 <= Y269,6 <= 1
 0 <= Y270,0 <= 1
 0 <= Y270,1 <= 1
 0 <= Y270,2 <= 1
 0 <= Y270,3 <= 1
 0 <= Y270,4 <= 1
 0 <= Y270,5 <= 1
 0 <= Y270,6 <= 1
 0 <= Y271,0 <= 1
 0 <= Y271,1 <= 1
 0 <= Y271,2 <= 1
 0 <= Y271,3 <= 1
 0 <= Y271,4 <= 1
 0 <= Y271,5 <= 1
 0 <= Y271,6 <= 1
 0 <= Y272,0 <= 1
 0 <= Y272,1 <= 1
 0 <= Y272,2 <= 1
 0 <= Y272,3 <= 1
 0 <= Y272,4 <= 1
 0 <= Y272,5 <= 1
 0 <= Y272,6 <= 1
 0 <= Y273,0 <= 1
 0 <= Y273,1 <= 1
 0 <= Y273,2 <= 1
 0 <= Y273,3 <= 1
 0 <= Y273,4 <= 1
 0 <= Y273,5 <= 1
 0 <= Y273,6 <= 1
 0 <= Y274,0 <= 1
 0 <= Y274,1 <= 1
 0 <= Y274,2 <= 1
 0 <= Y274,3 <= 1
 0 <= Y274,4 <= 1
 0 <= Y274,5 <= 1
 0 <= Y274,6 <= 1
 0 <= Y275,0 <= 1
 0 <= Y275,1 <= 1
 0 <= Y275,2 <= 1
 0 <= Y275,3 <= 1
 0 <= Y275,4 <= 1
 0 <= Y275,5 <= 1
 0 <= Y275,6 <= 1
 0 <= Y276,0 <= 1
 0 <= Y276,1 <= 1
 0 <= Y276,2 <= 1
 0 <= Y276,3 <= 1
 0 <= Y276,4 <= 1
 0 <= Y276,5 <= 1
 0 <= Y276,6 <= 1
 0 <= Y277,0 <= 1
 0 <= Y277,1 <= 1
 0 <= Y277,2 <= 1
 0 <= Y277,3 <= 1
 0 <= Y277,4 <= 1
 0 <= Y277,5 <= 1
 0 <= Y277,6 <= 1
 0 <= Y278,0 <= 1
 0 <= Y278,1 <= 1
 0 <= Y278,2 <= 1
 0 <= Y278,3 <= 1
 0 <= Y278,4 <= 1
 0 <= Y278,5 <= 1
 0 <= Y278,6 <= 1
 0 <= Y279,0 <= 1
 0 <= Y279,1 <= 1
 0 <= Y279,2 <= 1
 0 <= Y279,3 <= 1
 0 <= Y279,4 <= 1
 0 <= Y279,5 <= 1
 0 <= Y279,6 <= 1
 0 <= Y280,0 <= 1
 0 <= Y280,1 <= 1
 0 <= Y280,2 <= 1
 0 <= Y280,3 <= 1
 0 <= Y280,4 <= 1
 0 <= Y280,5 <= 1
 0 <= Y280,6 <= 1
 0 <= Y281,0 <= 1
 0 <= Y281,1 <= 1
 0 <= Y281,2 <= 1
 0 <= Y281,3 <= 1
 0 <= Y281,4 <= 1
 0 <= Y281,5 <= 1
 0 <= Y281,6 <= 1
 0 <= Y282,0 <= 1
 0 <= Y282,1 <= 1
 0 <= Y282,2 <= 1
 0 <= Y282,3 <= 1
 0 <= Y282,4 <= 1
 0 <= Y282,5 <= 1
 0 <= Y282,6 <= 1
 0 <= Y283,0 <= 1
 0 <= Y283,1 <= 1
 0 <= Y283,2 <= 1
 0 <= Y283,3 <= 1
 0 <= Y283,4 <= 1
 0 <= Y283,5 <= 1
 0 <= Y283,6 <= 1
 0 <= Y284,0 <= 1
 0 <= Y284,1 <= 1
 0 <= Y284,2 <= 1
 0 <= Y284,3 <= 1
 0 <= Y284,4 <= 1
 0 <= Y284,5 <= 1
 0 <= Y284,6 <= 1
 0 <= Y285,0 <= 1
 0 <= Y285,1 <= 1
 0 <= Y285,2 <= 1
 0 <= Y285,3 <= 1
 0 <= Y285,4 <= 1
 0 <= Y285,5 <= 1
 0 <= Y285,6 <= 1
 0 <= Y286,0 <= 1
 0 <= Y286,1 <= 1
 0 <= Y286,2 <= 1
 0 <= Y286,3 <= 1
 0 <= Y286,4 <= 1
 0 <= Y286,5 <= 1
 0 <= Y286,6 <= 1
 0 <= Y287,0 <= 1
 0 <= Y287,1 <= 1
 0 <= Y287,2 <= 1
 0 <= Y287,3 <= 1
 0 <= Y287,4 <= 1
 0 <= Y287,5 <= 1
 0 <= Y287,6 <= 1
 0 <= Y288,0 <= 1
 0 <= Y288,1 <= 1
 0 <= Y288,2 <= 1
 0 <= Y288,3 <= 1
 0 <= Y288,4 <= 1
 0 <= Y288,5 <= 1
 0 <= Y288,6 <= 1
 0 <= Y289,0 <= 1
 0 <= Y289,1 <= 1
 0 <= Y289,2 <= 1
 0 <= Y289,3 <= 1
 0 <= Y289,4 <= 1
 0 <= Y289,5 <= 1
 0 <= Y289,6 <= 1
 0 <= Y290,0 <= 1
 0 <= Y290,1 <= 1
 0 <= Y290,2 <= 1
 0 <= Y290,3 <= 1
 0 <= Y290,4 <= 1
 0 <= Y290,5 <= 1
 0 <= Y290,6 <= 1
 0 <= Y291,0 <= 1
 0 <= Y291,1 <= 1
 0 <= Y291,2 <= 1
 0 <= Y291,3 <= 1
 0 <= Y291,4 <= 1
 0 <= Y291,5 <= 1
 0 <= Y291,6 <= 1
 0 <= Y292,0 <= 1
 0 <= Y292,1 <= 1
 0 <= Y292,2 <= 1
 0 <= Y292,3 <= 1
 0 <= Y292,4 <= 1
 0 <= Y292,5 <= 1
 0 <= Y292,6 <= 1
 0 <= Y293,0 <= 1
 0 <= Y293,1 <= 1
 0 <= Y293,2 <= 1
 0 <= Y293,3 <= 1
 0 <= Y293,4 <= 1
 0 <= Y293,5 <= 1
 0 <= Y293,6 <= 1
 0 <= Y294,0 <= 1
 0 <= Y294,1 <= 1
 0 <= Y294,2 <= 1
 0 <= Y294,3 <= 1
 0 <= Y294,4 <= 1
 0 <= Y294,5 <= 1
 0 <= Y294,6 <= 1
 0 <= Y295,0 <= 1
 0 <= Y295,1 <= 1
 0 <= Y295,2 <= 1
 0 <= Y295,3 <= 1
 0 <= Y295,4 <= 1
 0 <= Y295,5 <= 1
 0 <= Y295,6 <= 1
 0 <= Y296,0 <= 1
 0 <= Y296,1 <= 1
 0 <= Y296,2 <= 1
 0 <= Y296,3 <= 1
 0 <= Y296,4 <= 1
 0 <= Y296,5 <= 1
 0 <= Y296,6 <= 1
 0 <= Y297,0 <= 1
 0 <= Y297,1 <= 1
 0 <= Y297,2 <= 1
 0 <= Y297,3 <= 1
 0 <= Y297,4 <= 1
 0 <= Y297,5 <= 1
 0 <= Y297,6 <= 1
 0 <= Y298,0 <= 1
 0 <= Y298,1 <= 1
 0 <= Y298,2 <= 1
 0 <= Y298,3 <= 1
 0 <= Y298,4 <= 1
 0 <= Y298,5 <= 1
 0 <= Y298,6 <= 1
 0 <= Y299,0 <= 1
 0 <= Y299,1 <= 1
 0 <= Y299,2 <= 1
 0 <= Y299,3 <= 1
 0 <= Y299,4 <= 1
 0 <= Y299,5 <= 1
 0 <= Y299,6 <= 1
 0 <= Y300,0 <= 1
 0 <= Y300,1 <= 1
 0 <= Y300,2 <= 1
 0 <= Y300,3 <= 1
 0 <= Y300,4 <= 1
 0 <= Y300,5 <= 1
 0 <= Y300,6 <= 1
 0 <= Y301,0 <= 1
 0 <= Y301,1 <= 1
 0 <= Y301,2 <= 1
 0 <= Y301,3 <= 1
 0 <= Y301,4 <= 1
 0 <= Y301,5 <= 1
 0 <= Y301,6 <= 1
 0 <= Y302,0 <= 1
 0 <= Y302,1 <= 1
 0 <= Y302,2 <= 1
 0 <= Y302,3 <= 1
 0 <= Y302,4 <= 1
 0 <= Y302,5 <= 1
 0 <= Y302,6 <= 1
 0 <= Y303,0 <= 1
 0 <= Y303,1 <= 1
 0 <= Y303,2 <= 1
 0 <= Y303,3 <= 1
 0 <= Y303,4 <= 1
 0 <= Y303,5 <= 1
 0 <= Y303,6 <= 1
 0 <= Y304,0 <= 1
 0 <= Y304,1 <= 1
 0 <= Y304,2 <= 1
 0 <= Y304,3 <= 1
 0 <= Y304,4 <= 1
 0 <= Y304,5 <= 1
 0 <= Y304,6 <= 1
 0 <= Y305,0 <= 1
 0 <= Y305,1 <= 1
 0 <= Y305,2 <= 1
 0 <= Y305,3 <= 1
 0 <= Y305,4 <= 1
 0 <= Y305,5 <= 1
 0 <= Y305,6 <= 1
 0 <= Y306,0 <= 1
 0 <= Y306,1 <= 1
 0 <= Y306,2 <= 1
 0 <= Y306,3 <= 1
 0 <= Y306,4 <= 1
 0 <= Y306,5 <= 1
 0 <= Y306,6 <= 1
 0 <= Y307,0 <= 1
 0 <= Y307,1 <= 1
 0 <= Y307,2 <= 1
 0 <= Y307,3 <= 1
 0 <= Y307,4 <= 1
 0 <= Y307,5 <= 1
 0 <= Y307,6 <= 1
 0 <= Y308,0 <= 1
 0 <= Y308,1 <= 1
 0 <= Y308,2 <= 1
 0 <= Y308,3 <= 1
 0 <= Y308,4 <= 1
 0 <= Y308,5 <= 1
 0 <= Y308,6 <= 1
 0 <= Y309,0 <= 1
 0 <= Y309,1 <= 1
 0 <= Y309,2 <= 1
 0 <= Y309,3 <= 1
 0 <= Y309,4 <= 1
 0 <= Y309,5 <= 1
 0 <= Y309,6 <= 1
 0 <= Y310,0 <= 1
 0 <= Y310,1 <= 1
 0 <= Y310,2 <= 1
 0 <= Y310,3 <= 1
 0 <= Y310,4 <= 1
 0 <= Y310,5 <= 1
 0 <= Y310,6 <= 1
 0 <= Y311,0 <= 1
 0 <= Y311,1 <= 1
 0 <= Y311,2 <= 1
 0 <= Y311,3 <= 1
 0 <= Y311,4 <= 1
 0 <= Y311,5 <= 1
 0 <= Y311,6 <= 1
 0 <= Y312,0 <= 1
 0 <= Y312,1 <= 1
 0 <= Y312,2 <= 1
 0 <= Y312,3 <= 1
 0 <= Y312,4 <= 1
 0 <= Y312,5 <= 1
 0 <= Y312,6 <= 1
 0 <= Y313,0 <= 1
 0 <= Y313,1 <= 1
 0 <= Y313,2 <= 1
 0 <= Y313,3 <= 1
 0 <= Y313,4 <= 1
 0 <= Y313,5 <= 1
 0 <= Y313,6 <= 1
 0 <= Y314,0 <= 1
 0 <= Y314,1 <= 1
 0 <= Y314,2 <= 1
 0 <= Y314,3 <= 1
 0 <= Y314,4 <= 1
 0 <= Y314,5 <= 1
 0 <= Y314,6 <= 1
 0 <= Y315,0 <= 1
 0 <= Y315,1 <= 1
 0 <= Y315,2 <= 1
 0 <= Y315,3 <= 1
 0 <= Y315,4 <= 1
 0 <= Y315,5 <= 1
 0 <= Y315,6 <= 1
 0 <= Y316,0 <= 1
 0 <= Y316,1 <= 1
 0 <= Y316,2 <= 1
 0 <= Y316,3 <= 1
 0 <= Y316,4 <= 1
 0 <= Y316,5 <= 1
 0 <= Y316,6 <= 1
 0 <= Y317,0 <= 1
 0 <= Y317,1 <= 1
 0 <= Y317,2 <= 1
 0 <= Y317,3 <= 1
 0 <= Y317,4 <= 1
 0 <= Y317,5 <= 1
 0 <= Y317,6 <= 1
 0 <= Y318,0 <= 1
 0 <= Y318,1 <= 1
 0 <= Y318,2 <= 1
 0 <= Y318,3 <= 1
 0 <= Y318,4 <= 1
 0 <= Y318,5 <= 1
 0 <= Y318,6 <= 1
 0 <= Y319,0 <= 1
 0 <= Y319,1 <= 1
 0 <= Y319,2 <= 1
 0 <= Y319,3 <= 1
 0 <= Y319,4 <= 1
 0 <= Y319,5 <= 1
 0 <= Y319,6 <= 1
 0 <= Y320,0 <= 1
 0 <= Y320,1 <= 1
 0 <= Y320,2 <= 1
 0 <= Y320,3 <= 1
 0 <= Y320,4 <= 1
 0 <= Y320,5 <= 1
 0 <= Y320,6 <= 1
 0 <= Y321,0 <= 1
 0 <= Y321,1 <= 1
 0 <= Y321,2 <= 1
 0 <= Y321,3 <= 1
 0 <= Y321,4 <= 1
 0 <= Y321,5 <= 1
 0 <= Y321,6 <= 1
 0 <= Y322,0 <= 1
 0 <= Y322,1 <= 1
 0 <= Y322,2 <= 1
 0 <= Y322,3 <= 1
 0 <= Y322,4 <= 1
 0 <= Y322,5 <= 1
 0 <= Y322,6 <= 1
 0 <= Y323,0 <= 1
 0 <= Y323,1 <= 1
 0 <= Y323,2 <= 1
 0 <= Y323,3 <= 1
 0 <= Y323,4 <= 1
 0 <= Y323,5 <= 1
 0 <= Y323,6 <= 1
 0 <= Y324,0 <= 1
 0 <= Y324,1 <= 1
 0 <= Y324,2 <= 1
 0 <= Y324,3 <= 1
 0 <= Y324,4 <= 1
 0 <= Y324,5 <= 1
 0 <= Y324,6 <= 1
 0 <= Y325,0 <= 1
 0 <= Y325,1 <= 1
 0 <= Y325,2 <= 1
 0 <= Y325,3 <= 1
 0 <= Y325,4 <= 1
 0 <= Y325,5 <= 1
 0 <= Y325,6 <= 1
 0 <= Y326,0 <= 1
 0 <= Y326,1 <= 1
 0 <= Y326,2 <= 1
 0 <= Y326,3 <= 1
 0 <= Y326,4 <= 1
 0 <= Y326,5 <= 1
 0 <= Y326,6 <= 1
 0 <= Y327,0 <= 1
 0 <= Y327,1 <= 1
 0 <= Y327,2 <= 1
 0 <= Y327,3 <= 1
 0 <= Y327,4 <= 1
 0 <= Y327,5 <= 1
 0 <= Y327,6 <= 1
 0 <= Y328,0 <= 1
 0 <= Y328,1 <= 1
 0 <= Y328,2 <= 1
 0 <= Y328,3 <= 1
 0 <= Y328,4 <= 1
 0 <= Y328,5 <= 1
 0 <= Y328,6 <= 1
 0 <= Y329,0 <= 1
 0 <= Y329,1 <= 1
 0 <= Y329,2 <= 1
 0 <= Y329,3 <= 1
 0 <= Y329,4 <= 1
 0 <= Y329,5 <= 1
 0 <= Y329,6 <= 1
 0 <= Y330,0 <= 1
 0 <= Y330,1 <= 1
 0 <= Y330,2 <= 1
 0 <= Y330,3 <= 1
 0 <= Y330,4 <= 1
 0 <= Y330,5 <= 1
 0 <= Y330,6 <= 1
 0 <= Y331,0 <= 1
 0 <= Y331,1 <= 1
 0 <= Y331,2 <= 1
 0 <= Y331,3 <= 1
 0 <= Y331,4 <= 1
 0 <= Y331,5 <= 1
 0 <= Y331,6 <= 1
 0 <= Y332,0 <= 1
 0 <= Y332,1 <= 1
 0 <= Y332,2 <= 1
 0 <= Y332,3 <= 1
 0 <= Y332,4 <= 1
 0 <= Y332,5 <= 1
 0 <= Y332,6 <= 1
 0 <= Y333,0 <= 1
 0 <= Y333,1 <= 1
 0 <= Y333,2 <= 1
 0 <= Y333,3 <= 1
 0 <= Y333,4 <= 1
 0 <= Y333,5 <= 1
 0 <= Y333,6 <= 1
 0 <= Y334,0 <= 1
 0 <= Y334,1 <= 1
 0 <= Y334,2 <= 1
 0 <= Y334,3 <= 1
 0 <= Y334,4 <= 1
 0 <= Y334,5 <= 1
 0 <= Y334,6 <= 1
 0 <= Y335,0 <= 1
 0 <= Y335,1 <= 1
 0 <= Y335,2 <= 1
 0 <= Y335,3 <= 1
 0 <= Y335,4 <= 1
 0 <= Y335,5 <= 1
 0 <= Y335,6 <= 1
 0 <= Y336,0 <= 1
 0 <= Y336,1 <= 1
 0 <= Y336,2 <= 1
 0 <= Y336,3 <= 1
 0 <= Y336,4 <= 1
 0 <= Y336,5 <= 1
 0 <= Y336,6 <= 1
 0 <= Y337,0 <= 1
 0 <= Y337,1 <= 1
 0 <= Y337,2 <= 1
 0 <= Y337,3 <= 1
 0 <= Y337,4 <= 1
 0 <= Y337,5 <= 1
 0 <= Y337,6 <= 1
 0 <= Y338,0 <= 1
 0 <= Y338,1 <= 1
 0 <= Y338,2 <= 1
 0 <= Y338,3 <= 1
 0 <= Y338,4 <= 1
 0 <= Y338,5 <= 1
 0 <= Y338,6 <= 1
 0 <= Y339,0 <= 1
 0 <= Y339,1 <= 1
 0 <= Y339,2 <= 1
 0 <= Y339,3 <= 1
 0 <= Y339,4 <= 1
 0 <= Y339,5 <= 1
 0 <= Y339,6 <= 1
 0 <= Y340,0 <= 1
 0 <= Y340,1 <= 1
 0 <= Y340,2 <= 1
 0 <= Y340,3 <= 1
 0 <= Y340,4 <= 1
 0 <= Y340,5 <= 1
 0 <= Y340,6 <= 1
 0 <= Y341,0 <= 1
 0 <= Y341,1 <= 1
 0 <= Y341,2 <= 1
 0 <= Y341,3 <= 1
 0 <= Y341,4 <= 1
 0 <= Y341,5 <= 1
 0 <= Y341,6 <= 1
 0 <= Y342,0 <= 1
 0 <= Y342,1 <= 1
 0 <= Y342,2 <= 1
 0 <= Y342,3 <= 1
 0 <= Y342,4 <= 1
 0 <= Y342,5 <= 1
 0 <= Y342,6 <= 1
 0 <= Y343,0 <= 1
 0 <= Y343,1 <= 1
 0 <= Y343,2 <= 1
 0 <= Y343,3 <= 1
 0 <= Y343,4 <= 1
 0 <= Y343,5 <= 1
 0 <= Y343,6 <= 1
 0 <= Y344,0 <= 1
 0 <= Y344,1 <= 1
 0 <= Y344,2 <= 1
 0 <= Y344,3 <= 1
 0 <= Y344,4 <= 1
 0 <= Y344,5 <= 1
 0 <= Y344,6 <= 1
 0 <= Y345,0 <= 1
 0 <= Y345,1 <= 1
 0 <= Y345,2 <= 1
 0 <= Y345,3 <= 1
 0 <= Y345,4 <= 1
 0 <= Y345,5 <= 1
 0 <= Y345,6 <= 1
 0 <= Y346,0 <= 1
 0 <= Y346,1 <= 1
 0 <= Y346,2 <= 1
 0 <= Y346,3 <= 1
 0 <= Y346,4 <= 1
 0 <= Y346,5 <= 1
 0 <= Y346,6 <= 1
 0 <= Y347,0 <= 1
 0 <= Y347,1 <= 1
 0 <= Y347,2 <= 1
 0 <= Y347,3 <= 1
 0 <= Y347,4 <= 1
 0 <= Y347,5 <= 1
 0 <= Y347,6 <= 1
 0 <= Y348,0 <= 1
 0 <= Y348,1 <= 1
 0 <= Y348,2 <= 1
 0 <= Y348,3 <= 1
 0 <= Y348,4 <= 1
 0 <= Y348,5 <= 1
 0 <= Y348,6 <= 1
 0 <= Y349,0 <= 1
 0 <= Y349,1 <= 1
 0 <= Y349,2 <= 1
 0 <= Y349,3 <= 1
 0 <= Y349,4 <= 1
 0 <= Y349,5 <= 1
 0 <= Y349,6 <= 1
 0 <= Y350,0 <= 1
 0 <= Y350,1 <= 1
 0 <= Y350,2 <= 1
 0 <= Y350,3 <= 1
 0 <= Y350,4 <= 1
 0 <= Y350,5 <= 1
 0 <= Y350,6 <= 1
 0 <= Y351,0 <= 1
 0 <= Y351,1 <= 1
 0 <= Y351,2 <= 1
 0 <= Y351,3 <= 1
 0 <= Y351,4 <= 1
 0 <= Y351,5 <= 1
 0 <= Y351,6 <= 1
 0 <= Y352,0 <= 1
 0 <= Y352,1 <= 1
 0 <= Y352,2 <= 1
 0 <= Y352,3 <= 1
 0 <= Y352,4 <= 1
 0 <= Y352,5 <= 1
 0 <= Y352,6 <= 1
 0 <= Y353,0 <= 1
 0 <= Y353,1 <= 1
 0 <= Y353,2 <= 1
 0 <= Y353,3 <= 1
 0 <= Y353,4 <= 1
 0 <= Y353,5 <= 1
 0 <= Y353,6 <= 1
 0 <= Y354,0 <= 1
 0 <= Y354,1 <= 1
 0 <= Y354,2 <= 1
 0 <= Y354,3 <= 1
 0 <= Y354,4 <= 1
 0 <= Y354,5 <= 1
 0 <= Y354,6 <= 1
 0 <= Y355,0 <= 1
 0 <= Y355,1 <= 1
 0 <= Y355,2 <= 1
 0 <= Y355,3 <= 1
 0 <= Y355,4 <= 1
 0 <= Y355,5 <= 1
 0 <= Y355,6 <= 1
 0 <= Y356,0 <= 1
 0 <= Y356,1 <= 1
 0 <= Y356,2 <= 1
 0 <= Y356,3 <= 1
 0 <= Y356,4 <= 1
 0 <= Y356,5 <= 1
 0 <= Y356,6 <= 1
 0 <= Y357,0 <= 1
 0 <= Y357,1 <= 1
 0 <= Y357,2 <= 1
 0 <= Y357,3 <= 1
 0 <= Y357,4 <= 1
 0 <= Y357,5 <= 1
 0 <= Y357,6 <= 1
 0 <= Y358,0 <= 1
 0 <= Y358,1 <= 1
 0 <= Y358,2 <= 1
 0 <= Y358,3 <= 1
 0 <= Y358,4 <= 1
 0 <= Y358,5 <= 1
 0 <= Y358,6 <= 1
 0 <= Y359,0 <= 1
 0 <= Y359,1 <= 1
 0 <= Y359,2 <= 1
 0 <= Y359,3 <= 1
 0 <= Y359,4 <= 1
 0 <= Y359,5 <= 1
 0 <= Y359,6 <= 1
 0 <= Y360,0 <= 1
 0 <= Y360,1 <= 1
 0 <= Y360,2 <= 1
 0 <= Y360,3 <= 1
 0 <= Y360,4 <= 1
 0 <= Y360,5 <= 1
 0 <= Y360,6 <= 1
 0 <= Y361,0 <= 1
 0 <= Y361,1 <= 1
 0 <= Y361,2 <= 1
 0 <= Y361,3 <= 1
 0 <= Y361,4 <= 1
 0 <= Y361,5 <= 1
 0 <= Y361,6 <= 1
 0 <= Y362,0 <= 1
 0 <= Y362,1 <= 1
 0 <= Y362,2 <= 1
 0 <= Y362,3 <= 1
 0 <= Y362,4 <= 1
 0 <= Y362,5 <= 1
 0 <= Y362,6 <= 1
 0 <= Y363,0 <= 1
 0 <= Y363,1 <= 1
 0 <= Y363,2 <= 1
 0 <= Y363,3 <= 1
 0 <= Y363,4 <= 1
 0 <= Y363,5 <= 1
 0 <= Y363,6 <= 1
 0 <= Y364,0 <= 1
 0 <= Y364,1 <= 1
 0 <= Y364,2 <= 1
 0 <= Y364,3 <= 1
 0 <= Y364,4 <= 1
 0 <= Y364,5 <= 1
 0 <= Y364,6 <= 1
 0 <= Y365,0 <= 1
 0 <= Y365,1 <= 1
 0 <= Y365,2 <= 1
 0 <= Y365,3 <= 1
 0 <= Y365,4 <= 1
 0 <= Y365,5 <= 1
 0 <= Y365,6 <= 1
 0 <= Y366,0 <= 1
 0 <= Y366,1 <= 1
 0 <= Y366,2 <= 1
 0 <= Y366,3 <= 1
 0 <= Y366,4 <= 1
 0 <= Y366,5 <= 1
 0 <= Y366,6 <= 1
 0 <= Y367,0 <= 1
 0 <= Y367,1 <= 1
 0 <= Y367,2 <= 1
 0 <= Y367,3 <= 1
 0 <= Y367,4 <= 1
 0 <= Y367,5 <= 1
 0 <= Y367,6 <= 1
 0 <= Y368,0 <= 1
 0 <= Y368,1 <= 1
 0 <= Y368,2 <= 1
 0 <= Y368,3 <= 1
 0 <= Y368,4 <= 1
 0 <= Y368,5 <= 1
 0 <= Y368,6 <= 1
 0 <= Y369,0 <= 1
 0 <= Y369,1 <= 1
 0 <= Y369,2 <= 1
 0 <= Y369,3 <= 1
 0 <= Y369,4 <= 1
 0 <= Y369,5 <= 1
 0 <= Y369,6 <= 1
 0 <= Y370,0 <= 1
 0 <= Y370,1 <= 1
 0 <= Y370,2 <= 1
 0 <= Y370,3 <= 1
 0 <= Y370,4 <= 1
 0 <= Y370,5 <= 1
 0 <= Y370,6 <= 1
 0 <= Y371,0 <= 1
 0 <= Y371,1 <= 1
 0 <= Y371,2 <= 1
 0 <= Y371,3 <= 1
 0 <= Y371,4 <= 1
 0 <= Y371,5 <= 1
 0 <= Y371,6 <= 1
 0 <= Y372,0 <= 1
 0 <= Y372,1 <= 1
 0 <= Y372,2 <= 1
 0 <= Y372,3 <= 1
 0 <= Y372,4 <= 1
 0 <= Y372,5 <= 1
 0 <= Y372,6 <= 1
 0 <= Y373,0 <= 1
 0 <= Y373,1 <= 1
 0 <= Y373,2 <= 1
 0 <= Y373,3 <= 1
 0 <= Y373,4 <= 1
 0 <= Y373,5 <= 1
 0 <= Y373,6 <= 1
 0 <= Y374,0 <= 1
 0 <= Y374,1 <= 1
 0 <= Y374,2 <= 1
 0 <= Y374,3 <= 1
 0 <= Y374,4 <= 1
 0 <= Y374,5 <= 1
 0 <= Y374,6 <= 1
 0 <= Y375,0 <= 1
 0 <= Y375,1 <= 1
 0 <= Y375,2 <= 1
 0 <= Y375,3 <= 1
 0 <= Y375,4 <= 1
 0 <= Y375,5 <= 1
 0 <= Y375,6 <= 1
 0 <= Y376,0 <= 1
 0 <= Y376,1 <= 1
 0 <= Y376,2 <= 1
 0 <= Y376,3 <= 1
 0 <= Y376,4 <= 1
 0 <= Y376,5 <= 1
 0 <= Y376,6 <= 1
 0 <= Y377,0 <= 1
 0 <= Y377,1 <= 1
 0 <= Y377,2 <= 1
 0 <= Y377,3 <= 1
 0 <= Y377,4 <= 1
 0 <= Y377,5 <= 1
 0 <= Y377,6 <= 1
 0 <= Y378,0 <= 1
 0 <= Y378,1 <= 1
 0 <= Y378,2 <= 1
 0 <= Y378,3 <= 1
 0 <= Y378,4 <= 1
 0 <= Y378,5 <= 1
 0 <= Y378,6 <= 1
 0 <= Y379,0 <= 1
 0 <= Y379,1 <= 1
 0 <= Y379,2 <= 1
 0 <= Y379,3 <= 1
 0 <= Y379,4 <= 1
 0 <= Y379,5 <= 1
 0 <= Y379,6 <= 1
 0 <= Y380,0 <= 1
 0 <= Y380,1 <= 1
 0 <= Y380,2 <= 1
 0 <= Y380,3 <= 1
 0 <= Y380,4 <= 1
 0 <= Y380,5 <= 1
 0 <= Y380,6 <= 1
 0 <= Y381,0 <= 1
 0 <= Y381,1 <= 1
 0 <= Y381,2 <= 1
 0 <= Y381,3 <= 1
 0 <= Y381,4 <= 1
 0 <= Y381,5 <= 1
 0 <= Y381,6 <= 1
 0 <= Y382,0 <= 1
 0 <= Y382,1 <= 1
 0 <= Y382,2 <= 1
 0 <= Y382,3 <= 1
 0 <= Y382,4 <= 1
 0 <= Y382,5 <= 1
 0 <= Y382,6 <= 1
 0 <= Y383,0 <= 1
 0 <= Y383,1 <= 1
 0 <= Y383,2 <= 1
 0 <= Y383,3 <= 1
 0 <= Y383,4 <= 1
 0 <= Y383,5 <= 1
 0 <= Y383,6 <= 1
 0 <= Y384,0 <= 1
 0 <= Y384,1 <= 1
 0 <= Y384,2 <= 1
 0 <= Y384,3 <= 1
 0 <= Y384,4 <= 1
 0 <= Y384,5 <= 1
 0 <= Y384,6 <= 1
 0 <= Y385,0 <= 1
 0 <= Y385,1 <= 1
 0 <= Y385,2 <= 1
 0 <= Y385,3 <= 1
 0 <= Y385,4 <= 1
 0 <= Y385,5 <= 1
 0 <= Y385,6 <= 1
 0 <= Y386,0 <= 1
 0 <= Y386,1 <= 1
 0 <= Y386,2 <= 1
 0 <= Y386,3 <= 1
 0 <= Y386,4 <= 1
 0 <= Y386,5 <= 1
 0 <= Y386,6 <= 1
 0 <= Y387,0 <= 1
 0 <= Y387,1 <= 1
 0 <= Y387,2 <= 1
 0 <= Y387,3 <= 1
 0 <= Y387,4 <= 1
 0 <= Y387,5 <= 1
 0 <= Y387,6 <= 1
 0 <= Y388,0 <= 1
 0 <= Y388,1 <= 1
 0 <= Y388,2 <= 1
 0 <= Y388,3 <= 1
 0 <= Y388,4 <= 1
 0 <= Y388,5 <= 1
 0 <= Y388,6 <= 1
 0 <= Y389,0 <= 1
 0 <= Y389,1 <= 1
 0 <= Y389,2 <= 1
 0 <= Y389,3 <= 1
 0 <= Y389,4 <= 1
 0 <= Y389,5 <= 1
 0 <= Y389,6 <= 1
 0 <= Y390,0 <= 1
 0 <= Y390,1 <= 1
 0 <= Y390,2 <= 1
 0 <= Y390,3 <= 1
 0 <= Y390,4 <= 1
 0 <= Y390,5 <= 1
 0 <= Y390,6 <= 1
 0 <= Y391,0 <= 1
 0 <= Y391,1 <= 1
 0 <= Y391,2 <= 1
 0 <= Y391,3 <= 1
 0 <= Y391,4 <= 1
 0 <= Y391,5 <= 1
 0 <= Y391,6 <= 1
 0 <= Y392,0 <= 1
 0 <= Y392,1 <= 1
 0 <= Y392,2 <= 1
 0 <= Y392,3 <= 1
 0 <= Y392,4 <= 1
 0 <= Y392,5 <= 1
 0 <= Y392,6 <= 1
 0 <= Y393,0 <= 1
 0 <= Y393,1 <= 1
 0 <= Y393,2 <= 1
 0 <= Y393,3 <= 1
 0 <= Y393,4 <= 1
 0 <= Y393,5 <= 1
 0 <= Y393,6 <= 1
 0 <= Y394,0 <= 1
 0 <= Y394,1 <= 1
 0 <= Y394,2 <= 1
 0 <= Y394,3 <= 1
 0 <= Y394,4 <= 1
 0 <= Y394,5 <= 1
 0 <= Y394,6 <= 1
 0 <= Y395,0 <= 1
 0 <= Y395,1 <= 1
 0 <= Y395,2 <= 1
 0 <= Y395,3 <= 1
 0 <= Y395,4 <= 1
 0 <= Y395,5 <= 1
 0 <= Y395,6 <= 1
 0 <= Y396,0 <= 1
 0 <= Y396,1 <= 1
 0 <= Y396,2 <= 1
 0 <= Y396,3 <= 1
 0 <= Y396,4 <= 1
 0 <= Y396,5 <= 1
 0 <= Y396,6 <= 1
 0 <= Y397,0 <= 1
 0 <= Y397,1 <= 1
 0 <= Y397,2 <= 1
 0 <= Y397,3 <= 1
 0 <= Y397,4 <= 1
 0 <= Y397,5 <= 1
 0 <= Y397,6 <= 1
 0 <= Y398,0 <= 1
 0 <= Y398,1 <= 1
 0 <= Y398,2 <= 1
 0 <= Y398,3 <= 1
 0 <= Y398,4 <= 1
 0 <= Y398,5 <= 1
 0 <= Y398,6 <= 1
 0 <= Y399,0 <= 1
 0 <= Y399,1 <= 1
 0 <= Y399,2 <= 1
 0 <= Y399,3 <= 1
 0 <= Y399,4 <= 1
 0 <= Y399,5 <= 1
 0 <= Y399,6 <= 1
 0 <= Y400,0 <= 1
 0 <= Y400,1 <= 1
 0 <= Y400,2 <= 1
 0 <= Y400,3 <= 1
 0 <= Y400,4 <= 1
 0 <= Y400,5 <= 1
 0 <= Y400,6 <= 1
 0 <= Y401,0 <= 1
 0 <= Y401,1 <= 1
 0 <= Y401,2 <= 1
 0 <= Y401,3 <= 1
 0 <= Y401,4 <= 1
 0 <= Y401,5 <= 1
 0 <= Y401,6 <= 1
 0 <= Y402,0 <= 1
 0 <= Y402,1 <= 1
 0 <= Y402,2 <= 1
 0 <= Y402,3 <= 1
 0 <= Y402,4 <= 1
 0 <= Y402,5 <= 1
 0 <= Y402,6 <= 1
 0 <= Y403,0 <= 1
 0 <= Y403,1 <= 1
 0 <= Y403,2 <= 1
 0 <= Y403,3 <= 1
 0 <= Y403,4 <= 1
 0 <= Y403,5 <= 1
 0 <= Y403,6 <= 1
 0 <= Y404,0 <= 1
 0 <= Y404,1 <= 1
 0 <= Y404,2 <= 1
 0 <= Y404,3 <= 1
 0 <= Y404,4 <= 1
 0 <= Y404,5 <= 1
 0 <= Y404,6 <= 1
 0 <= Y405,0 <= 1
 0 <= Y405,1 <= 1
 0 <= Y405,2 <= 1
 0 <= Y405,3 <= 1
 0 <= Y405,4 <= 1
 0 <= Y405,5 <= 1
 0 <= Y405,6 <= 1
 0 <= Y406,0 <= 1
 0 <= Y406,1 <= 1
 0 <= Y406,2 <= 1
 0 <= Y406,3 <= 1
 0 <= Y406,4 <= 1
 0 <= Y406,5 <= 1
 0 <= Y406,6 <= 1
 0 <= Y407,0 <= 1
 0 <= Y407,1 <= 1
 0 <= Y407,2 <= 1
 0 <= Y407,3 <= 1
 0 <= Y407,4 <= 1
 0 <= Y407,5 <= 1
 0 <= Y407,6 <= 1
 0 <= Y408,0 <= 1
 0 <= Y408,1 <= 1
 0 <= Y408,2 <= 1
 0 <= Y408,3 <= 1
 0 <= Y408,4 <= 1
 0 <= Y408,5 <= 1
 0 <= Y408,6 <= 1
 0 <= Y409,0 <= 1
 0 <= Y409,1 <= 1
 0 <= Y409,2 <= 1
 0 <= Y409,3 <= 1
 0 <= Y409,4 <= 1
 0 <= Y409,5 <= 1
 0 <= Y409,6 <= 1
 0 <= Y410,0 <= 1
 0 <= Y410,1 <= 1
 0 <= Y410,2 <= 1
 0 <= Y410,3 <= 1
 0 <= Y410,4 <= 1
 0 <= Y410,5 <= 1
 0 <= Y410,6 <= 1
 0 <= Y411,0 <= 1
 0 <= Y411,1 <= 1
 0 <= Y411,2 <= 1
 0 <= Y411,3 <= 1
 0 <= Y411,4 <= 1
 0 <= Y411,5 <= 1
 0 <= Y411,6 <= 1
 0 <= Y412,0 <= 1
 0 <= Y412,1 <= 1
 0 <= Y412,2 <= 1
 0 <= Y412,3 <= 1
 0 <= Y412,4 <= 1
 0 <= Y412,5 <= 1
 0 <= Y412,6 <= 1
 0 <= Y413,0 <= 1
 0 <= Y413,1 <= 1
 0 <= Y413,2 <= 1
 0 <= Y413,3 <= 1
 0 <= Y413,4 <= 1
 0 <= Y413,5 <= 1
 0 <= Y413,6 <= 1
 0 <= Y414,0 <= 1
 0 <= Y414,1 <= 1
 0 <= Y414,2 <= 1
 0 <= Y414,3 <= 1
 0 <= Y414,4 <= 1
 0 <= Y414,5 <= 1
 0 <= Y414,6 <= 1
 0 <= Y415,0 <= 1
 0 <= Y415,1 <= 1
 0 <= Y415,2 <= 1
 0 <= Y415,3 <= 1
 0 <= Y415,4 <= 1
 0 <= Y415,5 <= 1
 0 <= Y415,6 <= 1
 0 <= Y416,0 <= 1
 0 <= Y416,1 <= 1
 0 <= Y416,2 <= 1
 0 <= Y416,3 <= 1
 0 <= Y416,4 <= 1
 0 <= Y416,5 <= 1
 0 <= Y416,6 <= 1
 0 <= Y417,0 <= 1
 0 <= Y417,1 <= 1
 0 <= Y417,2 <= 1
 0 <= Y417,3 <= 1
 0 <= Y417,4 <= 1
 0 <= Y417,5 <= 1
 0 <= Y417,6 <= 1
 0 <= Y418,0 <= 1
 0 <= Y418,1 <= 1
 0 <= Y418,2 <= 1
 0 <= Y418,3 <= 1
 0 <= Y418,4 <= 1
 0 <= Y418,5 <= 1
 0 <= Y418,6 <= 1
 0 <= Y419,0 <= 1
 0 <= Y419,1 <= 1
 0 <= Y419,2 <= 1
 0 <= Y419,3 <= 1
 0 <= Y419,4 <= 1
 0 <= Y419,5 <= 1
 0 <= Y419,6 <= 1
 0 <= Y420,0 <= 1
 0 <= Y420,1 <= 1
 0 <= Y420,2 <= 1
 0 <= Y420,3 <= 1
 0 <= Y420,4 <= 1
 0 <= Y420,5 <= 1
 0 <= Y420,6 <= 1
 0 <= Y421,0 <= 1
 0 <= Y421,1 <= 1
 0 <= Y421,2 <= 1
 0 <= Y421,3 <= 1
 0 <= Y421,4 <= 1
 0 <= Y421,5 <= 1
 0 <= Y421,6 <= 1
 0 <= Y422,0 <= 1
 0 <= Y422,1 <= 1
 0 <= Y422,2 <= 1
 0 <= Y422,3 <= 1
 0 <= Y422,4 <= 1
 0 <= Y422,5 <= 1
 0 <= Y422,6 <= 1
 0 <= Y423,0 <= 1
 0 <= Y423,1 <= 1
 0 <= Y423,2 <= 1
 0 <= Y423,3 <= 1
 0 <= Y423,4 <= 1
 0 <= Y423,5 <= 1
 0 <= Y423,6 <= 1
 0 <= Y424,0 <= 1
 0 <= Y424,1 <= 1
 0 <= Y424,2 <= 1
 0 <= Y424,3 <= 1
 0 <= Y424,4 <= 1
 0 <= Y424,5 <= 1
 0 <= Y424,6 <= 1
 0 <= Y425,0 <= 1
 0 <= Y425,1 <= 1
 0 <= Y425,2 <= 1
 0 <= Y425,3 <= 1
 0 <= Y425,4 <= 1
 0 <= Y425,5 <= 1
 0 <= Y425,6 <= 1
 0 <= Y426,0 <= 1
 0 <= Y426,1 <= 1
 0 <= Y426,2 <= 1
 0 <= Y426,3 <= 1
 0 <= Y426,4 <= 1
 0 <= Y426,5 <= 1
 0 <= Y426,6 <= 1
 0 <= Y427,0 <= 1
 0 <= Y427,1 <= 1
 0 <= Y427,2 <= 1
 0 <= Y427,3 <= 1
 0 <= Y427,4 <= 1
 0 <= Y427,5 <= 1
 0 <= Y427,6 <= 1
 0 <= Y428,0 <= 1
 0 <= Y428,1 <= 1
 0 <= Y428,2 <= 1
 0 <= Y428,3 <= 1
 0 <= Y428,4 <= 1
 0 <= Y428,5 <= 1
 0 <= Y428,6 <= 1
 0 <= Y429,0 <= 1
 0 <= Y429,1 <= 1
 0 <= Y429,2 <= 1
 0 <= Y429,3 <= 1
 0 <= Y429,4 <= 1
 0 <= Y429,5 <= 1
 0 <= Y429,6 <= 1
 0 <= Y430,0 <= 1
 0 <= Y430,1 <= 1
 0 <= Y430,2 <= 1
 0 <= Y430,3 <= 1
 0 <= Y430,4 <= 1
 0 <= Y430,5 <= 1
 0 <= Y430,6 <= 1
 0 <= Y431,0 <= 1
 0 <= Y431,1 <= 1
 0 <= Y431,2 <= 1
 0 <= Y431,3 <= 1
 0 <= Y431,4 <= 1
 0 <= Y431,5 <= 1
 0 <= Y431,6 <= 1
 0 <= Y432,0 <= 1
 0 <= Y432,1 <= 1
 0 <= Y432,2 <= 1
 0 <= Y432,3 <= 1
 0 <= Y432,4 <= 1
 0 <= Y432,5 <= 1
 0 <= Y432,6 <= 1
 0 <= Y433,0 <= 1
 0 <= Y433,1 <= 1
 0 <= Y433,2 <= 1
 0 <= Y433,3 <= 1
 0 <= Y433,4 <= 1
 0 <= Y433,5 <= 1
 0 <= Y433,6 <= 1
 0 <= Y434,0 <= 1
 0 <= Y434,1 <= 1
 0 <= Y434,2 <= 1
 0 <= Y434,3 <= 1
 0 <= Y434,4 <= 1
 0 <= Y434,5 <= 1
 0 <= Y434,6 <= 1
 0 <= Y435,0 <= 1
 0 <= Y435,1 <= 1
 0 <= Y435,2 <= 1
 0 <= Y435,3 <= 1
 0 <= Y435,4 <= 1
 0 <= Y435,5 <= 1
 0 <= Y435,6 <= 1
 0 <= Y436,0 <= 1
 0 <= Y436,1 <= 1
 0 <= Y436,2 <= 1
 0 <= Y436,3 <= 1
 0 <= Y436,4 <= 1
 0 <= Y436,5 <= 1
 0 <= Y436,6 <= 1
 0 <= Y437,0 <= 1
 0 <= Y437,1 <= 1
 0 <= Y437,2 <= 1
 0 <= Y437,3 <= 1
 0 <= Y437,4 <= 1
 0 <= Y437,5 <= 1
 0 <= Y437,6 <= 1
 0 <= Y438,0 <= 1
 0 <= Y438,1 <= 1
 0 <= Y438,2 <= 1
 0 <= Y438,3 <= 1
 0 <= Y438,4 <= 1
 0 <= Y438,5 <= 1
 0 <= Y438,6 <= 1
 0 <= Y439,0 <= 1
 0 <= Y439,1 <= 1
 0 <= Y439,2 <= 1
 0 <= Y439,3 <= 1
 0 <= Y439,4 <= 1
 0 <= Y439,5 <= 1
 0 <= Y439,6 <= 1
 0 <= Y440,0 <= 1
 0 <= Y440,1 <= 1
 0 <= Y440,2 <= 1
 0 <= Y440,3 <= 1
 0 <= Y440,4 <= 1
 0 <= Y440,5 <= 1
 0 <= Y440,6 <= 1
 0 <= Y441,0 <= 1
 0 <= Y441,1 <= 1
 0 <= Y441,2 <= 1
 0 <= Y441,3 <= 1
 0 <= Y441,4 <= 1
 0 <= Y441,5 <= 1
 0 <= Y441,6 <= 1
 0 <= Y442,0 <= 1
 0 <= Y442,1 <= 1
 0 <= Y442,2 <= 1
 0 <= Y442,3 <= 1
 0 <= Y442,4 <= 1
 0 <= Y442,5 <= 1
 0 <= Y442,6 <= 1
 0 <= Y443,0 <= 1
 0 <= Y443,1 <= 1
 0 <= Y443,2 <= 1
 0 <= Y443,3 <= 1
 0 <= Y443,4 <= 1
 0 <= Y443,5 <= 1
 0 <= Y443,6 <= 1
 0 <= Y444,0 <= 1
 0 <= Y444,1 <= 1
 0 <= Y444,2 <= 1
 0 <= Y444,3 <= 1
 0 <= Y444,4 <= 1
 0 <= Y444,5 <= 1
 0 <= Y444,6 <= 1
 0 <= Y445,0 <= 1
 0 <= Y445,1 <= 1
 0 <= Y445,2 <= 1
 0 <= Y445,3 <= 1
 0 <= Y445,4 <= 1
 0 <= Y445,5 <= 1
 0 <= Y445,6 <= 1
 0 <= Y446,0 <= 1
 0 <= Y446,1 <= 1
 0 <= Y446,2 <= 1
 0 <= Y446,3 <= 1
 0 <= Y446,4 <= 1
 0 <= Y446,5 <= 1
 0 <= Y446,6 <= 1
 0 <= Y447,0 <= 1
 0 <= Y447,1 <= 1
 0 <= Y447,2 <= 1
 0 <= Y447,3 <= 1
 0 <= Y447,4 <= 1
 0 <= Y447,5 <= 1
 0 <= Y447,6 <= 1
 0 <= Y448,0 <= 1
 0 <= Y448,1 <= 1
 0 <= Y448,2 <= 1
 0 <= Y448,3 <= 1
 0 <= Y448,4 <= 1
 0 <= Y448,5 <= 1
 0 <= Y448,6 <= 1
 0 <= Y449,0 <= 1
 0 <= Y449,1 <= 1
 0 <= Y449,2 <= 1
 0 <= Y449,3 <= 1
 0 <= Y449,4 <= 1
 0 <= Y449,5 <= 1
 0 <= Y449,6 <= 1
 0 <= Y450,0 <= 1
 0 <= Y450,1 <= 1
 0 <= Y450,2 <= 1
 0 <= Y450,3 <= 1
 0 <= Y450,4 <= 1
 0 <= Y450,5 <= 1
 0 <= Y450,6 <= 1
 0 <= Y451,0 <= 1
 0 <= Y451,1 <= 1
 0 <= Y451,2 <= 1
 0 <= Y451,3 <= 1
 0 <= Y451,4 <= 1
 0 <= Y451,5 <= 1
 0 <= Y451,6 <= 1
 0 <= Y452,0 <= 1
 0 <= Y452,1 <= 1
 0 <= Y452,2 <= 1
 0 <= Y452,3 <= 1
 0 <= Y452,4 <= 1
 0 <= Y452,5 <= 1
 0 <= Y452,6 <= 1
 0 <= Y453,0 <= 1
 0 <= Y453,1 <= 1
 0 <= Y453,2 <= 1
 0 <= Y453,3 <= 1
 0 <= Y453,4 <= 1
 0 <= Y453,5 <= 1
 0 <= Y453,6 <= 1
 0 <= Y454,0 <= 1
 0 <= Y454,1 <= 1
 0 <= Y454,2 <= 1
 0 <= Y454,3 <= 1
 0 <= Y454,4 <= 1
 0 <= Y454,5 <= 1
 0 <= Y454,6 <= 1
 0 <= Y455,0 <= 1
 0 <= Y455,1 <= 1
 0 <= Y455,2 <= 1
 0 <= Y455,3 <= 1
 0 <= Y455,4 <= 1
 0 <= Y455,5 <= 1
 0 <= Y455,6 <= 1
 0 <= Y456,0 <= 1
 0 <= Y456,1 <= 1
 0 <= Y456,2 <= 1
 0 <= Y456,3 <= 1
 0 <= Y456,4 <= 1
 0 <= Y456,5 <= 1
 0 <= Y456,6 <= 1
 0 <= Y457,0 <= 1
 0 <= Y457,1 <= 1
 0 <= Y457,2 <= 1
 0 <= Y457,3 <= 1
 0 <= Y457,4 <= 1
 0 <= Y457,5 <= 1
 0 <= Y457,6 <= 1
 0 <= Y458,0 <= 1
 0 <= Y458,1 <= 1
 0 <= Y458,2 <= 1
 0 <= Y458,3 <= 1
 0 <= Y458,4 <= 1
 0 <= Y458,5 <= 1
 0 <= Y458,6 <= 1
 0 <= Y459,0 <= 1
 0 <= Y459,1 <= 1
 0 <= Y459,2 <= 1
 0 <= Y459,3 <= 1
 0 <= Y459,4 <= 1
 0 <= Y459,5 <= 1
 0 <= Y459,6 <= 1
 0 <= Y460,0 <= 1
 0 <= Y460,1 <= 1
 0 <= Y460,2 <= 1
 0 <= Y460,3 <= 1
 0 <= Y460,4 <= 1
 0 <= Y460,5 <= 1
 0 <= Y460,6 <= 1
 0 <= Y461,0 <= 1
 0 <= Y461,1 <= 1
 0 <= Y461,2 <= 1
 0 <= Y461,3 <= 1
 0 <= Y461,4 <= 1
 0 <= Y461,5 <= 1
 0 <= Y461,6 <= 1
 0 <= Y462,0 <= 1
 0 <= Y462,1 <= 1
 0 <= Y462,2 <= 1
 0 <= Y462,3 <= 1
 0 <= Y462,4 <= 1
 0 <= Y462,5 <= 1
 0 <= Y462,6 <= 1
 0 <= Y463,0 <= 1
 0 <= Y463,1 <= 1
 0 <= Y463,2 <= 1
 0 <= Y463,3 <= 1
 0 <= Y463,4 <= 1
 0 <= Y463,5 <= 1
 0 <= Y463,6 <= 1
 0 <= Y464,0 <= 1
 0 <= Y464,1 <= 1
 0 <= Y464,2 <= 1
 0 <= Y464,3 <= 1
 0 <= Y464,4 <= 1
 0 <= Y464,5 <= 1
 0 <= Y464,6 <= 1
 0 <= Y465,0 <= 1
 0 <= Y465,1 <= 1
 0 <= Y465,2 <= 1
 0 <= Y465,3 <= 1
 0 <= Y465,4 <= 1
 0 <= Y465,5 <= 1
 0 <= Y465,6 <= 1
 0 <= Y466,0 <= 1
 0 <= Y466,1 <= 1
 0 <= Y466,2 <= 1
 0 <= Y466,3 <= 1
 0 <= Y466,4 <= 1
 0 <= Y466,5 <= 1
 0 <= Y466,6 <= 1
 0 <= Y467,0 <= 1
 0 <= Y467,1 <= 1
 0 <= Y467,2 <= 1
 0 <= Y467,3 <= 1
 0 <= Y467,4 <= 1
 0 <= Y467,5 <= 1
 0 <= Y467,6 <= 1
 0 <= Y468,0 <= 1
 0 <= Y468,1 <= 1
 0 <= Y468,2 <= 1
 0 <= Y468,3 <= 1
 0 <= Y468,4 <= 1
 0 <= Y468,5 <= 1
 0 <= Y468,6 <= 1
 0 <= Y469,0 <= 1
 0 <= Y469,1 <= 1
 0 <= Y469,2 <= 1
 0 <= Y469,3 <= 1
 0 <= Y469,4 <= 1
 0 <= Y469,5 <= 1
 0 <= Y469,6 <= 1
 0 <= Y470,0 <= 1
 0 <= Y470,1 <= 1
 0 <= Y470,2 <= 1
 0 <= Y470,3 <= 1
 0 <= Y470,4 <= 1
 0 <= Y470,5 <= 1
 0 <= Y470,6 <= 1
 0 <= Y471,0 <= 1
 0 <= Y471,1 <= 1
 0 <= Y471,2 <= 1
 0 <= Y471,3 <= 1
 0 <= Y471,4 <= 1
 0 <= Y471,5 <= 1
 0 <= Y471,6 <= 1
 0 <= Y472,0 <= 1
 0 <= Y472,1 <= 1
 0 <= Y472,2 <= 1
 0 <= Y472,3 <= 1
 0 <= Y472,4 <= 1
 0 <= Y472,5 <= 1
 0 <= Y472,6 <= 1
 0 <= Y473,0 <= 1
 0 <= Y473,1 <= 1
 0 <= Y473,2 <= 1
 0 <= Y473,3 <= 1
 0 <= Y473,4 <= 1
 0 <= Y473,5 <= 1
 0 <= Y473,6 <= 1
 0 <= Y474,0 <= 1
 0 <= Y474,1 <= 1
 0 <= Y474,2 <= 1
 0 <= Y474,3 <= 1
 0 <= Y474,4 <= 1
 0 <= Y474,5 <= 1
 0 <= Y474,6 <= 1
 0 <= Y475,0 <= 1
 0 <= Y475,1 <= 1
 0 <= Y475,2 <= 1
 0 <= Y475,3 <= 1
 0 <= Y475,4 <= 1
 0 <= Y475,5 <= 1
 0 <= Y475,6 <= 1
 0 <= Y476,0 <= 1
 0 <= Y476,1 <= 1
 0 <= Y476,2 <= 1
 0 <= Y476,3 <= 1
 0 <= Y476,4 <= 1
 0 <= Y476,5 <= 1
 0 <= Y476,6 <= 1
 0 <= Y477,0 <= 1
 0 <= Y477,1 <= 1
 0 <= Y477,2 <= 1
 0 <= Y477,3 <= 1
 0 <= Y477,4 <= 1
 0 <= Y477,5 <= 1
 0 <= Y477,6 <= 1
 0 <= Y478,0 <= 1
 0 <= Y478,1 <= 1
 0 <= Y478,2 <= 1
 0 <= Y478,3 <= 1
 0 <= Y478,4 <= 1
 0 <= Y478,5 <= 1
 0 <= Y478,6 <= 1
 0 <= Y479,0 <= 1
 0 <= Y479,1 <= 1
 0 <= Y479,2 <= 1
 0 <= Y479,3 <= 1
 0 <= Y479,4 <= 1
 0 <= Y479,5 <= 1
 0 <= Y479,6 <= 1
 0 <= Y480,0 <= 1
 0 <= Y480,1 <= 1
 0 <= Y480,2 <= 1
 0 <= Y480,3 <= 1
 0 <= Y480,4 <= 1
 0 <= Y480,5 <= 1
 0 <= Y480,6 <= 1
 0 <= Y481,0 <= 1
 0 <= Y481,1 <= 1
 0 <= Y481,2 <= 1
 0 <= Y481,3 <= 1
 0 <= Y481,4 <= 1
 0 <= Y481,5 <= 1
 0 <= Y481,6 <= 1
 0 <= Y482,0 <= 1
 0 <= Y482,1 <= 1
 0 <= Y482,2 <= 1
 0 <= Y482,3 <= 1
 0 <= Y482,4 <= 1
 0 <= Y482,5 <= 1
 0 <= Y482,6 <= 1
 0 <= Y483,0 <= 1
 0 <= Y483,1 <= 1
 0 <= Y483,2 <= 1
 0 <= Y483,3 <= 1
 0 <= Y483,4 <= 1
 0 <= Y483,5 <= 1
 0 <= Y483,6 <= 1
 0 <= Y484,0 <= 1
 0 <= Y484,1 <= 1
 0 <= Y484,2 <= 1
 0 <= Y484,3 <= 1
 0 <= Y484,4 <= 1
 0 <= Y484,5 <= 1
 0 <= Y484,6 <= 1
 0 <= Y485,0 <= 1
 0 <= Y485,1 <= 1
 0 <= Y485,2 <= 1
 0 <= Y485,3 <= 1
 0 <= Y485,4 <= 1
 0 <= Y485,5 <= 1
 0 <= Y485,6 <= 1
 0 <= Y486,0 <= 1
 0 <= Y486,1 <= 1
 0 <= Y486,2 <= 1
 0 <= Y486,3 <= 1
 0 <= Y486,4 <= 1
 0 <= Y486,5 <= 1
 0 <= Y486,6 <= 1
 0 <= Y487,0 <= 1
 0 <= Y487,1 <= 1
 0 <= Y487,2 <= 1
 0 <= Y487,3 <= 1
 0 <= Y487,4 <= 1
 0 <= Y487,5 <= 1
 0 <= Y487,6 <= 1
 0 <= Y488,0 <= 1
 0 <= Y488,1 <= 1
 0 <= Y488,2 <= 1
 0 <= Y488,3 <= 1
 0 <= Y488,4 <= 1
 0 <= Y488,5 <= 1
 0 <= Y488,6 <= 1
 0 <= Y489,0 <= 1
 0 <= Y489,1 <= 1
 0 <= Y489,2 <= 1
 0 <= Y489,3 <= 1
 0 <= Y489,4 <= 1
 0 <= Y489,5 <= 1
 0 <= Y489,6 <= 1
 0 <= Y490,0 <= 1
 0 <= Y490,1 <= 1
 0 <= Y490,2 <= 1
 0 <= Y490,3 <= 1
 0 <= Y490,4 <= 1
 0 <= Y490,5 <= 1
 0 <= Y490,6 <= 1
 0 <= Y491,0 <= 1
 0 <= Y491,1 <= 1
 0 <= Y491,2 <= 1
 0 <= Y491,3 <= 1
 0 <= Y491,4 <= 1
 0 <= Y491,5 <= 1
 0 <= Y491,6 <= 1
 0 <= Y492,0 <= 1
 0 <= Y492,1 <= 1
 0 <= Y492,2 <= 1
 0 <= Y492,3 <= 1
 0 <= Y492,4 <= 1
 0 <= Y492,5 <= 1
 0 <= Y492,6 <= 1
 0 <= Y493,0 <= 1
 0 <= Y493,1 <= 1
 0 <= Y493,2 <= 1
 0 <= Y493,3 <= 1
 0 <= Y493,4 <= 1
 0 <= Y493,5 <= 1
 0 <= Y493,6 <= 1
 0 <= Y494,0 <= 1
 0 <= Y494,1 <= 1
 0 <= Y494,2 <= 1
 0 <= Y494,3 <= 1
 0 <= Y494,4 <= 1
 0 <= Y494,5 <= 1
 0 <= Y494,6 <= 1
 0 <= Y495,0 <= 1
 0 <= Y495,1 <= 1
 0 <= Y495,2 <= 1
 0 <= Y495,3 <= 1
 0 <= Y495,4 <= 1
 0 <= Y495,5 <= 1
 0 <= Y495,6 <= 1
 0 <= Y496,0 <= 1
 0 <= Y496,1 <= 1
 0 <= Y496,2 <= 1
 0 <= Y496,3 <= 1
 0 <= Y496,4 <= 1
 0 <= Y496,5 <= 1
 0 <= Y496,6 <= 1
 0 <= Y497,0 <= 1
 0 <= Y497,1 <= 1
 0 <= Y497,2 <= 1
 0 <= Y497,3 <= 1
 0 <= Y497,4 <= 1
 0 <= Y497,5 <= 1
 0 <= Y497,6 <= 1
 0 <= Y498,0 <= 1
 0 <= Y498,1 <= 1
 0 <= Y498,2 <= 1
 0 <= Y498,3 <= 1
 0 <= Y498,4 <= 1
 0 <= Y498,5 <= 1
 0 <= Y498,6 <= 1
 0 <= Y499,0 <= 1
 0 <= Y499,1 <= 1
 0 <= Y499,2 <= 1
 0 <= Y499,3 <= 1
 0 <= Y499,4 <= 1
 0 <= Y499,5 <= 1
 0 <= Y499,6 <= 1
 0 <= Y500,0 <= 1
 0 <= Y500,1 <= 1
 0 <= Y500,2 <= 1
 0 <= Y500,3 <= 1
 0 <= Y500,4 <= 1
 0 <= Y500,5 <= 1
 0 <= Y500,6 <= 1
 0 <= Y501,0 <= 1
 0 <= Y501,1 <= 1
 0 <= Y501,2 <= 1
 0 <= Y501,3 <= 1
 0 <= Y501,4 <= 1
 0 <= Y501,5 <= 1
 0 <= Y501,6 <= 1
 0 <= Y502,0 <= 1
 0 <= Y502,1 <= 1
 0 <= Y502,2 <= 1
 0 <= Y502,3 <= 1
 0 <= Y502,4 <= 1
 0 <= Y502,5 <= 1
 0 <= Y502,6 <= 1
 0 <= Y503,0 <= 1
 0 <= Y503,1 <= 1
 0 <= Y503,2 <= 1
 0 <= Y503,3 <= 1
 0 <= Y503,4 <= 1
 0 <= Y503,5 <= 1
 0 <= Y503,6 <= 1
 0 <= Y504,0 <= 1
 0 <= Y504,1 <= 1
 0 <= Y504,2 <= 1
 0 <= Y504,3 <= 1
 0 <= Y504,4 <= 1
 0 <= Y504,5 <= 1
 0 <= Y504,6 <= 1
 0 <= Y505,0 <= 1
 0 <= Y505,1 <= 1
 0 <= Y505,2 <= 1
 0 <= Y505,3 <= 1
 0 <= Y505,4 <= 1
 0 <= Y505,5 <= 1
 0 <= Y505,6 <= 1
 0 <= Y506,0 <= 1
 0 <= Y506,1 <= 1
 0 <= Y506,2 <= 1
 0 <= Y506,3 <= 1
 0 <= Y506,4 <= 1
 0 <= Y506,5 <= 1
 0 <= Y506,6 <= 1
 0 <= Y507,0 <= 1
 0 <= Y507,1 <= 1
 0 <= Y507,2 <= 1
 0 <= Y507,3 <= 1
 0 <= Y507,4 <= 1
 0 <= Y507,5 <= 1
 0 <= Y507,6 <= 1
 0 <= Y508,0 <= 1
 0 <= Y508,1 <= 1
 0 <= Y508,2 <= 1
 0 <= Y508,3 <= 1
 0 <= Y508,4 <= 1
 0 <= Y508,5 <= 1
 0 <= Y508,6 <= 1
 0 <= Y509,0 <= 1
 0 <= Y509,1 <= 1
 0 <= Y509,2 <= 1
 0 <= Y509,3 <= 1
 0 <= Y509,4 <= 1
 0 <= Y509,5 <= 1
 0 <= Y509,6 <= 1
 0 <= Y510,0 <= 1
 0 <= Y510,1 <= 1
 0 <= Y510,2 <= 1
 0 <= Y510,3 <= 1
 0 <= Y510,4 <= 1
 0 <= Y510,5 <= 1
 0 <= Y510,6 <= 1
 0 <= Y511,0 <= 1
 0 <= Y511,1 <= 1
 0 <= Y511,2 <= 1
 0 <= Y511,3 <= 1
 0 <= Y511,4 <= 1
 0 <= Y511,5 <= 1
 0 <= Y511,6 <= 1
 0 <= Y512,0 <= 1
 0 <= Y512,1 <= 1
 0 <= Y512,2 <= 1
 0 <= Y512,3 <= 1
 0 <= Y512,4 <= 1
 0 <= Y512,5 <= 1
 0 <= Y512,6 <= 1
 0 <= Y513,0 <= 1
 0 <= Y513,1 <= 1
 0 <= Y513,2 <= 1
 0 <= Y513,3 <= 1
 0 <= Y513,4 <= 1
 0 <= Y513,5 <= 1
 0 <= Y513,6 <= 1
 0 <= Y514,0 <= 1
 0 <= Y514,1 <= 1
 0 <= Y514,2 <= 1
 0 <= Y514,3 <= 1
 0 <= Y514,4 <= 1
 0 <= Y514,5 <= 1
 0 <= Y514,6 <= 1
 0 <= Y515,0 <= 1
 0 <= Y515,1 <= 1
 0 <= Y515,2 <= 1
 0 <= Y515,3 <= 1
 0 <= Y515,4 <= 1
 0 <= Y515,5 <= 1
 0 <= Y515,6 <= 1
 0 <= Y516,0 <= 1
 0 <= Y516,1 <= 1
 0 <= Y516,2 <= 1
 0 <= Y516,3 <= 1
 0 <= Y516,4 <= 1
 0 <= Y516,5 <= 1
 0 <= Y516,6 <= 1
 0 <= Y517,0 <= 1
 0 <= Y517,1 <= 1
 0 <= Y517,2 <= 1
 0 <= Y517,3 <= 1
 0 <= Y517,4 <= 1
 0 <= Y517,5 <= 1
 0 <= Y517,6 <= 1
 0 <= Y518,0 <= 1
 0 <= Y518,1 <= 1
 0 <= Y518,2 <= 1
 0 <= Y518,3 <= 1
 0 <= Y518,4 <= 1
 0 <= Y518,5 <= 1
 0 <= Y518,6 <= 1
 0 <= Y519,0 <= 1
 0 <= Y519,1 <= 1
 0 <= Y519,2 <= 1
 0 <= Y519,3 <= 1
 0 <= Y519,4 <= 1
 0 <= Y519,5 <= 1
 0 <= Y519,6 <= 1
 0 <= Y520,0 <= 1
 0 <= Y520,1 <= 1
 0 <= Y520,2 <= 1
 0 <= Y520,3 <= 1
 0 <= Y520,4 <= 1
 0 <= Y520,5 <= 1
 0 <= Y520,6 <= 1
 0 <= Y521,0 <= 1
 0 <= Y521,1 <= 1
 0 <= Y521,2 <= 1
 0 <= Y521,3 <= 1
 0 <= Y521,4 <= 1
 0 <= Y521,5 <= 1
 0 <= Y521,6 <= 1
 0 <= Y522,0 <= 1
 0 <= Y522,1 <= 1
 0 <= Y522,2 <= 1
 0 <= Y522,3 <= 1
 0 <= Y522,4 <= 1
 0 <= Y522,5 <= 1
 0 <= Y522,6 <= 1
 0 <= Y523,0 <= 1
 0 <= Y523,1 <= 1
 0 <= Y523,2 <= 1
 0 <= Y523,3 <= 1
 0 <= Y523,4 <= 1
 0 <= Y523,5 <= 1
 0 <= Y523,6 <= 1
 0 <= Y524,0 <= 1
 0 <= Y524,1 <= 1
 0 <= Y524,2 <= 1
 0 <= Y524,3 <= 1
 0 <= Y524,4 <= 1
 0 <= Y524,5 <= 1
 0 <= Y524,6 <= 1
 0 <= Y525,0 <= 1
 0 <= Y525,1 <= 1
 0 <= Y525,2 <= 1
 0 <= Y525,3 <= 1
 0 <= Y525,4 <= 1
 0 <= Y525,5 <= 1
 0 <= Y525,6 <= 1
 0 <= Y526,0 <= 1
 0 <= Y526,1 <= 1
 0 <= Y526,2 <= 1
 0 <= Y526,3 <= 1
 0 <= Y526,4 <= 1
 0 <= Y526,5 <= 1
 0 <= Y526,6 <= 1
 0 <= Y527,0 <= 1
 0 <= Y527,1 <= 1
 0 <= Y527,2 <= 1
 0 <= Y527,3 <= 1
 0 <= Y527,4 <= 1
 0 <= Y527,5 <= 1
 0 <= Y527,6 <= 1
 0 <= Y528,0 <= 1
 0 <= Y528,1 <= 1
 0 <= Y528,2 <= 1
 0 <= Y528,3 <= 1
 0 <= Y528,4 <= 1
 0 <= Y528,5 <= 1
 0 <= Y528,6 <= 1
 0 <= Y529,0 <= 1
 0 <= Y529,1 <= 1
 0 <= Y529,2 <= 1
 0 <= Y529,3 <= 1
 0 <= Y529,4 <= 1
 0 <= Y529,5 <= 1
 0 <= Y529,6 <= 1
 0 <= Y530,0 <= 1
 0 <= Y530,1 <= 1
 0 <= Y530,2 <= 1
 0 <= Y530,3 <= 1
 0 <= Y530,4 <= 1
 0 <= Y530,5 <= 1
 0 <= Y530,6 <= 1
 0 <= Y531,0 <= 1
 0 <= Y531,1 <= 1
 0 <= Y531,2 <= 1
 0 <= Y531,3 <= 1
 0 <= Y531,4 <= 1
 0 <= Y531,5 <= 1
 0 <= Y531,6 <= 1
 0 <= Y532,0 <= 1
 0 <= Y532,1 <= 1
 0 <= Y532,2 <= 1
 0 <= Y532,3 <= 1
 0 <= Y532,4 <= 1
 0 <= Y532,5 <= 1
 0 <= Y532,6 <= 1
 0 <= Y533,0 <= 1
 0 <= Y533,1 <= 1
 0 <= Y533,2 <= 1
 0 <= Y533,3 <= 1
 0 <= Y533,4 <= 1
 0 <= Y533,5 <= 1
 0 <= Y533,6 <= 1
 0 <= Y534,0 <= 1
 0 <= Y534,1 <= 1
 0 <= Y534,2 <= 1
 0 <= Y534,3 <= 1
 0 <= Y534,4 <= 1
 0 <= Y534,5 <= 1
 0 <= Y534,6 <= 1
 0 <= Y535,0 <= 1
 0 <= Y535,1 <= 1
 0 <= Y535,2 <= 1
 0 <= Y535,3 <= 1
 0 <= Y535,4 <= 1
 0 <= Y535,5 <= 1
 0 <= Y535,6 <= 1
 0 <= Y536,0 <= 1
 0 <= Y536,1 <= 1
 0 <= Y536,2 <= 1
 0 <= Y536,3 <= 1
 0 <= Y536,4 <= 1
 0 <= Y536,5 <= 1
 0 <= Y536,6 <= 1
 0 <= Y537,0 <= 1
 0 <= Y537,1 <= 1
 0 <= Y537,2 <= 1
 0 <= Y537,3 <= 1
 0 <= Y537,4 <= 1
 0 <= Y537,5 <= 1
 0 <= Y537,6 <= 1
 0 <= Y538,0 <= 1
 0 <= Y538,1 <= 1
 0 <= Y538,2 <= 1
 0 <= Y538,3 <= 1
 0 <= Y538,4 <= 1
 0 <= Y538,5 <= 1
 0 <= Y538,6 <= 1
 0 <= Y539,0 <= 1
 0 <= Y539,1 <= 1
 0 <= Y539,2 <= 1
 0 <= Y539,3 <= 1
 0 <= Y539,4 <= 1
 0 <= Y539,5 <= 1
 0 <= Y539,6 <= 1
 0 <= Y540,0 <= 1
 0 <= Y540,1 <= 1
 0 <= Y540,2 <= 1
 0 <= Y540,3 <= 1
 0 <= Y540,4 <= 1
 0 <= Y540,5 <= 1
 0 <= Y540,6 <= 1
 0 <= Y541,0 <= 1
 0 <= Y541,1 <= 1
 0 <= Y541,2 <= 1
 0 <= Y541,3 <= 1
 0 <= Y541,4 <= 1
 0 <= Y541,5 <= 1
 0 <= Y541,6 <= 1
 0 <= Y542,0 <= 1
 0 <= Y542,1 <= 1
 0 <= Y542,2 <= 1
 0 <= Y542,3 <= 1
 0 <= Y542,4 <= 1
 0 <= Y542,5 <= 1
 0 <= Y542,6 <= 1
 0 <= Y543,0 <= 1
 0 <= Y543,1 <= 1
 0 <= Y543,2 <= 1
 0 <= Y543,3 <= 1
 0 <= Y543,4 <= 1
 0 <= Y543,5 <= 1
 0 <= Y543,6 <= 1
 0 <= Y544,0 <= 1
 0 <= Y544,1 <= 1
 0 <= Y544,2 <= 1
 0 <= Y544,3 <= 1
 0 <= Y544,4 <= 1
 0 <= Y544,5 <= 1
 0 <= Y544,6 <= 1
 0 <= Y545,0 <= 1
 0 <= Y545,1 <= 1
 0 <= Y545,2 <= 1
 0 <= Y545,3 <= 1
 0 <= Y545,4 <= 1
 0 <= Y545,5 <= 1
 0 <= Y545,6 <= 1
 0 <= Y546,0 <= 1
 0 <= Y546,1 <= 1
 0 <= Y546,2 <= 1
 0 <= Y546,3 <= 1
 0 <= Y546,4 <= 1
 0 <= Y546,5 <= 1
 0 <= Y546,6 <= 1
 0 <= Y547,0 <= 1
 0 <= Y547,1 <= 1
 0 <= Y547,2 <= 1
 0 <= Y547,3 <= 1
 0 <= Y547,4 <= 1
 0 <= Y547,5 <= 1
 0 <= Y547,6 <= 1
 0 <= Y548,0 <= 1
 0 <= Y548,1 <= 1
 0 <= Y548,2 <= 1
 0 <= Y548,3 <= 1
 0 <= Y548,4 <= 1
 0 <= Y548,5 <= 1
 0 <= Y548,6 <= 1
 0 <= Y549,0 <= 1
 0 <= Y549,1 <= 1
 0 <= Y549,2 <= 1
 0 <= Y549,3 <= 1
 0 <= Y549,4 <= 1
 0 <= Y549,5 <= 1
 0 <= Y549,6 <= 1
 0 <= Y550,0 <= 1
 0 <= Y550,1 <= 1
 0 <= Y550,2 <= 1
 0 <= Y550,3 <= 1
 0 <= Y550,4 <= 1
 0 <= Y550,5 <= 1
 0 <= Y550,6 <= 1
 0 <= Y551,0 <= 1
 0 <= Y551,1 <= 1
 0 <= Y551,2 <= 1
 0 <= Y551,3 <= 1
 0 <= Y551,4 <= 1
 0 <= Y551,5 <= 1
 0 <= Y551,6 <= 1
 0 <= Y552,0 <= 1
 0 <= Y552,1 <= 1
 0 <= Y552,2 <= 1
 0 <= Y552,3 <= 1
 0 <= Y552,4 <= 1
 0 <= Y552,5 <= 1
 0 <= Y552,6 <= 1
 0 <= Y553,0 <= 1
 0 <= Y553,1 <= 1
 0 <= Y553,2 <= 1
 0 <= Y553,3 <= 1
 0 <= Y553,4 <= 1
 0 <= Y553,5 <= 1
 0 <= Y553,6 <= 1
 0 <= Y554,0 <= 1
 0 <= Y554,1 <= 1
 0 <= Y554,2 <= 1
 0 <= Y554,3 <= 1
 0 <= Y554,4 <= 1
 0 <= Y554,5 <= 1
 0 <= Y554,6 <= 1
 0 <= Y555,0 <= 1
 0 <= Y555,1 <= 1
 0 <= Y555,2 <= 1
 0 <= Y555,3 <= 1
 0 <= Y555,4 <= 1
 0 <= Y555,5 <= 1
 0 <= Y555,6 <= 1
 0 <= Y556,0 <= 1
 0 <= Y556,1 <= 1
 0 <= Y556,2 <= 1
 0 <= Y556,3 <= 1
 0 <= Y556,4 <= 1
 0 <= Y556,5 <= 1
 0 <= Y556,6 <= 1
 0 <= Y557,0 <= 1
 0 <= Y557,1 <= 1
 0 <= Y557,2 <= 1
 0 <= Y557,3 <= 1
 0 <= Y557,4 <= 1
 0 <= Y557,5 <= 1
 0 <= Y557,6 <= 1
 0 <= Y558,0 <= 1
 0 <= Y558,1 <= 1
 0 <= Y558,2 <= 1
 0 <= Y558,3 <= 1
 0 <= Y558,4 <= 1
 0 <= Y558,5 <= 1
 0 <= Y558,6 <= 1
 0 <= Y559,0 <= 1
 0 <= Y559,1 <= 1
 0 <= Y559,2 <= 1
 0 <= Y559,3 <= 1
 0 <= Y559,4 <= 1
 0 <= Y559,5 <= 1
 0 <= Y559,6 <= 1
 0 <= Y560,0 <= 1
 0 <= Y560,1 <= 1
 0 <= Y560,2 <= 1
 0 <= Y560,3 <= 1
 0 <= Y560,4 <= 1
 0 <= Y560,5 <= 1
 0 <= Y560,6 <= 1
 0 <= Y561,0 <= 1
 0 <= Y561,1 <= 1
 0 <= Y561,2 <= 1
 0 <= Y561,3 <= 1
 0 <= Y561,4 <= 1
 0 <= Y561,5 <= 1
 0 <= Y561,6 <= 1
 0 <= Y562,0 <= 1
 0 <= Y562,1 <= 1
 0 <= Y562,2 <= 1
 0 <= Y562,3 <= 1
 0 <= Y562,4 <= 1
 0 <= Y562,5 <= 1
 0 <= Y562,6 <= 1
 0 <= Y563,0 <= 1
 0 <= Y563,1 <= 1
 0 <= Y563,2 <= 1
 0 <= Y563,3 <= 1
 0 <= Y563,4 <= 1
 0 <= Y563,5 <= 1
 0 <= Y563,6 <= 1
 0 <= Y564,0 <= 1
 0 <= Y564,1 <= 1
 0 <= Y564,2 <= 1
 0 <= Y564,3 <= 1
 0 <= Y564,4 <= 1
 0 <= Y564,5 <= 1
 0 <= Y564,6 <= 1
 0 <= Y565,0 <= 1
 0 <= Y565,1 <= 1
 0 <= Y565,2 <= 1
 0 <= Y565,3 <= 1
 0 <= Y565,4 <= 1
 0 <= Y565,5 <= 1
 0 <= Y565,6 <= 1
 0 <= Y566,0 <= 1
 0 <= Y566,1 <= 1
 0 <= Y566,2 <= 1
 0 <= Y566,3 <= 1
 0 <= Y566,4 <= 1
 0 <= Y566,5 <= 1
 0 <= Y566,6 <= 1
 0 <= Y567,0 <= 1
 0 <= Y567,1 <= 1
 0 <= Y567,2 <= 1
 0 <= Y567,3 <= 1
 0 <= Y567,4 <= 1
 0 <= Y567,5 <= 1
 0 <= Y567,6 <= 1
 0 <= Y568,0 <= 1
 0 <= Y568,1 <= 1
 0 <= Y568,2 <= 1
 0 <= Y568,3 <= 1
 0 <= Y568,4 <= 1
 0 <= Y568,5 <= 1
 0 <= Y568,6 <= 1
 0 <= Y569,0 <= 1
 0 <= Y569,1 <= 1
 0 <= Y569,2 <= 1
 0 <= Y569,3 <= 1
 0 <= Y569,4 <= 1
 0 <= Y569,5 <= 1
 0 <= Y569,6 <= 1
 0 <= Y570,0 <= 1
 0 <= Y570,1 <= 1
 0 <= Y570,2 <= 1
 0 <= Y570,3 <= 1
 0 <= Y570,4 <= 1
 0 <= Y570,5 <= 1
 0 <= Y570,6 <= 1
 0 <= Y571,0 <= 1
 0 <= Y571,1 <= 1
 0 <= Y571,2 <= 1
 0 <= Y571,3 <= 1
 0 <= Y571,4 <= 1
 0 <= Y571,5 <= 1
 0 <= Y571,6 <= 1
 0 <= Y572,0 <= 1
 0 <= Y572,1 <= 1
 0 <= Y572,2 <= 1
 0 <= Y572,3 <= 1
 0 <= Y572,4 <= 1
 0 <= Y572,5 <= 1
 0 <= Y572,6 <= 1
 0 <= Y573,0 <= 1
 0 <= Y573,1 <= 1
 0 <= Y573,2 <= 1
 0 <= Y573,3 <= 1
 0 <= Y573,4 <= 1
 0 <= Y573,5 <= 1
 0 <= Y573,6 <= 1
 0 <= Y574,0 <= 1
 0 <= Y574,1 <= 1
 0 <= Y574,2 <= 1
 0 <= Y574,3 <= 1
 0 <= Y574,4 <= 1
 0 <= Y574,5 <= 1
 0 <= Y574,6 <= 1
 0 <= Y575,0 <= 1
 0 <= Y575,1 <= 1
 0 <= Y575,2 <= 1
 0 <= Y575,3 <= 1
 0 <= Y575,4 <= 1
 0 <= Y575,5 <= 1
 0 <= Y575,6 <= 1
 0 <= Y576,0 <= 1
 0 <= Y576,1 <= 1
 0 <= Y576,2 <= 1
 0 <= Y576,3 <= 1
 0 <= Y576,4 <= 1
 0 <= Y576,5 <= 1
 0 <= Y576,6 <= 1
 0 <= Y577,0 <= 1
 0 <= Y577,1 <= 1
 0 <= Y577,2 <= 1
 0 <= Y577,3 <= 1
 0 <= Y577,4 <= 1
 0 <= Y577,5 <= 1
 0 <= Y577,6 <= 1
 0 <= Y578,0 <= 1
 0 <= Y578,1 <= 1
 0 <= Y578,2 <= 1
 0 <= Y578,3 <= 1
 0 <= Y578,4 <= 1
 0 <= Y578,5 <= 1
 0 <= Y578,6 <= 1
 0 <= Y579,0 <= 1
 0 <= Y579,1 <= 1
 0 <= Y579,2 <= 1
 0 <= Y579,3 <= 1
 0 <= Y579,4 <= 1
 0 <= Y579,5 <= 1
 0 <= Y579,6 <= 1
 0 <= Y580,0 <= 1
 0 <= Y580,1 <= 1
 0 <= Y580,2 <= 1
 0 <= Y580,3 <= 1
 0 <= Y580,4 <= 1
 0 <= Y580,5 <= 1
 0 <= Y580,6 <= 1
 0 <= Y581,0 <= 1
 0 <= Y581,1 <= 1
 0 <= Y581,2 <= 1
 0 <= Y581,3 <= 1
 0 <= Y581,4 <= 1
 0 <= Y581,5 <= 1
 0 <= Y581,6 <= 1
 0 <= Y582,0 <= 1
 0 <= Y582,1 <= 1
 0 <= Y582,2 <= 1
 0 <= Y582,3 <= 1
 0 <= Y582,4 <= 1
 0 <= Y582,5 <= 1
 0 <= Y582,6 <= 1
 0 <= Y583,0 <= 1
 0 <= Y583,1 <= 1
 0 <= Y583,2 <= 1
 0 <= Y583,3 <= 1
 0 <= Y583,4 <= 1
 0 <= Y583,5 <= 1
 0 <= Y583,6 <= 1
 0 <= Y584,0 <= 1
 0 <= Y584,1 <= 1
 0 <= Y584,2 <= 1
 0 <= Y584,3 <= 1
 0 <= Y584,4 <= 1
 0 <= Y584,5 <= 1
 0 <= Y584,6 <= 1
 0 <= Y585,0 <= 1
 0 <= Y585,1 <= 1
 0 <= Y585,2 <= 1
 0 <= Y585,3 <= 1
 0 <= Y585,4 <= 1
 0 <= Y585,5 <= 1
 0 <= Y585,6 <= 1
 0 <= Y586,0 <= 1
 0 <= Y586,1 <= 1
 0 <= Y586,2 <= 1
 0 <= Y586,3 <= 1
 0 <= Y586,4 <= 1
 0 <= Y586,5 <= 1
 0 <= Y586,6 <= 1
 0 <= Y587,0 <= 1
 0 <= Y587,1 <= 1
 0 <= Y587,2 <= 1
 0 <= Y587,3 <= 1
 0 <= Y587,4 <= 1
 0 <= Y587,5 <= 1
 0 <= Y587,6 <= 1
 0 <= Y588,0 <= 1
 0 <= Y588,1 <= 1
 0 <= Y588,2 <= 1
 0 <= Y588,3 <= 1
 0 <= Y588,4 <= 1
 0 <= Y588,5 <= 1
 0 <= Y588,6 <= 1
 0 <= Y589,0 <= 1
 0 <= Y589,1 <= 1
 0 <= Y589,2 <= 1
 0 <= Y589,3 <= 1
 0 <= Y589,4 <= 1
 0 <= Y589,5 <= 1
 0 <= Y589,6 <= 1
 0 <= Y590,0 <= 1
 0 <= Y590,1 <= 1
 0 <= Y590,2 <= 1
 0 <= Y590,3 <= 1
 0 <= Y590,4 <= 1
 0 <= Y590,5 <= 1
 0 <= Y590,6 <= 1
 0 <= Y591,0 <= 1
 0 <= Y591,1 <= 1
 0 <= Y591,2 <= 1
 0 <= Y591,3 <= 1
 0 <= Y591,4 <= 1
 0 <= Y591,5 <= 1
 0 <= Y591,6 <= 1
 0 <= Y592,0 <= 1
 0 <= Y592,1 <= 1
 0 <= Y592,2 <= 1
 0 <= Y592,3 <= 1
 0 <= Y592,4 <= 1
 0 <= Y592,5 <= 1
 0 <= Y592,6 <= 1
 0 <= Y593,0 <= 1
 0 <= Y593,1 <= 1
 0 <= Y593,2 <= 1
 0 <= Y593,3 <= 1
 0 <= Y593,4 <= 1
 0 <= Y593,5 <= 1
 0 <= Y593,6 <= 1
 0 <= Y594,0 <= 1
 0 <= Y594,1 <= 1
 0 <= Y594,2 <= 1
 0 <= Y594,3 <= 1
 0 <= Y594,4 <= 1
 0 <= Y594,5 <= 1
 0 <= Y594,6 <= 1
 0 <= Y595,0 <= 1
 0 <= Y595,1 <= 1
 0 <= Y595,2 <= 1
 0 <= Y595,3 <= 1
 0 <= Y595,4 <= 1
 0 <= Y595,5 <= 1
 0 <= Y595,6 <= 1
 0 <= Y596,0 <= 1
 0 <= Y596,1 <= 1
 0 <= Y596,2 <= 1
 0 <= Y596,3 <= 1
 0 <= Y596,4 <= 1
 0 <= Y596,5 <= 1
 0 <= Y596,6 <= 1
 0 <= Y597,0 <= 1
 0 <= Y597,1 <= 1
 0 <= Y597,2 <= 1
 0 <= Y597,3 <= 1
 0 <= Y597,4 <= 1
 0 <= Y597,5 <= 1
 0 <= Y597,6 <= 1
 0 <= Y598,0 <= 1
 0 <= Y598,1 <= 1
 0 <= Y598,2 <= 1
 0 <= Y598,3 <= 1
 0 <= Y598,4 <= 1
 0 <= Y598,5 <= 1
 0 <= Y598,6 <= 1
 0 <= Y599,0 <= 1
 0 <= Y599,1 <= 1
 0 <= Y599,2 <= 1
 0 <= Y599,3 <= 1
 0 <= Y599,4 <= 1
 0 <= Y599,5 <= 1
 0 <= Y599,6 <= 1
 0 <= Y600,0 <= 1
 0 <= Y600,1 <= 1
 0 <= Y600,2 <= 1
 0 <= Y600,3 <= 1
 0 <= Y600,4 <= 1
 0 <= Y600,5 <= 1
 0 <= Y600,6 <= 1
 0 <= Y601,0 <= 1
 0 <= Y601,1 <= 1
 0 <= Y601,2 <= 1
 0 <= Y601,3 <= 1
 0 <= Y601,4 <= 1
 0 <= Y601,5 <= 1
 0 <= Y601,6 <= 1
 0 <= Y602,0 <= 1
 0 <= Y602,1 <= 1
 0 <= Y602,2 <= 1
 0 <= Y602,3 <= 1
 0 <= Y602,4 <= 1
 0 <= Y602,5 <= 1
 0 <= Y602,6 <= 1
 0 <= Y603,0 <= 1
 0 <= Y603,1 <= 1
 0 <= Y603,2 <= 1
 0 <= Y603,3 <= 1
 0 <= Y603,4 <= 1
 0 <= Y603,5 <= 1
 0 <= Y603,6 <= 1
 0 <= Y604,0 <= 1
 0 <= Y604,1 <= 1
 0 <= Y604,2 <= 1
 0 <= Y604,3 <= 1
 0 <= Y604,4 <= 1
 0 <= Y604,5 <= 1
 0 <= Y604,6 <= 1
 0 <= Y605,0 <= 1
 0 <= Y605,1 <= 1
 0 <= Y605,2 <= 1
 0 <= Y605,3 <= 1
 0 <= Y605,4 <= 1
 0 <= Y605,5 <= 1
 0 <= Y605,6 <= 1
 0 <= Y606,0 <= 1
 0 <= Y606,1 <= 1
 0 <= Y606,2 <= 1
 0 <= Y606,3 <= 1
 0 <= Y606,4 <= 1
 0 <= Y606,5 <= 1
 0 <= Y606,6 <= 1
 0 <= Y607,0 <= 1
 0 <= Y607,1 <= 1
 0 <= Y607,2 <= 1
 0 <= Y607,3 <= 1
 0 <= Y607,4 <= 1
 0 <= Y607,5 <= 1
 0 <= Y607,6 <= 1
 0 <= Y608,0 <= 1
 0 <= Y608,1 <= 1
 0 <= Y608,2 <= 1
 0 <= Y608,3 <= 1
 0 <= Y608,4 <= 1
 0 <= Y608,5 <= 1
 0 <= Y608,6 <= 1
 0 <= Y609,0 <= 1
 0 <= Y609,1 <= 1
 0 <= Y609,2 <= 1
 0 <= Y609,3 <= 1
 0 <= Y609,4 <= 1
 0 <= Y609,5 <= 1
 0 <= Y609,6 <= 1
 0 <= Y610,0 <= 1
 0 <= Y610,1 <= 1
 0 <= Y610,2 <= 1
 0 <= Y610,3 <= 1
 0 <= Y610,4 <= 1
 0 <= Y610,5 <= 1
 0 <= Y610,6 <= 1
 0 <= Y611,0 <= 1
 0 <= Y611,1 <= 1
 0 <= Y611,2 <= 1
 0 <= Y611,3 <= 1
 0 <= Y611,4 <= 1
 0 <= Y611,5 <= 1
 0 <= Y611,6 <= 1
 0 <= Y612,0 <= 1
 0 <= Y612,1 <= 1
 0 <= Y612,2 <= 1
 0 <= Y612,3 <= 1
 0 <= Y612,4 <= 1
 0 <= Y612,5 <= 1
 0 <= Y612,6 <= 1
 0 <= Y613,0 <= 1
 0 <= Y613,1 <= 1
 0 <= Y613,2 <= 1
 0 <= Y613,3 <= 1
 0 <= Y613,4 <= 1
 0 <= Y613,5 <= 1
 0 <= Y613,6 <= 1
 0 <= Y614,0 <= 1
 0 <= Y614,1 <= 1
 0 <= Y614,2 <= 1
 0 <= Y614,3 <= 1
 0 <= Y614,4 <= 1
 0 <= Y614,5 <= 1
 0 <= Y614,6 <= 1
 0 <= Y615,0 <= 1
 0 <= Y615,1 <= 1
 0 <= Y615,2 <= 1
 0 <= Y615,3 <= 1
 0 <= Y615,4 <= 1
 0 <= Y615,5 <= 1
 0 <= Y615,6 <= 1
 0 <= Y616,0 <= 1
 0 <= Y616,1 <= 1
 0 <= Y616,2 <= 1
 0 <= Y616,3 <= 1
 0 <= Y616,4 <= 1
 0 <= Y616,5 <= 1
 0 <= Y616,6 <= 1
 0 <= Y617,0 <= 1
 0 <= Y617,1 <= 1
 0 <= Y617,2 <= 1
 0 <= Y617,3 <= 1
 0 <= Y617,4 <= 1
 0 <= Y617,5 <= 1
 0 <= Y617,6 <= 1
 0 <= Y618,0 <= 1
 0 <= Y618,1 <= 1
 0 <= Y618,2 <= 1
 0 <= Y618,3 <= 1
 0 <= Y618,4 <= 1
 0 <= Y618,5 <= 1
 0 <= Y618,6 <= 1
 0 <= Y619,0 <= 1
 0 <= Y619,1 <= 1
 0 <= Y619,2 <= 1
 0 <= Y619,3 <= 1
 0 <= Y619,4 <= 1
 0 <= Y619,5 <= 1
 0 <= Y619,6 <= 1
 0 <= Y620,0 <= 1
 0 <= Y620,1 <= 1
 0 <= Y620,2 <= 1
 0 <= Y620,3 <= 1
 0 <= Y620,4 <= 1
 0 <= Y620,5 <= 1
 0 <= Y620,6 <= 1
 0 <= Y621,0 <= 1
 0 <= Y621,1 <= 1
 0 <= Y621,2 <= 1
 0 <= Y621,3 <= 1
 0 <= Y621,4 <= 1
 0 <= Y621,5 <= 1
 0 <= Y621,6 <= 1
 0 <= Y622,0 <= 1
 0 <= Y622,1 <= 1
 0 <= Y622,2 <= 1
 0 <= Y622,3 <= 1
 0 <= Y622,4 <= 1
 0 <= Y622,5 <= 1
 0 <= Y622,6 <= 1
 0 <= Y623,0 <= 1
 0 <= Y623,1 <= 1
 0 <= Y623,2 <= 1
 0 <= Y623,3 <= 1
 0 <= Y623,4 <= 1
 0 <= Y623,5 <= 1
 0 <= Y623,6 <= 1
 0 <= Y624,0 <= 1
 0 <= Y624,1 <= 1
 0 <= Y624,2 <= 1
 0 <= Y624,3 <= 1
 0 <= Y624,4 <= 1
 0 <= Y624,5 <= 1
 0 <= Y624,6 <= 1
 0 <= Y625,0 <= 1
 0 <= Y625,1 <= 1
 0 <= Y625,2 <= 1
 0 <= Y625,3 <= 1
 0 <= Y625,4 <= 1
 0 <= Y625,5 <= 1
 0 <= Y625,6 <= 1
 0 <= Y626,0 <= 1
 0 <= Y626,1 <= 1
 0 <= Y626,2 <= 1
 0 <= Y626,3 <= 1
 0 <= Y626,4 <= 1
 0 <= Y626,5 <= 1
 0 <= Y626,6 <= 1
 0 <= Y627,0 <= 1
 0 <= Y627,1 <= 1
 0 <= Y627,2 <= 1
 0 <= Y627,3 <= 1
 0 <= Y627,4 <= 1
 0 <= Y627,5 <= 1
 0 <= Y627,6 <= 1
 0 <= Y628,0 <= 1
 0 <= Y628,1 <= 1
 0 <= Y628,2 <= 1
 0 <= Y628,3 <= 1
 0 <= Y628,4 <= 1
 0 <= Y628,5 <= 1
 0 <= Y628,6 <= 1
 0 <= Y629,0 <= 1
 0 <= Y629,1 <= 1
 0 <= Y629,2 <= 1
 0 <= Y629,3 <= 1
 0 <= Y629,4 <= 1
 0 <= Y629,5 <= 1
 0 <= Y629,6 <= 1
 0 <= Y630,0 <= 1
 0 <= Y630,1 <= 1
 0 <= Y630,2 <= 1
 0 <= Y630,3 <= 1
 0 <= Y630,4 <= 1
 0 <= Y630,5 <= 1
 0 <= Y630,6 <= 1
 0 <= Y631,0 <= 1
 0 <= Y631,1 <= 1
 0 <= Y631,2 <= 1
 0 <= Y631,3 <= 1
 0 <= Y631,4 <= 1
 0 <= Y631,5 <= 1
 0 <= Y631,6 <= 1
 0 <= Y632,0 <= 1
 0 <= Y632,1 <= 1
 0 <= Y632,2 <= 1
 0 <= Y632,3 <= 1
 0 <= Y632,4 <= 1
 0 <= Y632,5 <= 1
 0 <= Y632,6 <= 1
 0 <= Y633,0 <= 1
 0 <= Y633,1 <= 1
 0 <= Y633,2 <= 1
 0 <= Y633,3 <= 1
 0 <= Y633,4 <= 1
 0 <= Y633,5 <= 1
 0 <= Y633,6 <= 1
 0 <= Y634,0 <= 1
 0 <= Y634,1 <= 1
 0 <= Y634,2 <= 1
 0 <= Y634,3 <= 1
 0 <= Y634,4 <= 1
 0 <= Y634,5 <= 1
 0 <= Y634,6 <= 1
 0 <= Y635,0 <= 1
 0 <= Y635,1 <= 1
 0 <= Y635,2 <= 1
 0 <= Y635,3 <= 1
 0 <= Y635,4 <= 1
 0 <= Y635,5 <= 1
 0 <= Y635,6 <= 1
 0 <= Y636,0 <= 1
 0 <= Y636,1 <= 1
 0 <= Y636,2 <= 1
 0 <= Y636,3 <= 1
 0 <= Y636,4 <= 1
 0 <= Y636,5 <= 1
 0 <= Y636,6 <= 1
 0 <= Y637,0 <= 1
 0 <= Y637,1 <= 1
 0 <= Y637,2 <= 1
 0 <= Y637,3 <= 1
 0 <= Y637,4 <= 1
 0 <= Y637,5 <= 1
 0 <= Y637,6 <= 1
 0 <= Y638,0 <= 1
 0 <= Y638,1 <= 1
 0 <= Y638,2 <= 1
 0 <= Y638,3 <= 1
 0 <= Y638,4 <= 1
 0 <= Y638,5 <= 1
 0 <= Y638,6 <= 1
 0 <= Y639,0 <= 1
 0 <= Y639,1 <= 1
 0 <= Y639,2 <= 1
 0 <= Y639,3 <= 1
 0 <= Y639,4 <= 1
 0 <= Y639,5 <= 1
 0 <= Y639,6 <= 1
 0 <= Y640,0 <= 1
 0 <= Y640,1 <= 1
 0 <= Y640,2 <= 1
 0 <= Y640,3 <= 1
 0 <= Y640,4 <= 1
 0 <= Y640,5 <= 1
 0 <= Y640,6 <= 1
 0 <= Y641,0 <= 1
 0 <= Y641,1 <= 1
 0 <= Y641,2 <= 1
 0 <= Y641,3 <= 1
 0 <= Y641,4 <= 1
 0 <= Y641,5 <= 1
 0 <= Y641,6 <= 1
 0 <= Y642,0 <= 1
 0 <= Y642,1 <= 1
 0 <= Y642,2 <= 1
 0 <= Y642,3 <= 1
 0 <= Y642,4 <= 1
 0 <= Y642,5 <= 1
 0 <= Y642,6 <= 1
 0 <= Y643,0 <= 1
 0 <= Y643,1 <= 1
 0 <= Y643,2 <= 1
 0 <= Y643,3 <= 1
 0 <= Y643,4 <= 1
 0 <= Y643,5 <= 1
 0 <= Y643,6 <= 1
 0 <= Y644,0 <= 1
 0 <= Y644,1 <= 1
 0 <= Y644,2 <= 1
 0 <= Y644,3 <= 1
 0 <= Y644,4 <= 1
 0 <= Y644,5 <= 1
 0 <= Y644,6 <= 1
 0 <= Y645,0 <= 1
 0 <= Y645,1 <= 1
 0 <= Y645,2 <= 1
 0 <= Y645,3 <= 1
 0 <= Y645,4 <= 1
 0 <= Y645,5 <= 1
 0 <= Y645,6 <= 1
 0 <= Y646,0 <= 1
 0 <= Y646,1 <= 1
 0 <= Y646,2 <= 1
 0 <= Y646,3 <= 1
 0 <= Y646,4 <= 1
 0 <= Y646,5 <= 1
 0 <= Y646,6 <= 1
 0 <= Y647,0 <= 1
 0 <= Y647,1 <= 1
 0 <= Y647,2 <= 1
 0 <= Y647,3 <= 1
 0 <= Y647,4 <= 1
 0 <= Y647,5 <= 1
 0 <= Y647,6 <= 1
 0 <= Y648,0 <= 1
 0 <= Y648,1 <= 1
 0 <= Y648,2 <= 1
 0 <= Y648,3 <= 1
 0 <= Y648,4 <= 1
 0 <= Y648,5 <= 1
 0 <= Y648,6 <= 1
 0 <= Y649,0 <= 1
 0 <= Y649,1 <= 1
 0 <= Y649,2 <= 1
 0 <= Y649,3 <= 1
 0 <= Y649,4 <= 1
 0 <= Y649,5 <= 1
 0 <= Y649,6 <= 1
 0 <= Y650,0 <= 1
 0 <= Y650,1 <= 1
 0 <= Y650,2 <= 1
 0 <= Y650,3 <= 1
 0 <= Y650,4 <= 1
 0 <= Y650,5 <= 1
 0 <= Y650,6 <= 1
 0 <= Y651,0 <= 1
 0 <= Y651,1 <= 1
 0 <= Y651,2 <= 1
 0 <= Y651,3 <= 1
 0 <= Y651,4 <= 1
 0 <= Y651,5 <= 1
 0 <= Y651,6 <= 1
 0 <= Y652,0 <= 1
 0 <= Y652,1 <= 1
 0 <= Y652,2 <= 1
 0 <= Y652,3 <= 1
 0 <= Y652,4 <= 1
 0 <= Y652,5 <= 1
 0 <= Y652,6 <= 1
 0 <= Y653,0 <= 1
 0 <= Y653,1 <= 1
 0 <= Y653,2 <= 1
 0 <= Y653,3 <= 1
 0 <= Y653,4 <= 1
 0 <= Y653,5 <= 1
 0 <= Y653,6 <= 1
 0 <= Y654,0 <= 1
 0 <= Y654,1 <= 1
 0 <= Y654,2 <= 1
 0 <= Y654,3 <= 1
 0 <= Y654,4 <= 1
 0 <= Y654,5 <= 1
 0 <= Y654,6 <= 1
 0 <= Y655,0 <= 1
 0 <= Y655,1 <= 1
 0 <= Y655,2 <= 1
 0 <= Y655,3 <= 1
 0 <= Y655,4 <= 1
 0 <= Y655,5 <= 1
 0 <= Y655,6 <= 1
 0 <= Y656,0 <= 1
 0 <= Y656,1 <= 1
 0 <= Y656,2 <= 1
 0 <= Y656,3 <= 1
 0 <= Y656,4 <= 1
 0 <= Y656,5 <= 1
 0 <= Y656,6 <= 1
 0 <= Y657,0 <= 1
 0 <= Y657,1 <= 1
 0 <= Y657,2 <= 1
 0 <= Y657,3 <= 1
 0 <= Y657,4 <= 1
 0 <= Y657,5 <= 1
 0 <= Y657,6 <= 1
 0 <= Y658,0 <= 1
 0 <= Y658,1 <= 1
 0 <= Y658,2 <= 1
 0 <= Y658,3 <= 1
 0 <= Y658,4 <= 1
 0 <= Y658,5 <= 1
 0 <= Y658,6 <= 1
 0 <= Y659,0 <= 1
 0 <= Y659,1 <= 1
 0 <= Y659,2 <= 1
 0 <= Y659,3 <= 1
 0 <= Y659,4 <= 1
 0 <= Y659,5 <= 1
 0 <= Y659,6 <= 1
 0 <= Y660,0 <= 1
 0 <= Y660,1 <= 1
 0 <= Y660,2 <= 1
 0 <= Y660,3 <= 1
 0 <= Y660,4 <= 1
 0 <= Y660,5 <= 1
 0 <= Y660,6 <= 1
 0 <= Y661,0 <= 1
 0 <= Y661,1 <= 1
 0 <= Y661,2 <= 1
 0 <= Y661,3 <= 1
 0 <= Y661,4 <= 1
 0 <= Y661,5 <= 1
 0 <= Y661,6 <= 1
 0 <= Y662,0 <= 1
 0 <= Y662,1 <= 1
 0 <= Y662,2 <= 1
 0 <= Y662,3 <= 1
 0 <= Y662,4 <= 1
 0 <= Y662,5 <= 1
 0 <= Y662,6 <= 1
 0 <= Y663,0 <= 1
 0 <= Y663,1 <= 1
 0 <= Y663,2 <= 1
 0 <= Y663,3 <= 1
 0 <= Y663,4 <= 1
 0 <= Y663,5 <= 1
 0 <= Y663,6 <= 1
 0 <= Y664,0 <= 1
 0 <= Y664,1 <= 1
 0 <= Y664,2 <= 1
 0 <= Y664,3 <= 1
 0 <= Y664,4 <= 1
 0 <= Y664,5 <= 1
 0 <= Y664,6 <= 1
 0 <= Y665,0 <= 1
 0 <= Y665,1 <= 1
 0 <= Y665,2 <= 1
 0 <= Y665,3 <= 1
 0 <= Y665,4 <= 1
 0 <= Y665,5 <= 1
 0 <= Y665,6 <= 1
 0 <= Y666,0 <= 1
 0 <= Y666,1 <= 1
 0 <= Y666,2 <= 1
 0 <= Y666,3 <= 1
 0 <= Y666,4 <= 1
 0 <= Y666,5 <= 1
 0 <= Y666,6 <= 1
 0 <= Y667,0 <= 1
 0 <= Y667,1 <= 1
 0 <= Y667,2 <= 1
 0 <= Y667,3 <= 1
 0 <= Y667,4 <= 1
 0 <= Y667,5 <= 1
 0 <= Y667,6 <= 1
 0 <= Y668,0 <= 1
 0 <= Y668,1 <= 1
 0 <= Y668,2 <= 1
 0 <= Y668,3 <= 1
 0 <= Y668,4 <= 1
 0 <= Y668,5 <= 1
 0 <= Y668,6 <= 1
 0 <= Y669,0 <= 1
 0 <= Y669,1 <= 1
 0 <= Y669,2 <= 1
 0 <= Y669,3 <= 1
 0 <= Y669,4 <= 1
 0 <= Y669,5 <= 1
 0 <= Y669,6 <= 1
 0 <= Y670,0 <= 1
 0 <= Y670,1 <= 1
 0 <= Y670,2 <= 1
 0 <= Y670,3 <= 1
 0 <= Y670,4 <= 1
 0 <= Y670,5 <= 1
 0 <= Y670,6 <= 1
 0 <= Y671,0 <= 1
 0 <= Y671,1 <= 1
 0 <= Y671,2 <= 1
 0 <= Y671,3 <= 1
 0 <= Y671,4 <= 1
 0 <= Y671,5 <= 1
 0 <= Y671,6 <= 1
 0 <= Y672,0 <= 1
 0 <= Y672,1 <= 1
 0 <= Y672,2 <= 1
 0 <= Y672,3 <= 1
 0 <= Y672,4 <= 1
 0 <= Y672,5 <= 1
 0 <= Y672,6 <= 1
 0 <= Y673,0 <= 1
 0 <= Y673,1 <= 1
 0 <= Y673,2 <= 1
 0 <= Y673,3 <= 1
 0 <= Y673,4 <= 1
 0 <= Y673,5 <= 1
 0 <= Y673,6 <= 1
 0 <= Y674,0 <= 1
 0 <= Y674,1 <= 1
 0 <= Y674,2 <= 1
 0 <= Y674,3 <= 1
 0 <= Y674,4 <= 1
 0 <= Y674,5 <= 1
 0 <= Y674,6 <= 1
 0 <= Y675,0 <= 1
 0 <= Y675,1 <= 1
 0 <= Y675,2 <= 1
 0 <= Y675,3 <= 1
 0 <= Y675,4 <= 1
 0 <= Y675,5 <= 1
 0 <= Y675,6 <= 1
 0 <= Y676,0 <= 1
 0 <= Y676,1 <= 1
 0 <= Y676,2 <= 1
 0 <= Y676,3 <= 1
 0 <= Y676,4 <= 1
 0 <= Y676,5 <= 1
 0 <= Y676,6 <= 1
 0 <= Y677,0 <= 1
 0 <= Y677,1 <= 1
 0 <= Y677,2 <= 1
 0 <= Y677,3 <= 1
 0 <= Y677,4 <= 1
 0 <= Y677,5 <= 1
 0 <= Y677,6 <= 1
 0 <= Y678,0 <= 1
 0 <= Y678,1 <= 1
 0 <= Y678,2 <= 1
 0 <= Y678,3 <= 1
 0 <= Y678,4 <= 1
 0 <= Y678,5 <= 1
 0 <= Y678,6 <= 1
 0 <= Y679,0 <= 1
 0 <= Y679,1 <= 1
 0 <= Y679,2 <= 1
 0 <= Y679,3 <= 1
 0 <= Y679,4 <= 1
 0 <= Y679,5 <= 1
 0 <= Y679,6 <= 1
 0 <= Y680,0 <= 1
 0 <= Y680,1 <= 1
 0 <= Y680,2 <= 1
 0 <= Y680,3 <= 1
 0 <= Y680,4 <= 1
 0 <= Y680,5 <= 1
 0 <= Y680,6 <= 1
 0 <= Y681,0 <= 1
 0 <= Y681,1 <= 1
 0 <= Y681,2 <= 1
 0 <= Y681,3 <= 1
 0 <= Y681,4 <= 1
 0 <= Y681,5 <= 1
 0 <= Y681,6 <= 1
 0 <= Y682,0 <= 1
 0 <= Y682,1 <= 1
 0 <= Y682,2 <= 1
 0 <= Y682,3 <= 1
 0 <= Y682,4 <= 1
 0 <= Y682,5 <= 1
 0 <= Y682,6 <= 1
 0 <= Y683,0 <= 1
 0 <= Y683,1 <= 1
 0 <= Y683,2 <= 1
 0 <= Y683,3 <= 1
 0 <= Y683,4 <= 1
 0 <= Y683,5 <= 1
 0 <= Y683,6 <= 1
 0 <= Y684,0 <= 1
 0 <= Y684,1 <= 1
 0 <= Y684,2 <= 1
 0 <= Y684,3 <= 1
 0 <= Y684,4 <= 1
 0 <= Y684,5 <= 1
 0 <= Y684,6 <= 1
 0 <= Y685,0 <= 1
 0 <= Y685,1 <= 1
 0 <= Y685,2 <= 1
 0 <= Y685,3 <= 1
 0 <= Y685,4 <= 1
 0 <= Y685,5 <= 1
 0 <= Y685,6 <= 1
 0 <= Y686,0 <= 1
 0 <= Y686,1 <= 1
 0 <= Y686,2 <= 1
 0 <= Y686,3 <= 1
 0 <= Y686,4 <= 1
 0 <= Y686,5 <= 1
 0 <= Y686,6 <= 1
 0 <= Y687,0 <= 1
 0 <= Y687,1 <= 1
 0 <= Y687,2 <= 1
 0 <= Y687,3 <= 1
 0 <= Y687,4 <= 1
 0 <= Y687,5 <= 1
 0 <= Y687,6 <= 1
 0 <= Y688,0 <= 1
 0 <= Y688,1 <= 1
 0 <= Y688,2 <= 1
 0 <= Y688,3 <= 1
 0 <= Y688,4 <= 1
 0 <= Y688,5 <= 1
 0 <= Y688,6 <= 1
 0 <= Y689,0 <= 1
 0 <= Y689,1 <= 1
 0 <= Y689,2 <= 1
 0 <= Y689,3 <= 1
 0 <= Y689,4 <= 1
 0 <= Y689,5 <= 1
 0 <= Y689,6 <= 1
 0 <= Y690,0 <= 1
 0 <= Y690,1 <= 1
 0 <= Y690,2 <= 1
 0 <= Y690,3 <= 1
 0 <= Y690,4 <= 1
 0 <= Y690,5 <= 1
 0 <= Y690,6 <= 1
 0 <= Y691,0 <= 1
 0 <= Y691,1 <= 1
 0 <= Y691,2 <= 1
 0 <= Y691,3 <= 1
 0 <= Y691,4 <= 1
 0 <= Y691,5 <= 1
 0 <= Y691,6 <= 1
 0 <= Y692,0 <= 1
 0 <= Y692,1 <= 1
 0 <= Y692,2 <= 1
 0 <= Y692,3 <= 1
 0 <= Y692,4 <= 1
 0 <= Y692,5 <= 1
 0 <= Y692,6 <= 1
 0 <= Y693,0 <= 1
 0 <= Y693,1 <= 1
 0 <= Y693,2 <= 1
 0 <= Y693,3 <= 1
 0 <= Y693,4 <= 1
 0 <= Y693,5 <= 1
 0 <= Y693,6 <= 1
 0 <= Y694,0 <= 1
 0 <= Y694,1 <= 1
 0 <= Y694,2 <= 1
 0 <= Y694,3 <= 1
 0 <= Y694,4 <= 1
 0 <= Y694,5 <= 1
 0 <= Y694,6 <= 1
 0 <= Y695,0 <= 1
 0 <= Y695,1 <= 1
 0 <= Y695,2 <= 1
 0 <= Y695,3 <= 1
 0 <= Y695,4 <= 1
 0 <= Y695,5 <= 1
 0 <= Y695,6 <= 1
 0 <= Y696,0 <= 1
 0 <= Y696,1 <= 1
 0 <= Y696,2 <= 1
 0 <= Y696,3 <= 1
 0 <= Y696,4 <= 1
 0 <= Y696,5 <= 1
 0 <= Y696,6 <= 1
 0 <= Y697,0 <= 1
 0 <= Y697,1 <= 1
 0 <= Y697,2 <= 1
 0 <= Y697,3 <= 1
 0 <= Y697,4 <= 1
 0 <= Y697,5 <= 1
 0 <= Y697,6 <= 1
 0 <= Y698,0 <= 1
 0 <= Y698,1 <= 1
 0 <= Y698,2 <= 1
 0 <= Y698,3 <= 1
 0 <= Y698,4 <= 1
 0 <= Y698,5 <= 1
 0 <= Y698,6 <= 1
 0 <= Y699,0 <= 1
 0 <= Y699,1 <= 1
 0 <= Y699,2 <= 1
 0 <= Y699,3 <= 1
 0 <= Y699,4 <= 1
 0 <= Y699,5 <= 1
 0 <= Y699,6 <= 1
 0 <= Y700,0 <= 1
 0 <= Y700,1 <= 1
 0 <= Y700,2 <= 1
 0 <= Y700,3 <= 1
 0 <= Y700,4 <= 1
 0 <= Y700,5 <= 1
 0 <= Y700,6 <= 1
 0 <= Y701,0 <= 1
 0 <= Y701,1 <= 1
 0 <= Y701,2 <= 1
 0 <= Y701,3 <= 1
 0 <= Y701,4 <= 1
 0 <= Y701,5 <= 1
 0 <= Y701,6 <= 1
 0 <= Y702,0 <= 1
 0 <= Y702,1 <= 1
 0 <= Y702,2 <= 1
 0 <= Y702,3 <= 1
 0 <= Y702,4 <= 1
 0 <= Y702,5 <= 1
 0 <= Y702,6 <= 1
 0 <= Y703,0 <= 1
 0 <= Y703,1 <= 1
 0 <= Y703,2 <= 1
 0 <= Y703,3 <= 1
 0 <= Y703,4 <= 1
 0 <= Y703,5 <= 1
 0 <= Y703,6 <= 1
 0 <= Y704,0 <= 1
 0 <= Y704,1 <= 1
 0 <= Y704,2 <= 1
 0 <= Y704,3 <= 1
 0 <= Y704,4 <= 1
 0 <= Y704,5 <= 1
 0 <= Y704,6 <= 1
 0 <= Y705,0 <= 1
 0 <= Y705,1 <= 1
 0 <= Y705,2 <= 1
 0 <= Y705,3 <= 1
 0 <= Y705,4 <= 1
 0 <= Y705,5 <= 1
 0 <= Y705,6 <= 1
 0 <= Y706,0 <= 1
 0 <= Y706,1 <= 1
 0 <= Y706,2 <= 1
 0 <= Y706,3 <= 1
 0 <= Y706,4 <= 1
 0 <= Y706,5 <= 1
 0 <= Y706,6 <= 1
 0 <= Y707,0 <= 1
 0 <= Y707,1 <= 1
 0 <= Y707,2 <= 1
 0 <= Y707,3 <= 1
 0 <= Y707,4 <= 1
 0 <= Y707,5 <= 1
 0 <= Y707,6 <= 1
 0 <= Y708,0 <= 1
 0 <= Y708,1 <= 1
 0 <= Y708,2 <= 1
 0 <= Y708,3 <= 1
 0 <= Y708,4 <= 1
 0 <= Y708,5 <= 1
 0 <= Y708,6 <= 1
 0 <= Y709,0 <= 1
 0 <= Y709,1 <= 1
 0 <= Y709,2 <= 1
 0 <= Y709,3 <= 1
 0 <= Y709,4 <= 1
 0 <= Y709,5 <= 1
 0 <= Y709,6 <= 1
 0 <= Y710,0 <= 1
 0 <= Y710,1 <= 1
 0 <= Y710,2 <= 1
 0 <= Y710,3 <= 1
 0 <= Y710,4 <= 1
 0 <= Y710,5 <= 1
 0 <= Y710,6 <= 1
 0 <= Y711,0 <= 1
 0 <= Y711,1 <= 1
 0 <= Y711,2 <= 1
 0 <= Y711,3 <= 1
 0 <= Y711,4 <= 1
 0 <= Y711,5 <= 1
 0 <= Y711,6 <= 1
 0 <= Y712,0 <= 1
 0 <= Y712,1 <= 1
 0 <= Y712,2 <= 1
 0 <= Y712,3 <= 1
 0 <= Y712,4 <= 1
 0 <= Y712,5 <= 1
 0 <= Y712,6 <= 1
 0 <= Y713,0 <= 1
 0 <= Y713,1 <= 1
 0 <= Y713,2 <= 1
 0 <= Y713,3 <= 1
 0 <= Y713,4 <= 1
 0 <= Y713,5 <= 1
 0 <= Y713,6 <= 1
 0 <= Y714,0 <= 1
 0 <= Y714,1 <= 1
 0 <= Y714,2 <= 1
 0 <= Y714,3 <= 1
 0 <= Y714,4 <= 1
 0 <= Y714,5 <= 1
 0 <= Y714,6 <= 1
 0 <= Y715,0 <= 1
 0 <= Y715,1 <= 1
 0 <= Y715,2 <= 1
 0 <= Y715,3 <= 1
 0 <= Y715,4 <= 1
 0 <= Y715,5 <= 1
 0 <= Y715,6 <= 1
 0 <= Y716,0 <= 1
 0 <= Y716,1 <= 1
 0 <= Y716,2 <= 1
 0 <= Y716,3 <= 1
 0 <= Y716,4 <= 1
 0 <= Y716,5 <= 1
 0 <= Y716,6 <= 1
 0 <= Y717,0 <= 1
 0 <= Y717,1 <= 1
 0 <= Y717,2 <= 1
 0 <= Y717,3 <= 1
 0 <= Y717,4 <= 1
 0 <= Y717,5 <= 1
 0 <= Y717,6 <= 1
 0 <= Y718,0 <= 1
 0 <= Y718,1 <= 1
 0 <= Y718,2 <= 1
 0 <= Y718,3 <= 1
 0 <= Y718,4 <= 1
 0 <= Y718,5 <= 1
 0 <= Y718,6 <= 1
 0 <= Y719,0 <= 1
 0 <= Y719,1 <= 1
 0 <= Y719,2 <= 1
 0 <= Y719,3 <= 1
 0 <= Y719,4 <= 1
 0 <= Y719,5 <= 1
 0 <= Y719,6 <= 1
 0 <= Y720,0 <= 1
 0 <= Y720,1 <= 1
 0 <= Y720,2 <= 1
 0 <= Y720,3 <= 1
 0 <= Y720,4 <= 1
 0 <= Y720,5 <= 1
 0 <= Y720,6 <= 1
 0 <= Y721,0 <= 1
 0 <= Y721,1 <= 1
 0 <= Y721,2 <= 1
 0 <= Y721,3 <= 1
 0 <= Y721,4 <= 1
 0 <= Y721,5 <= 1
 0 <= Y721,6 <= 1
 0 <= Y722,0 <= 1
 0 <= Y722,1 <= 1
 0 <= Y722,2 <= 1
 0 <= Y722,3 <= 1
 0 <= Y722,4 <= 1
 0 <= Y722,5 <= 1
 0 <= Y722,6 <= 1
 0 <= Y723,0 <= 1
 0 <= Y723,1 <= 1
 0 <= Y723,2 <= 1
 0 <= Y723,3 <= 1
 0 <= Y723,4 <= 1
 0 <= Y723,5 <= 1
 0 <= Y723,6 <= 1
 0 <= Y724,0 <= 1
 0 <= Y724,1 <= 1
 0 <= Y724,2 <= 1
 0 <= Y724,3 <= 1
 0 <= Y724,4 <= 1
 0 <= Y724,5 <= 1
 0 <= Y724,6 <= 1
 0 <= Y725,0 <= 1
 0 <= Y725,1 <= 1
 0 <= Y725,2 <= 1
 0 <= Y725,3 <= 1
 0 <= Y725,4 <= 1
 0 <= Y725,5 <= 1
 0 <= Y725,6 <= 1
 0 <= Y726,0 <= 1
 0 <= Y726,1 <= 1
 0 <= Y726,2 <= 1
 0 <= Y726,3 <= 1
 0 <= Y726,4 <= 1
 0 <= Y726,5 <= 1
 0 <= Y726,6 <= 1
 0 <= Y727,0 <= 1
 0 <= Y727,1 <= 1
 0 <= Y727,2 <= 1
 0 <= Y727,3 <= 1
 0 <= Y727,4 <= 1
 0 <= Y727,5 <= 1
 0 <= Y727,6 <= 1
 0 <= Y728,0 <= 1
 0 <= Y728,1 <= 1
 0 <= Y728,2 <= 1
 0 <= Y728,3 <= 1
 0 <= Y728,4 <= 1
 0 <= Y728,5 <= 1
 0 <= Y728,6 <= 1
 0 <= Y729,0 <= 1
 0 <= Y729,1 <= 1
 0 <= Y729,2 <= 1
 0 <= Y729,3 <= 1
 0 <= Y729,4 <= 1
 0 <= Y729,5 <= 1
 0 <= Y729,6 <= 1
 0 <= Y730,0 <= 1
 0 <= Y730,1 <= 1
 0 <= Y730,2 <= 1
 0 <= Y730,3 <= 1
 0 <= Y730,4 <= 1
 0 <= Y730,5 <= 1
 0 <= Y730,6 <= 1
 0 <= Y731,0 <= 1
 0 <= Y731,1 <= 1
 0 <= Y731,2 <= 1
 0 <= Y731,3 <= 1
 0 <= Y731,4 <= 1
 0 <= Y731,5 <= 1
 0 <= Y731,6 <= 1
 0 <= Y732,0 <= 1
 0 <= Y732,1 <= 1
 0 <= Y732,2 <= 1
 0 <= Y732,3 <= 1
 0 <= Y732,4 <= 1
 0 <= Y732,5 <= 1
 0 <= Y732,6 <= 1
 0 <= Y733,0 <= 1
 0 <= Y733,1 <= 1
 0 <= Y733,2 <= 1
 0 <= Y733,3 <= 1
 0 <= Y733,4 <= 1
 0 <= Y733,5 <= 1
 0 <= Y733,6 <= 1
 0 <= Y734,0 <= 1
 0 <= Y734,1 <= 1
 0 <= Y734,2 <= 1
 0 <= Y734,3 <= 1
 0 <= Y734,4 <= 1
 0 <= Y734,5 <= 1
 0 <= Y734,6 <= 1
 0 <= Y735,0 <= 1
 0 <= Y735,1 <= 1
 0 <= Y735,2 <= 1
 0 <= Y735,3 <= 1
 0 <= Y735,4 <= 1
 0 <= Y735,5 <= 1
 0 <= Y735,6 <= 1
 0 <= Y736,0 <= 1
 0 <= Y736,1 <= 1
 0 <= Y736,2 <= 1
 0 <= Y736,3 <= 1
 0 <= Y736,4 <= 1
 0 <= Y736,5 <= 1
 0 <= Y736,6 <= 1
 0 <= Y737,0 <= 1
 0 <= Y737,1 <= 1
 0 <= Y737,2 <= 1
 0 <= Y737,3 <= 1
 0 <= Y737,4 <= 1
 0 <= Y737,5 <= 1
 0 <= Y737,6 <= 1
 0 <= Y738,0 <= 1
 0 <= Y738,1 <= 1
 0 <= Y738,2 <= 1
 0 <= Y738,3 <= 1
 0 <= Y738,4 <= 1
 0 <= Y738,5 <= 1
 0 <= Y738,6 <= 1
 0 <= Y739,0 <= 1
 0 <= Y739,1 <= 1
 0 <= Y739,2 <= 1
 0 <= Y739,3 <= 1
 0 <= Y739,4 <= 1
 0 <= Y739,5 <= 1
 0 <= Y739,6 <= 1
 0 <= Y740,0 <= 1
 0 <= Y740,1 <= 1
 0 <= Y740,2 <= 1
 0 <= Y740,3 <= 1
 0 <= Y740,4 <= 1
 0 <= Y740,5 <= 1
 0 <= Y740,6 <= 1
 0 <= Y741,0 <= 1
 0 <= Y741,1 <= 1
 0 <= Y741,2 <= 1
 0 <= Y741,3 <= 1
 0 <= Y741,4 <= 1
 0 <= Y741,5 <= 1
 0 <= Y741,6 <= 1
 0 <= Y742,0 <= 1
 0 <= Y742,1 <= 1
 0 <= Y742,2 <= 1
 0 <= Y742,3 <= 1
 0 <= Y742,4 <= 1
 0 <= Y742,5 <= 1
 0 <= Y742,6 <= 1
 0 <= Y743,0 <= 1
 0 <= Y743,1 <= 1
 0 <= Y743,2 <= 1
 0 <= Y743,3 <= 1
 0 <= Y743,4 <= 1
 0 <= Y743,5 <= 1
 0 <= Y743,6 <= 1
 0 <= Y744,0 <= 1
 0 <= Y744,1 <= 1
 0 <= Y744,2 <= 1
 0 <= Y744,3 <= 1
 0 <= Y744,4 <= 1
 0 <= Y744,5 <= 1
 0 <= Y744,6 <= 1
 0 <= Y745,0 <= 1
 0 <= Y745,1 <= 1
 0 <= Y745,2 <= 1
 0 <= Y745,3 <= 1
 0 <= Y745,4 <= 1
 0 <= Y745,5 <= 1
 0 <= Y745,6 <= 1
 0 <= Y746,0 <= 1
 0 <= Y746,1 <= 1
 0 <= Y746,2 <= 1
 0 <= Y746,3 <= 1
 0 <= Y746,4 <= 1
 0 <= Y746,5 <= 1
 0 <= Y746,6 <= 1
 0 <= Y747,0 <= 1
 0 <= Y747,1 <= 1
 0 <= Y747,2 <= 1
 0 <= Y747,3 <= 1
 0 <= Y747,4 <= 1
 0 <= Y747,5 <= 1
 0 <= Y747,6 <= 1
 0 <= Y748,0 <= 1
 0 <= Y748,1 <= 1
 0 <= Y748,2 <= 1
 0 <= Y748,3 <= 1
 0 <= Y748,4 <= 1
 0 <= Y748,5 <= 1
 0 <= Y748,6 <= 1
 0 <= Y749,0 <= 1
 0 <= Y749,1 <= 1
 0 <= Y749,2 <= 1
 0 <= Y749,3 <= 1
 0 <= Y749,4 <= 1
 0 <= Y749,5 <= 1
 0 <= Y749,6 <= 1
 0 <= Y750,0 <= 1
 0 <= Y750,1 <= 1
 0 <= Y750,2 <= 1
 0 <= Y750,3 <= 1
 0 <= Y750,4 <= 1
 0 <= Y750,5 <= 1
 0 <= Y750,6 <= 1
 0 <= Y751,0 <= 1
 0 <= Y751,1 <= 1
 0 <= Y751,2 <= 1
 0 <= Y751,3 <= 1
 0 <= Y751,4 <= 1
 0 <= Y751,5 <= 1
 0 <= Y751,6 <= 1
 0 <= Y752,0 <= 1
 0 <= Y752,1 <= 1
 0 <= Y752,2 <= 1
 0 <= Y752,3 <= 1
 0 <= Y752,4 <= 1
 0 <= Y752,5 <= 1
 0 <= Y752,6 <= 1
 0 <= Y753,0 <= 1
 0 <= Y753,1 <= 1
 0 <= Y753,2 <= 1
 0 <= Y753,3 <= 1
 0 <= Y753,4 <= 1
 0 <= Y753,5 <= 1
 0 <= Y753,6 <= 1
 0 <= Y754,0 <= 1
 0 <= Y754,1 <= 1
 0 <= Y754,2 <= 1
 0 <= Y754,3 <= 1
 0 <= Y754,4 <= 1
 0 <= Y754,5 <= 1
 0 <= Y754,6 <= 1
 0 <= Y755,0 <= 1
 0 <= Y755,1 <= 1
 0 <= Y755,2 <= 1
 0 <= Y755,3 <= 1
 0 <= Y755,4 <= 1
 0 <= Y755,5 <= 1
 0 <= Y755,6 <= 1
 0 <= Y756,0 <= 1
 0 <= Y756,1 <= 1
 0 <= Y756,2 <= 1
 0 <= Y756,3 <= 1
 0 <= Y756,4 <= 1
 0 <= Y756,5 <= 1
 0 <= Y756,6 <= 1
 0 <= Y757,0 <= 1
 0 <= Y757,1 <= 1
 0 <= Y757,2 <= 1
 0 <= Y757,3 <= 1
 0 <= Y757,4 <= 1
 0 <= Y757,5 <= 1
 0 <= Y757,6 <= 1
 0 <= Y758,0 <= 1
 0 <= Y758,1 <= 1
 0 <= Y758,2 <= 1
 0 <= Y758,3 <= 1
 0 <= Y758,4 <= 1
 0 <= Y758,5 <= 1
 0 <= Y758,6 <= 1
 0 <= Y759,0 <= 1
 0 <= Y759,1 <= 1
 0 <= Y759,2 <= 1
 0 <= Y759,3 <= 1
 0 <= Y759,4 <= 1
 0 <= Y759,5 <= 1
 0 <= Y759,6 <= 1
 0 <= Y760,0 <= 1
 0 <= Y760,1 <= 1
 0 <= Y760,2 <= 1
 0 <= Y760,3 <= 1
 0 <= Y760,4 <= 1
 0 <= Y760,5 <= 1
 0 <= Y760,6 <= 1
 0 <= Y761,0 <= 1
 0 <= Y761,1 <= 1
 0 <= Y761,2 <= 1
 0 <= Y761,3 <= 1
 0 <= Y761,4 <= 1
 0 <= Y761,5 <= 1
 0 <= Y761,6 <= 1
 0 <= Y762,0 <= 1
 0 <= Y762,1 <= 1
 0 <= Y762,2 <= 1
 0 <= Y762,3 <= 1
 0 <= Y762,4 <= 1
 0 <= Y762,5 <= 1
 0 <= Y762,6 <= 1
 0 <= Y763,0 <= 1
 0 <= Y763,1 <= 1
 0 <= Y763,2 <= 1
 0 <= Y763,3 <= 1
 0 <= Y763,4 <= 1
 0 <= Y763,5 <= 1
 0 <= Y763,6 <= 1
 0 <= Y764,0 <= 1
 0 <= Y764,1 <= 1
 0 <= Y764,2 <= 1
 0 <= Y764,3 <= 1
 0 <= Y764,4 <= 1
 0 <= Y764,5 <= 1
 0 <= Y764,6 <= 1
 0 <= Y765,0 <= 1
 0 <= Y765,1 <= 1
 0 <= Y765,2 <= 1
 0 <= Y765,3 <= 1
 0 <= Y765,4 <= 1
 0 <= Y765,5 <= 1
 0 <= Y765,6 <= 1
 0 <= Y766,0 <= 1
 0 <= Y766,1 <= 1
 0 <= Y766,2 <= 1
 0 <= Y766,3 <= 1
 0 <= Y766,4 <= 1
 0 <= Y766,5 <= 1
 0 <= Y766,6 <= 1
 0 <= Y767,0 <= 1
 0 <= Y767,1 <= 1
 0 <= Y767,2 <= 1
 0 <= Y767,3 <= 1
 0 <= Y767,4 <= 1
 0 <= Y767,5 <= 1
 0 <= Y767,6 <= 1
 0 <= Y768,0 <= 1
 0 <= Y768,1 <= 1
 0 <= Y768,2 <= 1
 0 <= Y768,3 <= 1
 0 <= Y768,4 <= 1
 0 <= Y768,5 <= 1
 0 <= Y768,6 <= 1
 0 <= Y769,0 <= 1
 0 <= Y769,1 <= 1
 0 <= Y769,2 <= 1
 0 <= Y769,3 <= 1
 0 <= Y769,4 <= 1
 0 <= Y769,5 <= 1
 0 <= Y769,6 <= 1
 0 <= Y770,0 <= 1
 0 <= Y770,1 <= 1
 0 <= Y770,2 <= 1
 0 <= Y770,3 <= 1
 0 <= Y770,4 <= 1
 0 <= Y770,5 <= 1
 0 <= Y770,6 <= 1
 0 <= Y771,0 <= 1
 0 <= Y771,1 <= 1
 0 <= Y771,2 <= 1
 0 <= Y771,3 <= 1
 0 <= Y771,4 <= 1
 0 <= Y771,5 <= 1
 0 <= Y771,6 <= 1
 0 <= Y772,0 <= 1
 0 <= Y772,1 <= 1
 0 <= Y772,2 <= 1
 0 <= Y772,3 <= 1
 0 <= Y772,4 <= 1
 0 <= Y772,5 <= 1
 0 <= Y772,6 <= 1
 0 <= Y773,0 <= 1
 0 <= Y773,1 <= 1
 0 <= Y773,2 <= 1
 0 <= Y773,3 <= 1
 0 <= Y773,4 <= 1
 0 <= Y773,5 <= 1
 0 <= Y773,6 <= 1
 0 <= Y774,0 <= 1
 0 <= Y774,1 <= 1
 0 <= Y774,2 <= 1
 0 <= Y774,3 <= 1
 0 <= Y774,4 <= 1
 0 <= Y774,5 <= 1
 0 <= Y774,6 <= 1
 0 <= Y775,0 <= 1
 0 <= Y775,1 <= 1
 0 <= Y775,2 <= 1
 0 <= Y775,3 <= 1
 0 <= Y775,4 <= 1
 0 <= Y775,5 <= 1
 0 <= Y775,6 <= 1
 0 <= Y776,0 <= 1
 0 <= Y776,1 <= 1
 0 <= Y776,2 <= 1
 0 <= Y776,3 <= 1
 0 <= Y776,4 <= 1
 0 <= Y776,5 <= 1
 0 <= Y776,6 <= 1
 0 <= Y777,0 <= 1
 0 <= Y777,1 <= 1
 0 <= Y777,2 <= 1
 0 <= Y777,3 <= 1
 0 <= Y777,4 <= 1
 0 <= Y777,5 <= 1
 0 <= Y777,6 <= 1
 0 <= Y778,0 <= 1
 0 <= Y778,1 <= 1
 0 <= Y778,2 <= 1
 0 <= Y778,3 <= 1
 0 <= Y778,4 <= 1
 0 <= Y778,5 <= 1
 0 <= Y778,6 <= 1
 0 <= Y779,0 <= 1
 0 <= Y779,1 <= 1
 0 <= Y779,2 <= 1
 0 <= Y779,3 <= 1
 0 <= Y779,4 <= 1
 0 <= Y779,5 <= 1
 0 <= Y779,6 <= 1
 0 <= Y780,0 <= 1
 0 <= Y780,1 <= 1
 0 <= Y780,2 <= 1
 0 <= Y780,3 <= 1
 0 <= Y780,4 <= 1
 0 <= Y780,5 <= 1
 0 <= Y780,6 <= 1
 0 <= Y781,0 <= 1
 0 <= Y781,1 <= 1
 0 <= Y781,2 <= 1
 0 <= Y781,3 <= 1
 0 <= Y781,4 <= 1
 0 <= Y781,5 <= 1
 0 <= Y781,6 <= 1
 0 <= Y782,0 <= 1
 0 <= Y782,1 <= 1
 0 <= Y782,2 <= 1
 0 <= Y782,3 <= 1
 0 <= Y782,4 <= 1
 0 <= Y782,5 <= 1
 0 <= Y782,6 <= 1
 0 <= Y783,0 <= 1
 0 <= Y783,1 <= 1
 0 <= Y783,2 <= 1
 0 <= Y783,3 <= 1
 0 <= Y783,4 <= 1
 0 <= Y783,5 <= 1
 0 <= Y783,6 <= 1
 0 <= Y784,0 <= 1
 0 <= Y784,1 <= 1
 0 <= Y784,2 <= 1
 0 <= Y784,3 <= 1
 0 <= Y784,4 <= 1
 0 <= Y784,5 <= 1
 0 <= Y784,6 <= 1
 0 <= Y785,0 <= 1
 0 <= Y785,1 <= 1
 0 <= Y785,2 <= 1
 0 <= Y785,3 <= 1
 0 <= Y785,4 <= 1
 0 <= Y785,5 <= 1
 0 <= Y785,6 <= 1
 0 <= Y786,0 <= 1
 0 <= Y786,1 <= 1
 0 <= Y786,2 <= 1
 0 <= Y786,3 <= 1
 0 <= Y786,4 <= 1
 0 <= Y786,5 <= 1
 0 <= Y786,6 <= 1
 0 <= Y787,0 <= 1
 0 <= Y787,1 <= 1
 0 <= Y787,2 <= 1
 0 <= Y787,3 <= 1
 0 <= Y787,4 <= 1
 0 <= Y787,5 <= 1
 0 <= Y787,6 <= 1
 0 <= Y788,0 <= 1
 0 <= Y788,1 <= 1
 0 <= Y788,2 <= 1
 0 <= Y788,3 <= 1
 0 <= Y788,4 <= 1
 0 <= Y788,5 <= 1
 0 <= Y788,6 <= 1
 0 <= Y789,0 <= 1
 0 <= Y789,1 <= 1
 0 <= Y789,2 <= 1
 0 <= Y789,3 <= 1
 0 <= Y789,4 <= 1
 0 <= Y789,5 <= 1
 0 <= Y789,6 <= 1
 0 <= Y790,0 <= 1
 0 <= Y790,1 <= 1
 0 <= Y790,2 <= 1
 0 <= Y790,3 <= 1
 0 <= Y790,4 <= 1
 0 <= Y790,5 <= 1
 0 <= Y790,6 <= 1
 0 <= Y791,0 <= 1
 0 <= Y791,1 <= 1
 0 <= Y791,2 <= 1
 0 <= Y791,3 <= 1
 0 <= Y791,4 <= 1
 0 <= Y791,5 <= 1
 0 <= Y791,6 <= 1
 0 <= Y792,0 <= 1
 0 <= Y792,1 <= 1
 0 <= Y792,2 <= 1
 0 <= Y792,3 <= 1
 0 <= Y792,4 <= 1
 0 <= Y792,5 <= 1
 0 <= Y792,6 <= 1
 0 <= Y793,0 <= 1
 0 <= Y793,1 <= 1
 0 <= Y793,2 <= 1
 0 <= Y793,3 <= 1
 0 <= Y793,4 <= 1
 0 <= Y793,5 <= 1
 0 <= Y793,6 <= 1
 0 <= Y794,0 <= 1
 0 <= Y794,1 <= 1
 0 <= Y794,2 <= 1
 0 <= Y794,3 <= 1
 0 <= Y794,4 <= 1
 0 <= Y794,5 <= 1
 0 <= Y794,6 <= 1
 0 <= Y795,0 <= 1
 0 <= Y795,1 <= 1
 0 <= Y795,2 <= 1
 0 <= Y795,3 <= 1
 0 <= Y795,4 <= 1
 0 <= Y795,5 <= 1
 0 <= Y795,6 <= 1
 0 <= Y796,0 <= 1
 0 <= Y796,1 <= 1
 0 <= Y796,2 <= 1
 0 <= Y796,3 <= 1
 0 <= Y796,4 <= 1
 0 <= Y796,5 <= 1
 0 <= Y796,6 <= 1
 0 <= Y797,0 <= 1
 0 <= Y797,1 <= 1
 0 <= Y797,2 <= 1
 0 <= Y797,3 <= 1
 0 <= Y797,4 <= 1
 0 <= Y797,5 <= 1
 0 <= Y797,6 <= 1
 0 <= Y798,0 <= 1
 0 <= Y798,1 <= 1
 0 <= Y798,2 <= 1
 0 <= Y798,3 <= 1
 0 <= Y798,4 <= 1
 0 <= Y798,5 <= 1
 0 <= Y798,6 <= 1
 0 <= Y799,0 <= 1
 0 <= Y799,1 <= 1
 0 <= Y799,2 <= 1
 0 <= Y799,3 <= 1
 0 <= Y799,4 <= 1
 0 <= Y799,5 <= 1
 0 <= Y799,6 <= 1
 0 <= Y800,0 <= 1
 0 <= Y800,1 <= 1
 0 <= Y800,2 <= 1
 0 <= Y800,3 <= 1
 0 <= Y800,4 <= 1
 0 <= Y800,5 <= 1
 0 <= Y800,6 <= 1
 0 <= Y801,0 <= 1
 0 <= Y801,1 <= 1
 0 <= Y801,2 <= 1
 0 <= Y801,3 <= 1
 0 <= Y801,4 <= 1
 0 <= Y801,5 <= 1
 0 <= Y801,6 <= 1
 0 <= Y802,0 <= 1
 0 <= Y802,1 <= 1
 0 <= Y802,2 <= 1
 0 <= Y802,3 <= 1
 0 <= Y802,4 <= 1
 0 <= Y802,5 <= 1
 0 <= Y802,6 <= 1
 0 <= Y803,0 <= 1
 0 <= Y803,1 <= 1
 0 <= Y803,2 <= 1
 0 <= Y803,3 <= 1
 0 <= Y803,4 <= 1
 0 <= Y803,5 <= 1
 0 <= Y803,6 <= 1
 0 <= Y804,0 <= 1
 0 <= Y804,1 <= 1
 0 <= Y804,2 <= 1
 0 <= Y804,3 <= 1
 0 <= Y804,4 <= 1
 0 <= Y804,5 <= 1
 0 <= Y804,6 <= 1
 0 <= Y805,0 <= 1
 0 <= Y805,1 <= 1
 0 <= Y805,2 <= 1
 0 <= Y805,3 <= 1
 0 <= Y805,4 <= 1
 0 <= Y805,5 <= 1
 0 <= Y805,6 <= 1
 0 <= Y806,0 <= 1
 0 <= Y806,1 <= 1
 0 <= Y806,2 <= 1
 0 <= Y806,3 <= 1
 0 <= Y806,4 <= 1
 0 <= Y806,5 <= 1
 0 <= Y806,6 <= 1
 0 <= Y807,0 <= 1
 0 <= Y807,1 <= 1
 0 <= Y807,2 <= 1
 0 <= Y807,3 <= 1
 0 <= Y807,4 <= 1
 0 <= Y807,5 <= 1
 0 <= Y807,6 <= 1
 0 <= Y808,0 <= 1
 0 <= Y808,1 <= 1
 0 <= Y808,2 <= 1
 0 <= Y808,3 <= 1
 0 <= Y808,4 <= 1
 0 <= Y808,5 <= 1
 0 <= Y808,6 <= 1
 0 <= Y809,0 <= 1
 0 <= Y809,1 <= 1
 0 <= Y809,2 <= 1
 0 <= Y809,3 <= 1
 0 <= Y809,4 <= 1
 0 <= Y809,5 <= 1
 0 <= Y809,6 <= 1
 0 <= Y810,0 <= 1
 0 <= Y810,1 <= 1
 0 <= Y810,2 <= 1
 0 <= Y810,3 <= 1
 0 <= Y810,4 <= 1
 0 <= Y810,5 <= 1
 0 <= Y810,6 <= 1
 0 <= Y811,0 <= 1
 0 <= Y811,1 <= 1
 0 <= Y811,2 <= 1
 0 <= Y811,3 <= 1
 0 <= Y811,4 <= 1
 0 <= Y811,5 <= 1
 0 <= Y811,6 <= 1
 0 <= Y812,0 <= 1
 0 <= Y812,1 <= 1
 0 <= Y812,2 <= 1
 0 <= Y812,3 <= 1
 0 <= Y812,4 <= 1
 0 <= Y812,5 <= 1
 0 <= Y812,6 <= 1
 0 <= Y813,0 <= 1
 0 <= Y813,1 <= 1
 0 <= Y813,2 <= 1
 0 <= Y813,3 <= 1
 0 <= Y813,4 <= 1
 0 <= Y813,5 <= 1
 0 <= Y813,6 <= 1
 0 <= Y814,0 <= 1
 0 <= Y814,1 <= 1
 0 <= Y814,2 <= 1
 0 <= Y814,3 <= 1
 0 <= Y814,4 <= 1
 0 <= Y814,5 <= 1
 0 <= Y814,6 <= 1
 0 <= Y815,0 <= 1
 0 <= Y815,1 <= 1
 0 <= Y815,2 <= 1
 0 <= Y815,3 <= 1
 0 <= Y815,4 <= 1
 0 <= Y815,5 <= 1
 0 <= Y815,6 <= 1
 0 <= Y816,0 <= 1
 0 <= Y816,1 <= 1
 0 <= Y816,2 <= 1
 0 <= Y816,3 <= 1
 0 <= Y816,4 <= 1
 0 <= Y816,5 <= 1
 0 <= Y816,6 <= 1
 0 <= Y817,0 <= 1
 0 <= Y817,1 <= 1
 0 <= Y817,2 <= 1
 0 <= Y817,3 <= 1
 0 <= Y817,4 <= 1
 0 <= Y817,5 <= 1
 0 <= Y817,6 <= 1
 0 <= Y818,0 <= 1
 0 <= Y818,1 <= 1
 0 <= Y818,2 <= 1
 0 <= Y818,3 <= 1
 0 <= Y818,4 <= 1
 0 <= Y818,5 <= 1
 0 <= Y818,6 <= 1
 0 <= Y819,0 <= 1
 0 <= Y819,1 <= 1
 0 <= Y819,2 <= 1
 0 <= Y819,3 <= 1
 0 <= Y819,4 <= 1
 0 <= Y819,5 <= 1
 0 <= Y819,6 <= 1
 0 <= Y820,0 <= 1
 0 <= Y820,1 <= 1
 0 <= Y820,2 <= 1
 0 <= Y820,3 <= 1
 0 <= Y820,4 <= 1
 0 <= Y820,5 <= 1
 0 <= Y820,6 <= 1
 0 <= Y821,0 <= 1
 0 <= Y821,1 <= 1
 0 <= Y821,2 <= 1
 0 <= Y821,3 <= 1
 0 <= Y821,4 <= 1
 0 <= Y821,5 <= 1
 0 <= Y821,6 <= 1
 0 <= Y822,0 <= 1
 0 <= Y822,1 <= 1
 0 <= Y822,2 <= 1
 0 <= Y822,3 <= 1
 0 <= Y822,4 <= 1
 0 <= Y822,5 <= 1
 0 <= Y822,6 <= 1
 0 <= Y823,0 <= 1
 0 <= Y823,1 <= 1
 0 <= Y823,2 <= 1
 0 <= Y823,3 <= 1
 0 <= Y823,4 <= 1
 0 <= Y823,5 <= 1
 0 <= Y823,6 <= 1
 0 <= Y824,0 <= 1
 0 <= Y824,1 <= 1
 0 <= Y824,2 <= 1
 0 <= Y824,3 <= 1
 0 <= Y824,4 <= 1
 0 <= Y824,5 <= 1
 0 <= Y824,6 <= 1
 0 <= Y825,0 <= 1
 0 <= Y825,1 <= 1
 0 <= Y825,2 <= 1
 0 <= Y825,3 <= 1
 0 <= Y825,4 <= 1
 0 <= Y825,5 <= 1
 0 <= Y825,6 <= 1
 0 <= Y826,0 <= 1
 0 <= Y826,1 <= 1
 0 <= Y826,2 <= 1
 0 <= Y826,3 <= 1
 0 <= Y826,4 <= 1
 0 <= Y826,5 <= 1
 0 <= Y826,6 <= 1
 0 <= Y827,0 <= 1
 0 <= Y827,1 <= 1
 0 <= Y827,2 <= 1
 0 <= Y827,3 <= 1
 0 <= Y827,4 <= 1
 0 <= Y827,5 <= 1
 0 <= Y827,6 <= 1
 0 <= Y828,0 <= 1
 0 <= Y828,1 <= 1
 0 <= Y828,2 <= 1
 0 <= Y828,3 <= 1
 0 <= Y828,4 <= 1
 0 <= Y828,5 <= 1
 0 <= Y828,6 <= 1
 0 <= Y829,0 <= 1
 0 <= Y829,1 <= 1
 0 <= Y829,2 <= 1
 0 <= Y829,3 <= 1
 0 <= Y829,4 <= 1
 0 <= Y829,5 <= 1
 0 <= Y829,6 <= 1
 0 <= Y830,0 <= 1
 0 <= Y830,1 <= 1
 0 <= Y830,2 <= 1
 0 <= Y830,3 <= 1
 0 <= Y830,4 <= 1
 0 <= Y830,5 <= 1
 0 <= Y830,6 <= 1
 0 <= Y831,0 <= 1
 0 <= Y831,1 <= 1
 0 <= Y831,2 <= 1
 0 <= Y831,3 <= 1
 0 <= Y831,4 <= 1
 0 <= Y831,5 <= 1
 0 <= Y831,6 <= 1
 0 <= Y832,0 <= 1
 0 <= Y832,1 <= 1
 0 <= Y832,2 <= 1
 0 <= Y832,3 <= 1
 0 <= Y832,4 <= 1
 0 <= Y832,5 <= 1
 0 <= Y832,6 <= 1
 0 <= Y833,0 <= 1
 0 <= Y833,1 <= 1
 0 <= Y833,2 <= 1
 0 <= Y833,3 <= 1
 0 <= Y833,4 <= 1
 0 <= Y833,5 <= 1
 0 <= Y833,6 <= 1
 0 <= Y834,0 <= 1
 0 <= Y834,1 <= 1
 0 <= Y834,2 <= 1
 0 <= Y834,3 <= 1
 0 <= Y834,4 <= 1
 0 <= Y834,5 <= 1
 0 <= Y834,6 <= 1
 0 <= Y835,0 <= 1
 0 <= Y835,1 <= 1
 0 <= Y835,2 <= 1
 0 <= Y835,3 <= 1
 0 <= Y835,4 <= 1
 0 <= Y835,5 <= 1
 0 <= Y835,6 <= 1
 0 <= Y836,0 <= 1
 0 <= Y836,1 <= 1
 0 <= Y836,2 <= 1
 0 <= Y836,3 <= 1
 0 <= Y836,4 <= 1
 0 <= Y836,5 <= 1
 0 <= Y836,6 <= 1
 0 <= Y837,0 <= 1
 0 <= Y837,1 <= 1
 0 <= Y837,2 <= 1
 0 <= Y837,3 <= 1
 0 <= Y837,4 <= 1
 0 <= Y837,5 <= 1
 0 <= Y837,6 <= 1
 0 <= Y838,0 <= 1
 0 <= Y838,1 <= 1
 0 <= Y838,2 <= 1
 0 <= Y838,3 <= 1
 0 <= Y838,4 <= 1
 0 <= Y838,5 <= 1
 0 <= Y838,6 <= 1
 0 <= Y839,0 <= 1
 0 <= Y839,1 <= 1
 0 <= Y839,2 <= 1
 0 <= Y839,3 <= 1
 0 <= Y839,4 <= 1
 0 <= Y839,5 <= 1
 0 <= Y839,6 <= 1
 0 <= Y840,0 <= 1
 0 <= Y840,1 <= 1
 0 <= Y840,2 <= 1
 0 <= Y840,3 <= 1
 0 <= Y840,4 <= 1
 0 <= Y840,5 <= 1
 0 <= Y840,6 <= 1
 0 <= Y841,0 <= 1
 0 <= Y841,1 <= 1
 0 <= Y841,2 <= 1
 0 <= Y841,3 <= 1
 0 <= Y841,4 <= 1
 0 <= Y841,5 <= 1
 0 <= Y841,6 <= 1
 0 <= Y842,0 <= 1
 0 <= Y842,1 <= 1
 0 <= Y842,2 <= 1
 0 <= Y842,3 <= 1
 0 <= Y842,4 <= 1
 0 <= Y842,5 <= 1
 0 <= Y842,6 <= 1
 0 <= Y843,0 <= 1
 0 <= Y843,1 <= 1
 0 <= Y843,2 <= 1
 0 <= Y843,3 <= 1
 0 <= Y843,4 <= 1
 0 <= Y843,5 <= 1
 0 <= Y843,6 <= 1
 0 <= Y844,0 <= 1
 0 <= Y844,1 <= 1
 0 <= Y844,2 <= 1
 0 <= Y844,3 <= 1
 0 <= Y844,4 <= 1
 0 <= Y844,5 <= 1
 0 <= Y844,6 <= 1
 0 <= Y845,0 <= 1
 0 <= Y845,1 <= 1
 0 <= Y845,2 <= 1
 0 <= Y845,3 <= 1
 0 <= Y845,4 <= 1
 0 <= Y845,5 <= 1
 0 <= Y845,6 <= 1
 0 <= Y846,0 <= 1
 0 <= Y846,1 <= 1
 0 <= Y846,2 <= 1
 0 <= Y846,3 <= 1
 0 <= Y846,4 <= 1
 0 <= Y846,5 <= 1
 0 <= Y846,6 <= 1
 0 <= Y847,0 <= 1
 0 <= Y847,1 <= 1
 0 <= Y847,2 <= 1
 0 <= Y847,3 <= 1
 0 <= Y847,4 <= 1
 0 <= Y847,5 <= 1
 0 <= Y847,6 <= 1
 0 <= Y848,0 <= 1
 0 <= Y848,1 <= 1
 0 <= Y848,2 <= 1
 0 <= Y848,3 <= 1
 0 <= Y848,4 <= 1
 0 <= Y848,5 <= 1
 0 <= Y848,6 <= 1
 0 <= Y849,0 <= 1
 0 <= Y849,1 <= 1
 0 <= Y849,2 <= 1
 0 <= Y849,3 <= 1
 0 <= Y849,4 <= 1
 0 <= Y849,5 <= 1
 0 <= Y849,6 <= 1
 0 <= Y850,0 <= 1
 0 <= Y850,1 <= 1
 0 <= Y850,2 <= 1
 0 <= Y850,3 <= 1
 0 <= Y850,4 <= 1
 0 <= Y850,5 <= 1
 0 <= Y850,6 <= 1
 0 <= Y851,0 <= 1
 0 <= Y851,1 <= 1
 0 <= Y851,2 <= 1
 0 <= Y851,3 <= 1
 0 <= Y851,4 <= 1
 0 <= Y851,5 <= 1
 0 <= Y851,6 <= 1
 0 <= Y852,0 <= 1
 0 <= Y852,1 <= 1
 0 <= Y852,2 <= 1
 0 <= Y852,3 <= 1
 0 <= Y852,4 <= 1
 0 <= Y852,5 <= 1
 0 <= Y852,6 <= 1
 0 <= Y853,0 <= 1
 0 <= Y853,1 <= 1
 0 <= Y853,2 <= 1
 0 <= Y853,3 <= 1
 0 <= Y853,4 <= 1
 0 <= Y853,5 <= 1
 0 <= Y853,6 <= 1
 0 <= Y854,0 <= 1
 0 <= Y854,1 <= 1
 0 <= Y854,2 <= 1
 0 <= Y854,3 <= 1
 0 <= Y854,4 <= 1
 0 <= Y854,5 <= 1
 0 <= Y854,6 <= 1
 0 <= Y855,0 <= 1
 0 <= Y855,1 <= 1
 0 <= Y855,2 <= 1
 0 <= Y855,3 <= 1
 0 <= Y855,4 <= 1
 0 <= Y855,5 <= 1
 0 <= Y855,6 <= 1
 0 <= Y856,0 <= 1
 0 <= Y856,1 <= 1
 0 <= Y856,2 <= 1
 0 <= Y856,3 <= 1
 0 <= Y856,4 <= 1
 0 <= Y856,5 <= 1
 0 <= Y856,6 <= 1
 0 <= Y857,0 <= 1
 0 <= Y857,1 <= 1
 0 <= Y857,2 <= 1
 0 <= Y857,3 <= 1
 0 <= Y857,4 <= 1
 0 <= Y857,5 <= 1
 0 <= Y857,6 <= 1
Binaries
 Y0,0 Y0,1 Y0,2 Y0,3 Y0,4 Y0,5 Y0,6 Y1,0 Y1,1 Y1,2 Y1,3 Y1,4 Y1,5 Y1,6 Y2,0 Y2,1 Y2,2 Y2,3 Y2,4 Y2,5 Y2,6
 Y3,0 Y3,1 Y3,2 Y3,3 Y3,4 Y3,5 Y3,6 Y4,0 Y4,1 Y4,2 Y4,3 Y4,4 Y4,5 Y4,6 Y5,0 Y5,1 Y5,2 Y5,3 Y5,4 Y5,5 Y5,6
 Y6,0 Y6,1 Y6,2 Y6,3 Y6,4 Y6,5 Y6,6 Y7,0 Y7,1 Y7,2 Y7,3 Y7,4 Y7,5 Y7,6 Y8,0 Y8,1 Y8,2 Y8,3 Y8,4 Y8,5 Y8,6
 Y9,0 Y9,1 Y9,2 Y9,3 Y9,4 Y9,5 Y9,6 Y10,0 Y10,1 Y10,2 Y10,3 Y10,4 Y10,5 Y10,6 Y11,0 Y11,1 Y11,2 Y11,3
 Y11,4 Y11,5 Y11,6 Y12,0 Y12,1 Y12,2 Y12,3 Y12,4 Y12,5 Y12,6 Y13,0 Y13,1 Y13,2 Y13,3 Y13,4 Y13,5 Y13,6
 Y14,0 Y14,1 Y14,2 Y14,3 Y14,4 Y14,5 Y14,6 Y15,0 Y15,1 Y15,2 Y15,3 Y15,4 Y15,5 Y15,6 Y16,0 Y16,1 Y16,2
 Y16,3 Y16,4 Y16,5 Y16,6 Y17,0 Y17,1 Y17,2 Y17,3 Y17,4 Y17,5 Y17,6 Y18,0 Y18,1 Y18,2 Y18,3 Y18,4 Y18,5
 Y18,6 Y19,0 Y19,1 Y19,2 Y19,3 Y19,4 Y19,5 Y19,6 Y20,0 Y20,1 Y20,2 Y20,3 Y20,4 Y20,5 Y20,6 Y21,0 Y21,1
 Y21,2 Y21,3 Y21,4 Y21,5 Y21,6 Y22,0 Y22,1 Y22,2 Y22,3 Y22,4 Y22,5 Y22,6 Y23,0 Y23,1 Y23,2 Y23,3 Y23,4
 Y23,5 Y23,6 Y24,0 Y24,1 Y24,2 Y24,3 Y24,4 Y24,5 Y24,6 Y25,0 Y25,1 Y25,2 Y25,3 Y25,4 Y25,5 Y25,6 Y26,0
 Y26,1 Y26,2 Y26,3 Y26,4 Y26,5 Y26,6 Y27,0 Y27,1 Y27,2 Y27,3 Y27,4 Y27,5 Y27,6 Y28,0 Y28,1 Y28,2 Y28,3
 Y28,4 Y28,5 Y28,6 Y29,0 Y29,1 Y29,2 Y29,3 Y29,4 Y29,5 Y29,6 Y30,0 Y30,1 Y30,2 Y30,3 Y30,4 Y30,5 Y30,6
 Y31,0 Y31,1 Y31,2 Y31,3 Y31,4 Y31,5 Y31,6 Y32,0 Y32,1 Y32,2 Y32,3 Y32,4 Y32,5 Y32,6 Y33,0 Y33,1 Y33,2
 Y33,3 Y33,4 Y33,5 Y33,6 Y34,0 Y34,1 Y34,2 Y34,3 Y34,4 Y34,5 Y34,6 Y35,0 Y35,1 Y35,2 Y35,3 Y35,4 Y35,5
 Y35,6 Y36,0 Y36,1 Y36,2 Y36,3 Y36,4 Y36,5 Y36,6 Y37,0 Y37,1 Y37,2 Y37,3 Y37,4 Y37,5 Y37,6 Y38,0 Y38,1
 Y38,2 Y38,3 Y38,4 Y38,5 Y38,6 Y39,0 Y39,1 Y39,2 Y39,3 Y39,4 Y39,5 Y39,6 Y40,0 Y40,1 Y40,2 Y40,3 Y40,4
 Y40,5 Y40,6 Y41,0 Y41,1 Y41,2 Y41,3 Y41,4 Y41,5 Y41,6 Y42,0 Y42,1 Y42,2 Y42,3 Y42,4 Y42,5 Y42,6 Y43,0
 Y43,1 Y43,2 Y43,3 Y43,4 Y43,5 Y43,6 Y44,0 Y44,1 Y44,2 Y44,3 Y44,4 Y44,5 Y44,6 Y45,0 Y45,1 Y45,2 Y45,3
 Y45,4 Y45,5 Y45,6 Y46,0 Y46,1 Y46,2 Y46,3 Y46,4 Y46,5 Y46,6 Y47,0 Y47,1 Y47,2 Y47,3 Y47,4 Y47,5 Y47,6
 Y48,0 Y48,1 Y48,2 Y48,3 Y48,4 Y48,5 Y48,6 Y49,0 Y49,1 Y49,2 Y49,3 Y49,4 Y49,5 Y49,6 Y50,0 Y50,1 Y50,2
 Y50,3 Y50,4 Y50,5 Y50,6 Y51,0 Y51,1 Y51,2 Y51,3 Y51,4 Y51,5 Y51,6 Y52,0 Y52,1 Y52,2 Y52,3 Y52,4 Y52,5
 Y52,6 Y53,0 Y53,1 Y53,2 Y53,3 Y53,4 Y53,5 Y53,6 Y54,0 Y54,1 Y54,2 Y54,3 Y54,4 Y54,5 Y54,6 Y55,0 Y55,1
 Y55,2 Y55,3 Y55,4 Y55,5 Y55,6 Y56,0 Y56,1 Y56,2 Y56,3 Y56,4 Y56,5 Y56,6 Y57,0 Y57,1 Y57,2 Y57,3 Y57,4
 Y57,5 Y57,6 Y58,0 Y58,1 Y58,2 Y58,3 Y58,4 Y58,5 Y58,6 Y59,0 Y59,1 Y59,2 Y59,3 Y59,4 Y59,5 Y59,6 Y60,0
 Y60,1 Y60,2 Y60,3 Y60,4 Y60,5 Y60,6 Y61,0 Y61,1 Y61,2 Y61,3 Y61,4 Y61,5 Y61,6 Y62,0 Y62,1 Y62,2 Y62,3
 Y62,4 Y62,5 Y62,6 Y63,0 Y63,1 Y63,2 Y63,3 Y63,4 Y63,5 Y63,6 Y64,0 Y64,1 Y64,2 Y64,3 Y64,4 Y64,5 Y64,6
 Y65,0 Y65,1 Y65,2 Y65,3 Y65,4 Y65,5 Y65,6 Y66,0 Y66,1 Y66,2 Y66,3 Y66,4 Y66,5 Y66,6 Y67,0 Y67,1 Y67,2
 Y67,3 Y67,4 Y67,5 Y67,6 Y68,0 Y68,1 Y68,2 Y68,3 Y68,4 Y68,5 Y68,6 Y69,0 Y69,1 Y69,2 Y69,3 Y69,4 Y69,5
 Y69,6 Y70,0 Y70,1 Y70,2 Y70,3 Y70,4 Y70,5 Y70,6 Y71,0 Y71,1 Y71,2 Y71,3 Y71,4 Y71,5 Y71,6 Y72,0 Y72,1
 Y72,2 Y72,3 Y72,4 Y72,5 Y72,6 Y73,0 Y73,1 Y73,2 Y73,3 Y73,4 Y73,5 Y73,6 Y74,0 Y74,1 Y74,2 Y74,3 Y74,4
 Y74,5 Y74,6 Y75,0 Y75,1 Y75,2 Y75,3 Y75,4 Y75,5 Y75,6 Y76,0 Y76,1 Y76,2 Y76,3 Y76,4 Y76,5 Y76,6 Y77,0
 Y77,1 Y77,2 Y77,3 Y77,4 Y77,5 Y77,6 Y78,0 Y78,1 Y78,2 Y78,3 Y78,4 Y78,5 Y78,6 Y79,0 Y79,1 Y79,2 Y79,3
 Y79,4 Y79,5 Y79,6 Y80,0 Y80,1 Y80,2 Y80,3 Y80,4 Y80,5 Y80,6 Y81,0 Y81,1 Y81,2 Y81,3 Y81,4 Y81,5 Y81,6
 Y82,0 Y82,1 Y82,2 Y82,3 Y82,4 Y82,5 Y82,6 Y83,0 Y83,1 Y83,2 Y83,3 Y83,4 Y83,5 Y83,6 Y84,0 Y84,1 Y84,2
 Y84,3 Y84,4 Y84,5 Y84,6 Y85,0 Y85,1 Y85,2 Y85,3 Y85,4 Y85,5 Y85,6 Y86,0 Y86,1 Y86,2 Y86,3 Y86,4 Y86,5
 Y86,6 Y87,0 Y87,1 Y87,2 Y87,3 Y87,4 Y87,5 Y87,6 Y88,0 Y88,1 Y88,2 Y88,3 Y88,4 Y88,5 Y88,6 Y89,0 Y89,1
 Y89,2 Y89,3 Y89,4 Y89,5 Y89,6 Y90,0 Y90,1 Y90,2 Y90,3 Y90,4 Y90,5 Y90,6 Y91,0 Y91,1 Y91,2 Y91,3 Y91,4
 Y91,5 Y91,6 Y92,0 Y92,1 Y92,2 Y92,3 Y92,4 Y92,5 Y92,6 Y93,0 Y93,1 Y93,2 Y93,3 Y93,4 Y93,5 Y93,6 Y94,0
 Y94,1 Y94,2 Y94,3 Y94,4 Y94,5 Y94,6 Y95,0 Y95,1 Y95,2 Y95,3 Y95,4 Y95,5 Y95,6 Y96,0 Y96,1 Y96,2 Y96,3
 Y96,4 Y96,5 Y96,6 Y97,0 Y97,1 Y97,2 Y97,3 Y97,4 Y97,5 Y97,6 Y98,0 Y98,1 Y98,2 Y98,3 Y98,4 Y98,5 Y98,6
 Y99,0 Y99,1 Y99,2 Y99,3 Y99,4 Y99,5 Y99,6 Y100,0 Y100,1 Y100,2 Y100,3 Y100,4 Y100,5 Y100,6 Y101,0 Y101,1
 Y101,2 Y101,3 Y101,4 Y101,5 Y101,6 Y102,0 Y102,1 Y102,2 Y102,3 Y102,4 Y102,5 Y102,6 Y103,0 Y103,1 Y103,2
 Y103,3 Y103,4 Y103,5 Y103,6 Y104,0 Y104,1 Y104,2 Y104,3 Y104,4 Y104,5 Y104,6 Y105,0 Y105,1 Y105,2 Y105,3
 Y105,4 Y105,5 Y105,6 Y106,0 Y106,1 Y106,2 Y106,3 Y106,4 Y106,5 Y106,6 Y107,0 Y107,1 Y107,2 Y107,3 Y107,4
 Y107,5 Y107,6 Y108,0 Y108,1 Y108,2 Y108,3 Y108,4 Y108,5 Y108,6 Y109,0 Y109,1 Y109,2 Y109,3 Y109,4 Y109,5
 Y109,6 Y110,0 Y110,1 Y110,2 Y110,3 Y110,4 Y110,5 Y110,6 Y111,0 Y111,1 Y111,2 Y111,3 Y111,4 Y111,5 Y111,6
 Y112,0 Y112,1 Y112,2 Y112,3 Y112,4 Y112,5 Y112,6 Y113,0 Y113,1 Y113,2 Y113,3 Y113,4 Y113,5 Y113,6 Y114,0
 Y114,1 Y114,2 Y114,3 Y114,4 Y114,5 Y114,6 Y115,0 Y115,1 Y115,2 Y115,3 Y115,4 Y115,5 Y115,6 Y116,0 Y116,1
 Y116,2 Y116,3 Y116,4 Y116,5 Y116,6 Y117,0 Y117,1 Y117,2 Y117,3 Y117,4 Y117,5 Y117,6 Y118,0 Y118,1 Y118,2
 Y118,3 Y118,4 Y118,5 Y118,6 Y119,0 Y119,1 Y119,2 Y119,3 Y119,4 Y119,5 Y119,6 Y120,0 Y120,1 Y120,2 Y120,3
 Y120,4 Y120,5 Y120,6 Y121,0 Y121,1 Y121,2 Y121,3 Y121,4 Y121,5 Y121,6 Y122,0 Y122,1 Y122,2 Y122,3 Y122,4
 Y122,5 Y122,6 Y123,0 Y123,1 Y123,2 Y123,3 Y123,4 Y123,5 Y123,6 Y124,0 Y124,1 Y124,2 Y124,3 Y124,4 Y124,5
 Y124,6 Y125,0 Y125,1 Y125,2 Y125,3 Y125,4 Y125,5 Y125,6 Y126,0 Y126,1 Y126,2 Y126,3 Y126,4 Y126,5 Y126,6
 Y127,0 Y127,1 Y127,2 Y127,3 Y127,4 Y127,5 Y127,6 Y128,0 Y128,1 Y128,2 Y128,3 Y128,4 Y128,5 Y128,6 Y129,0
 Y129,1 Y129,2 Y129,3 Y129,4 Y129,5 Y129,6 Y130,0 Y130,1 Y130,2 Y130,3 Y130,4 Y130,5 Y130,6 Y131,0 Y131,1
 Y131,2 Y131,3 Y131,4 Y131,5 Y131,6 Y132,0 Y132,1 Y132,2 Y132,3 Y132,4 Y132,5 Y132,6 Y133,0 Y133,1 Y133,2
 Y133,3 Y133,4 Y133,5 Y133,6 Y134,0 Y134,1 Y134,2 Y134,3 Y134,4 Y134,5 Y134,6 Y135,0 Y135,1 Y135,2 Y135,3
 Y135,4 Y135,5 Y135,6 Y136,0 Y136,1 Y136,2 Y136,3 Y136,4 Y136,5 Y136,6 Y137,0 Y137,1 Y137,2 Y137,3 Y137,4
 Y137,5 Y137,6 Y138,0 Y138,1 Y138,2 Y138,3 Y138,4 Y138,5 Y138,6 Y139,0 Y139,1 Y139,2 Y139,3 Y139,4 Y139,5
 Y139,6 Y140,0 Y140,1 Y140,2 Y140,3 Y140,4 Y140,5 Y140,6 Y141,0 Y141,1 Y141,2 Y141,3 Y141,4 Y141,5 Y141,6
 Y142,0 Y142,1 Y142,2 Y142,3 Y142,4 Y142,5 Y142,6 Y143,0 Y143,1 Y143,2 Y143,3 Y143,4 Y143,5 Y143,6 Y144,0
 Y144,1 Y144,2 Y144,3 Y144,4 Y144,5 Y144,6 Y145,0 Y145,1 Y145,2 Y145,3 Y145,4 Y145,5 Y145,6 Y146,0 Y146,1
 Y146,2 Y146,3 Y146,4 Y146,5 Y146,6 Y147,0 Y147,1 Y147,2 Y147,3 Y147,4 Y147,5 Y147,6 Y148,0 Y148,1 Y148,2
 Y148,3 Y148,4 Y148,5 Y148,6 Y149,0 Y149,1 Y149,2 Y149,3 Y149,4 Y149,5 Y149,6 Y150,0 Y150,1 Y150,2 Y150,3
 Y150,4 Y150,5 Y150,6 Y151,0 Y151,1 Y151,2 Y151,3 Y151,4 Y151,5 Y151,6 Y152,0 Y152,1 Y152,2 Y152,3 Y152,4
 Y152,5 Y152,6 Y153,0 Y153,1 Y153,2 Y153,3 Y153,4 Y153,5 Y153,6 Y154,0 Y154,1 Y154,2 Y154,3 Y154,4 Y154,5
 Y154,6 Y155,0 Y155,1 Y155,2 Y155,3 Y155,4 Y155,5 Y155,6 Y156,0 Y156,1 Y156,2 Y156,3 Y156,4 Y156,5 Y156,6
 Y157,0 Y157,1 Y157,2 Y157,3 Y157,4 Y157,5 Y157,6 Y158,0 Y158,1 Y158,2 Y158,3 Y158,4 Y158,5 Y158,6 Y159,0
 Y159,1 Y159,2 Y159,3 Y159,4 Y159,5 Y159,6 Y160,0 Y160,1 Y160,2 Y160,3 Y160,4 Y160,5 Y160,6 Y161,0 Y161,1
 Y161,2 Y161,3 Y161,4 Y161,5 Y161,6 Y162,0 Y162,1 Y162,2 Y162,3 Y162,4 Y162,5 Y162,6 Y163,0 Y163,1 Y163,2
 Y163,3 Y163,4 Y163,5 Y163,6 Y164,0 Y164,1 Y164,2 Y164,3 Y164,4 Y164,5 Y164,6 Y165,0 Y165,1 Y165,2 Y165,3
 Y165,4 Y165,5 Y165,6 Y166,0 Y166,1 Y166,2 Y166,3 Y166,4 Y166,5 Y166,6 Y167,0 Y167,1 Y167,2 Y167,3 Y167,4
 Y167,5 Y167,6 Y168,0 Y168,1 Y168,2 Y168,3 Y168,4 Y168,5 Y168,6 Y169,0 Y169,1 Y169,2 Y169,3 Y169,4 Y169,5
 Y169,6 Y170,0 Y170,1 Y170,2 Y170,3 Y170,4 Y170,5 Y170,6 Y171,0 Y171,1 Y171,2 Y171,3 Y171,4 Y171,5 Y171,6
 Y172,0 Y172,1 Y172,2 Y172,3 Y172,4 Y172,5 Y172,6 Y173,0 Y173,1 Y173,2 Y173,3 Y173,4 Y173,5 Y173,6 Y174,0
 Y174,1 Y174,2 Y174,3 Y174,4 Y174,5 Y174,6 Y175,0 Y175,1 Y175,2 Y175,3 Y175,4 Y175,5 Y175,6 Y176,0 Y176,1
 Y176,2 Y176,3 Y176,4 Y176,5 Y176,6 Y177,0 Y177,1 Y177,2 Y177,3 Y177,4 Y177,5 Y177,6 Y178,0 Y178,1 Y178,2
 Y178,3 Y178,4 Y178,5 Y178,6 Y179,0 Y179,1 Y179,2 Y179,3 Y179,4 Y179,5 Y179,6 Y180,0 Y180,1 Y180,2 Y180,3
 Y180,4 Y180,5 Y180,6 Y181,0 Y181,1 Y181,2 Y181,3 Y181,4 Y181,5 Y181,6 Y182,0 Y182,1 Y182,2 Y182,3 Y182,4
 Y182,5 Y182,6 Y183,0 Y183,1 Y183,2 Y183,3 Y183,4 Y183,5 Y183,6 Y184,0 Y184,1 Y184,2 Y184,3 Y184,4 Y184,5
 Y184,6 Y185,0 Y185,1 Y185,2 Y185,3 Y185,4 Y185,5 Y185,6 Y186,0 Y186,1 Y186,2 Y186,3 Y186,4 Y186,5 Y186,6
 Y187,0 Y187,1 Y187,2 Y187,3 Y187,4 Y187,5 Y187,6 Y188,0 Y188,1 Y188,2 Y188,3 Y188,4 Y188,5 Y188,6 Y189,0
 Y189,1 Y189,2 Y189,3 Y189,4 Y189,5 Y189,6 Y190,0 Y190,1 Y190,2 Y190,3 Y190,4 Y190,5 Y190,6 Y191,0 Y191,1
 Y191,2 Y191,3 Y191,4 Y191,5 Y191,6 Y192,0 Y192,1 Y192,2 Y192,3 Y192,4 Y192,5 Y192,6 Y193,0 Y193,1 Y193,2
 Y193,3 Y193,4 Y193,5 Y193,6 Y194,0 Y194,1 Y194,2 Y194,3 Y194,4 Y194,5 Y194,6 Y195,0 Y195,1 Y195,2 Y195,3
 Y195,4 Y195,5 Y195,6 Y196,0 Y196,1 Y196,2 Y196,3 Y196,4 Y196,5 Y196,6 Y197,0 Y197,1 Y197,2 Y197,3 Y197,4
 Y197,5 Y197,6 Y198,0 Y198,1 Y198,2 Y198,3 Y198,4 Y198,5 Y198,6 Y199,0 Y199,1 Y199,2 Y199,3 Y199,4 Y199,5
 Y199,6 Y200,0 Y200,1 Y200,2 Y200,3 Y200,4 Y200,5 Y200,6 Y201,0 Y201,1 Y201,2 Y201,3 Y201,4 Y201,5 Y201,6
 Y202,0 Y202,1 Y202,2 Y202,3 Y202,4 Y202,5 Y202,6 Y203,0 Y203,1 Y203,2 Y203,3 Y203,4 Y203,5 Y203,6 Y204,0
 Y204,1 Y204,2 Y204,3 Y204,4 Y204,5 Y204,6 Y205,0 Y205,1 Y205,2 Y205,3 Y205,4 Y205,5 Y205,6 Y206,0 Y206,1
 Y206,2 Y206,3 Y206,4 Y206,5 Y206,6 Y207,0 Y207,1 Y207,2 Y207,3 Y207,4 Y207,5 Y207,6 Y208,0 Y208,1 Y208,2
 Y208,3 Y208,4 Y208,5 Y208,6 Y209,0 Y209,1 Y209,2 Y209,3 Y209,4 Y209,5 Y209,6 Y210,0 Y210,1 Y210,2 Y210,3
 Y210,4 Y210,5 Y210,6 Y211,0 Y211,1 Y211,2 Y211,3 Y211,4 Y211,5 Y211,6 Y212,0 Y212,1 Y212,2 Y212,3 Y212,4
 Y212,5 Y212,6 Y213,0 Y213,1 Y213,2 Y213,3 Y213,4 Y213,5 Y213,6 Y214,0 Y214,1 Y214,2 Y214,3 Y214,4 Y214,5
 Y214,6 Y215,0 Y215,1 Y215,2 Y215,3 Y215,4 Y215,5 Y215,6 Y216,0 Y216,1 Y216,2 Y216,3 Y216,4 Y216,5 Y216,6
 Y217,0 Y217,1 Y217,2 Y217,3 Y217,4 Y217,5 Y217,6 Y218,0 Y218,1 Y218,2 Y218,3 Y218,4 Y218,5 Y218,6 Y219,0
 Y219,1 Y219,2 Y219,3 Y219,4 Y219,5 Y219,6 Y220,0 Y220,1 Y220,2 Y220,3 Y220,4 Y220,5 Y220,6 Y221,0 Y221,1
 Y221,2 Y221,3 Y221,4 Y221,5 Y221,6 Y222,0 Y222,1 Y222,2 Y222,3 Y222,4 Y222,5 Y222,6 Y223,0 Y223,1 Y223,2
 Y223,3 Y223,4 Y223,5 Y223,6 Y224,0 Y224,1 Y224,2 Y224,3 Y224,4 Y224,5 Y224,6 Y225,0 Y225,1 Y225,2 Y225,3
 Y225,4 Y225,5 Y225,6 Y226,0 Y226,1 Y226,2 Y226,3 Y226,4 Y226,5 Y226,6 Y227,0 Y227,1 Y227,2 Y227,3 Y227,4
 Y227,5 Y227,6 Y228,0 Y228,1 Y228,2 Y228,3 Y228,4 Y228,5 Y228,6 Y229,0 Y229,1 Y229,2 Y229,3 Y229,4 Y229,5
 Y229,6 Y230,0 Y230,1 Y230,2 Y230,3 Y230,4 Y230,5 Y230,6 Y231,0 Y231,1 Y231,2 Y231,3 Y231,4 Y231,5 Y231,6
 Y232,0 Y232,1 Y232,2 Y232,3 Y232,4 Y232,5 Y232,6 Y233,0 Y233,1 Y233,2 Y233,3 Y233,4 Y233,5 Y233,6 Y234,0
 Y234,1 Y234,2 Y234,3 Y234,4 Y234,5 Y234,6 Y235,0 Y235,1 Y235,2 Y235,3 Y235,4 Y235,5 Y235,6 Y236,0 Y236,1
 Y236,2 Y236,3 Y236,4 Y236,5 Y236,6 Y237,0 Y237,1 Y237,2 Y237,3 Y237,4 Y237,5 Y237,6 Y238,0 Y238,1 Y238,2
 Y238,3 Y238,4 Y238,5 Y238,6 Y239,0 Y239,1 Y239,2 Y239,3 Y239,4 Y239,5 Y239,6 Y240,0 Y240,1 Y240,2 Y240,3
 Y240,4 Y240,5 Y240,6 Y241,0 Y241,1 Y241,2 Y241,3 Y241,4 Y241,5 Y241,6 Y242,0 Y242,1 Y242,2 Y242,3 Y242,4
 Y242,5 Y242,6 Y243,0 Y243,1 Y243,2 Y243,3 Y243,4 Y243,5 Y243,6 Y244,0 Y244,1 Y244,2 Y244,3 Y244,4 Y244,5
 Y244,6 Y245,0 Y245,1 Y245,2 Y245,3 Y245,4 Y245,5 Y245,6 Y246,0 Y246,1 Y246,2 Y246,3 Y246,4 Y246,5 Y246,6
 Y247,0 Y247,1 Y247,2 Y247,3 Y247,4 Y247,5 Y247,6 Y248,0 Y248,1 Y248,2 Y248,3 Y248,4 Y248,5 Y248,6 Y249,0
 Y249,1 Y249,2 Y249,3 Y249,4 Y249,5 Y249,6 Y250,0 Y250,1 Y250,2 Y250,3 Y250,4 Y250,5 Y250,6 Y251,0 Y251,1
 Y251,2 Y251,3 Y251,4 Y251,5 Y251,6 Y252,0 Y252,1 Y252,2 Y252,3 Y252,4 Y252,5 Y252,6 Y253,0 Y253,1 Y253,2
 Y253,3 Y253,4 Y253,5 Y253,6 Y254,0 Y254,1 Y254,2 Y254,3 Y254,4 Y254,5 Y254,6 Y255,0 Y255,1 Y255,2 Y255,3
 Y255,4 Y255,5 Y255,6 Y256,0 Y256,1 Y256,2 Y256,3 Y256,4 Y256,5 Y256,6 Y257,0 Y257,1 Y257,2 Y257,3 Y257,4
 Y257,5 Y257,6 Y258,0 Y258,1 Y258,2 Y258,3 Y258,4 Y258,5 Y258,6 Y259,0 Y259,1 Y259,2 Y259,3 Y259,4 Y259,5
 Y259,6 Y260,0 Y260,1 Y260,2 Y260,3 Y260,4 Y260,5 Y260,6 Y261,0 Y261,1 Y261,2 Y261,3 Y261,4 Y261,5 Y261,6
 Y262,0 Y262,1 Y262,2 Y262,3 Y262,4 Y262,5 Y262,6 Y263,0 Y263,1 Y263,2 Y263,3 Y263,4 Y263,5 Y263,6 Y264,0
 Y264,1 Y264,2 Y264,3 Y264,4 Y264,5 Y264,6 Y265,0 Y265,1 Y265,2 Y265,3 Y265,4 Y265,5 Y265,6 Y266,0 Y266,1
 Y266,2 Y266,3 Y266,4 Y266,5 Y266,6 Y267,0 Y267,1 Y267,2 Y267,3 Y267,4 Y267,5 Y267,6 Y268,0 Y268,1 Y268,2
 Y268,3 Y268,4 Y268,5 Y268,6 Y269,0 Y269,1 Y269,2 Y269,3 Y269,4 Y269,5 Y269,6 Y270,0 Y270,1 Y270,2 Y270,3
 Y270,4 Y270,5 Y270,6 Y271,0 Y271,1 Y271,2 Y271,3 Y271,4 Y271,5 Y271,6 Y272,0 Y272,1 Y272,2 Y272,3 Y272,4
 Y272,5 Y272,6 Y273,0 Y273,1 Y273,2 Y273,3 Y273,4 Y273,5 Y273,6 Y274,0 Y274,1 Y274,2 Y274,3 Y274,4 Y274,5
 Y274,6 Y275,0 Y275,1 Y275,2 Y275,3 Y275,4 Y275,5 Y275,6 Y276,0 Y276,1 Y276,2 Y276,3 Y276,4 Y276,5 Y276,6
 Y277,0 Y277,1 Y277,2 Y277,3 Y277,4 Y277,5 Y277,6 Y278,0 Y278,1 Y278,2 Y278,3 Y278,4 Y278,5 Y278,6 Y279,0
 Y279,1 Y279,2 Y279,3 Y279,4 Y279,5 Y279,6 Y280,0 Y280,1 Y280,2 Y280,3 Y280,4 Y280,5 Y280,6 Y281,0 Y281,1
 Y281,2 Y281,3 Y281,4 Y281,5 Y281,6 Y282,0 Y282,1 Y282,2 Y282,3 Y282,4 Y282,5 Y282,6 Y283,0 Y283,1 Y283,2
 Y283,3 Y283,4 Y283,5 Y283,6 Y284,0 Y284,1 Y284,2 Y284,3 Y284,4 Y284,5 Y284,6 Y285,0 Y285,1 Y285,2 Y285,3
 Y285,4 Y285,5 Y285,6 Y286,0 Y286,1 Y286,2 Y286,3 Y286,4 Y286,5 Y286,6 Y287,0 Y287,1 Y287,2 Y287,3 Y287,4
 Y287,5 Y287,6 Y288,0 Y288,1 Y288,2 Y288,3 Y288,4 Y288,5 Y288,6 Y289,0 Y289,1 Y289,2 Y289,3 Y289,4 Y289,5
 Y289,6 Y290,0 Y290,1 Y290,2 Y290,3 Y290,4 Y290,5 Y290,6 Y291,0 Y291,1 Y291,2 Y291,3 Y291,4 Y291,5 Y291,6
 Y292,0 Y292,1 Y292,2 Y292,3 Y292,4 Y292,5 Y292,6 Y293,0 Y293,1 Y293,2 Y293,3 Y293,4 Y293,5 Y293,6 Y294,0
 Y294,1 Y294,2 Y294,3 Y294,4 Y294,5 Y294,6 Y295,0 Y295,1 Y295,2 Y295,3 Y295,4 Y295,5 Y295,6 Y296,0 Y296,1
 Y296,2 Y296,3 Y296,4 Y296,5 Y296,6 Y297,0 Y297,1 Y297,2 Y297,3 Y297,4 Y297,5 Y297,6 Y298,0 Y298,1 Y298,2
 Y298,3 Y298,4 Y298,5 Y298,6 Y299,0 Y299,1 Y299,2 Y299,3 Y299,4 Y299,5 Y299,6 Y300,0 Y300,1 Y300,2 Y300,3
 Y300,4 Y300,5 Y300,6 Y301,0 Y301,1 Y301,2 Y301,3 Y301,4 Y301,5 Y301,6 Y302,0 Y302,1 Y302,2 Y302,3 Y302,4
 Y302,5 Y302,6 Y303,0 Y303,1 Y303,2 Y303,3 Y303,4 Y303,5 Y303,6 Y304,0 Y304,1 Y304,2 Y304,3 Y304,4 Y304,5
 Y304,6 Y305,0 Y305,1 Y305,2 Y305,3 Y305,4 Y305,5 Y305,6 Y306,0 Y306,1 Y306,2 Y306,3 Y306,4 Y306,5 Y306,6
 Y307,0 Y307,1 Y307,2 Y307,3 Y307,4 Y307,5 Y307,6 Y308,0 Y308,1 Y308,2 Y308,3 Y308,4 Y308,5 Y308,6 Y309,0
 Y309,1 Y309,2 Y309,3 Y309,4 Y309,5 Y309,6 Y310,0 Y310,1 Y310,2 Y310,3 Y310,4 Y310,5 Y310,6 Y311,0 Y311,1
 Y311,2 Y311,3 Y311,4 Y311,5 Y311,6 Y312,0 Y312,1 Y312,2 Y312,3 Y312,4 Y312,5 Y312,6 Y313,0 Y313,1 Y313,2
 Y313,3 Y313,4 Y313,5 Y313,6 Y314,0 Y314,1 Y314,2 Y314,3 Y314,4 Y314,5 Y314,6 Y315,0 Y315,1 Y315,2 Y315,3
 Y315,4 Y315,5 Y315,6 Y316,0 Y316,1 Y316,2 Y316,3 Y316,4 Y316,5 Y316,6 Y317,0 Y317,1 Y317,2 Y317,3 Y317,4
 Y317,5 Y317,6 Y318,0 Y318,1 Y318,2 Y318,3 Y318,4 Y318,5 Y318,6 Y319,0 Y319,1 Y319,2 Y319,3 Y319,4 Y319,5
 Y319,6 Y320,0 Y320,1 Y320,2 Y320,3 Y320,4 Y320,5 Y320,6 Y321,0 Y321,1 Y321,2 Y321,3 Y321,4 Y321,5 Y321,6
 Y322,0 Y322,1 Y322,2 Y322,3 Y322,4 Y322,5 Y322,6 Y323,0 Y323,1 Y323,2 Y323,3 Y323,4 Y323,5 Y323,6 Y324,0
 Y324,1 Y324,2 Y324,3 Y324,4 Y324,5 Y324,6 Y325,0 Y325,1 Y325,2 Y325,3 Y325,4 Y325,5 Y325,6 Y326,0 Y326,1
 Y326,2 Y326,3 Y326,4 Y326,5 Y326,6 Y327,0 Y327,1 Y327,2 Y327,3 Y327,4 Y327,5 Y327,6 Y328,0 Y328,1 Y328,2
 Y328,3 Y328,4 Y328,5 Y328,6 Y329,0 Y329,1 Y329,2 Y329,3 Y329,4 Y329,5 Y329,6 Y330,0 Y330,1 Y330,2 Y330,3
 Y330,4 Y330,5 Y330,6 Y331,0 Y331,1 Y331,2 Y331,3 Y331,4 Y331,5 Y331,6 Y332,0 Y332,1 Y332,2 Y332,3 Y332,4
 Y332,5 Y332,6 Y333,0 Y333,1 Y333,2 Y333,3 Y333,4 Y333,5 Y333,6 Y334,0 Y334,1 Y334,2 Y334,3 Y334,4 Y334,5
 Y334,6 Y335,0 Y335,1 Y335,2 Y335,3 Y335,4 Y335,5 Y335,6 Y336,0 Y336,1 Y336,2 Y336,3 Y336,4 Y336,5 Y336,6
 Y337,0 Y337,1 Y337,2 Y337,3 Y337,4 Y337,5 Y337,6 Y338,0 Y338,1 Y338,2 Y338,3 Y338,4 Y338,5 Y338,6 Y339,0
 Y339,1 Y339,2 Y339,3 Y339,4 Y339,5 Y339,6 Y340,0 Y340,1 Y340,2 Y340,3 Y340,4 Y340,5 Y340,6 Y341,0 Y341,1
 Y341,2 Y341,3 Y341,4 Y341,5 Y341,6 Y342,0 Y342,1 Y342,2 Y342,3 Y342,4 Y342,5 Y342,6 Y343,0 Y343,1 Y343,2
 Y343,3 Y343,4 Y343,5 Y343,6 Y344,0 Y344,1 Y344,2 Y344,3 Y344,4 Y344,5 Y344,6 Y345,0 Y345,1 Y345,2 Y345,3
 Y345,4 Y345,5 Y345,6 Y346,0 Y346,1 Y346,2 Y346,3 Y346,4 Y346,5 Y346,6 Y347,0 Y347,1 Y347,2 Y347,3 Y347,4
 Y347,5 Y347,6 Y348,0 Y348,1 Y348,2 Y348,3 Y348,4 Y348,5 Y348,6 Y349,0 Y349,1 Y349,2 Y349,3 Y349,4 Y349,5
 Y349,6 Y350,0 Y350,1 Y350,2 Y350,3 Y350,4 Y350,5 Y350,6 Y351,0 Y351,1 Y351,2 Y351,3 Y351,4 Y351,5 Y351,6
 Y352,0 Y352,1 Y352,2 Y352,3 Y352,4 Y352,5 Y352,6 Y353,0 Y353,1 Y353,2 Y353,3 Y353,4 Y353,5 Y353,6 Y354,0
 Y354,1 Y354,2 Y354,3 Y354,4 Y354,5 Y354,6 Y355,0 Y355,1 Y355,2 Y355,3 Y355,4 Y355,5 Y355,6 Y356,0 Y356,1
 Y356,2 Y356,3 Y356,4 Y356,5 Y356,6 Y357,0 Y357,1 Y357,2 Y357,3 Y357,4 Y357,5 Y357,6 Y358,0 Y358,1 Y358,2
 Y358,3 Y358,4 Y358,5 Y358,6 Y359,0 Y359,1 Y359,2 Y359,3 Y359,4 Y359,5 Y359,6 Y360,0 Y360,1 Y360,2 Y360,3
 Y360,4 Y360,5 Y360,6 Y361,0 Y361,1 Y361,2 Y361,3 Y361,4 Y361,5 Y361,6 Y362,0 Y362,1 Y362,2 Y362,3 Y362,4
 Y362,5 Y362,6 Y363,0 Y363,1 Y363,2 Y363,3 Y363,4 Y363,5 Y363,6 Y364,0 Y364,1 Y364,2 Y364,3 Y364,4 Y364,5
 Y364,6 Y365,0 Y365,1 Y365,2 Y365,3 Y365,4 Y365,5 Y365,6 Y366,0 Y366,1 Y366,2 Y366,3 Y366,4 Y366,5 Y366,6
 Y367,0 Y367,1 Y367,2 Y367,3 Y367,4 Y367,5 Y367,6 Y368,0 Y368,1 Y368,2 Y368,3 Y368,4 Y368,5 Y368,6 Y369,0
 Y369,1 Y369,2 Y369,3 Y369,4 Y369,5 Y369,6 Y370,0 Y370,1 Y370,2 Y370,3 Y370,4 Y370,5 Y370,6 Y371,0 Y371,1
 Y371,2 Y371,3 Y371,4 Y371,5 Y371,6 Y372,0 Y372,1 Y372,2 Y372,3 Y372,4 Y372,5 Y372,6 Y373,0 Y373,1 Y373,2
 Y373,3 Y373,4 Y373,5 Y373,6 Y374,0 Y374,1 Y374,2 Y374,3 Y374,4 Y374,5 Y374,6 Y375,0 Y375,1 Y375,2 Y375,3
 Y375,4 Y375,5 Y375,6 Y376,0 Y376,1 Y376,2 Y376,3 Y376,4 Y376,5 Y376,6 Y377,0 Y377,1 Y377,2 Y377,3 Y377,4
 Y377,5 Y377,6 Y378,0 Y378,1 Y378,2 Y378,3 Y378,4 Y378,5 Y378,6 Y379,0 Y379,1 Y379,2 Y379,3 Y379,4 Y379,5
 Y379,6 Y380,0 Y380,1 Y380,2 Y380,3 Y380,4 Y380,5 Y380,6 Y381,0 Y381,1 Y381,2 Y381,3 Y381,4 Y381,5 Y381,6
 Y382,0 Y382,1 Y382,2 Y382,3 Y382,4 Y382,5 Y382,6 Y383,0 Y383,1 Y383,2 Y383,3 Y383,4 Y383,5 Y383,6 Y384,0
 Y384,1 Y384,2 Y384,3 Y384,4 Y384,5 Y384,6 Y385,0 Y385,1 Y385,2 Y385,3 Y385,4 Y385,5 Y385,6 Y386,0 Y386,1
 Y386,2 Y386,3 Y386,4 Y386,5 Y386,6 Y387,0 Y387,1 Y387,2 Y387,3 Y387,4 Y387,5 Y387,6 Y388,0 Y388,1 Y388,2
 Y388,3 Y388,4 Y388,5 Y388,6 Y389,0 Y389,1 Y389,2 Y389,3 Y389,4 Y389,5 Y389,6 Y390,0 Y390,1 Y390,2 Y390,3
 Y390,4 Y390,5 Y390,6 Y391,0 Y391,1 Y391,2 Y391,3 Y391,4 Y391,5 Y391,6 Y392,0 Y392,1 Y392,2 Y392,3 Y392,4
 Y392,5 Y392,6 Y393,0 Y393,1 Y393,2 Y393,3 Y393,4 Y393,5 Y393,6 Y394,0 Y394,1 Y394,2 Y394,3 Y394,4 Y394,5
 Y394,6 Y395,0 Y395,1 Y395,2 Y395,3 Y395,4 Y395,5 Y395,6 Y396,0 Y396,1 Y396,2 Y396,3 Y396,4 Y396,5 Y396,6
 Y397,0 Y397,1 Y397,2 Y397,3 Y397,4 Y397,5 Y397,6 Y398,0 Y398,1 Y398,2 Y398,3 Y398,4 Y398,5 Y398,6 Y399,0
 Y399,1 Y399,2 Y399,3 Y399,4 Y399,5 Y399,6 Y400,0 Y400,1 Y400,2 Y400,3 Y400,4 Y400,5 Y400,6 Y401,0 Y401,1
 Y401,2 Y401,3 Y401,4 Y401,5 Y401,6 Y402,0 Y402,1 Y402,2 Y402,3 Y402,4 Y402,5 Y402,6 Y403,0 Y403,1 Y403,2
 Y403,3 Y403,4 Y403,5 Y403,6 Y404,0 Y404,1 Y404,2 Y404,3 Y404,4 Y404,5 Y404,6 Y405,0 Y405,1 Y405,2 Y405,3
 Y405,4 Y405,5 Y405,6 Y406,0 Y406,1 Y406,2 Y406,3 Y406,4 Y406,5 Y406,6 Y407,0 Y407,1 Y407,2 Y407,3 Y407,4
 Y407,5 Y407,6 Y408,0 Y408,1 Y408,2 Y408,3 Y408,4 Y408,5 Y408,6 Y409,0 Y409,1 Y409,2 Y409,3 Y409,4 Y409,5
 Y409,6 Y410,0 Y410,1 Y410,2 Y410,3 Y410,4 Y410,5 Y410,6 Y411,0 Y411,1 Y411,2 Y411,3 Y411,4 Y411,5 Y411,6
 Y412,0 Y412,1 Y412,2 Y412,3 Y412,4 Y412,5 Y412,6 Y413,0 Y413,1 Y413,2 Y413,3 Y413,4 Y413,5 Y413,6 Y414,0
 Y414,1 Y414,2 Y414,3 Y414,4 Y414,5 Y414,6 Y415,0 Y415,1 Y415,2 Y415,3 Y415,4 Y415,5 Y415,6 Y416,0 Y416,1
 Y416,2 Y416,3 Y416,4 Y416,5 Y416,6 Y417,0 Y417,1 Y417,2 Y417,3 Y417,4 Y417,5 Y417,6 Y418,0 Y418,1 Y418,2
 Y418,3 Y418,4 Y418,5 Y418,6 Y419,0 Y419,1 Y419,2 Y419,3 Y419,4 Y419,5 Y419,6 Y420,0 Y420,1 Y420,2 Y420,3
 Y420,4 Y420,5 Y420,6 Y421,0 Y421,1 Y421,2 Y421,3 Y421,4 Y421,5 Y421,6 Y422,0 Y422,1 Y422,2 Y422,3 Y422,4
 Y422,5 Y422,6 Y423,0 Y423,1 Y423,2 Y423,3 Y423,4 Y423,5 Y423,6 Y424,0 Y424,1 Y424,2 Y424,3 Y424,4 Y424,5
 Y424,6 Y425,0 Y425,1 Y425,2 Y425,3 Y425,4 Y425,5 Y425,6 Y426,0 Y426,1 Y426,2 Y426,3 Y426,4 Y426,5 Y426,6
 Y427,0 Y427,1 Y427,2 Y427,3 Y427,4 Y427,5 Y427,6 Y428,0 Y428,1 Y428,2 Y428,3 Y428,4 Y428,5 Y428,6 Y429,0
 Y429,1 Y429,2 Y429,3 Y429,4 Y429,5 Y429,6 Y430,0 Y430,1 Y430,2 Y430,3 Y430,4 Y430,5 Y430,6 Y431,0 Y431,1
 Y431,2 Y431,3 Y431,4 Y431,5 Y431,6 Y432,0 Y432,1 Y432,2 Y432,3 Y432,4 Y432,5 Y432,6 Y433,0 Y433,1 Y433,2
 Y433,3 Y433,4 Y433,5 Y433,6 Y434,0 Y434,1 Y434,2 Y434,3 Y434,4 Y434,5 Y434,6 Y435,0 Y435,1 Y435,2 Y435,3
 Y435,4 Y435,5 Y435,6 Y436,0 Y436,1 Y436,2 Y436,3 Y436,4 Y436,5 Y436,6 Y437,0 Y437,1 Y437,2 Y437,3 Y437,4
 Y437,5 Y437,6 Y438,0 Y438,1 Y438,2 Y438,3 Y438,4 Y438,5 Y438,6 Y439,0 Y439,1 Y439,2 Y439,3 Y439,4 Y439,5
 Y439,6 Y440,0 Y440,1 Y440,2 Y440,3 Y440,4 Y440,5 Y440,6 Y441,0 Y441,1 Y441,2 Y441,3 Y441,4 Y441,5 Y441,6
 Y442,0 Y442,1 Y442,2 Y442,3 Y442,4 Y442,5 Y442,6 Y443,0 Y443,1 Y443,2 Y443,3 Y443,4 Y443,5 Y443,6 Y444,0
 Y444,1 Y444,2 Y444,3 Y444,4 Y444,5 Y444,6 Y445,0 Y445,1 Y445,2 Y445,3 Y445,4 Y445,5 Y445,6 Y446,0 Y446,1
 Y446,2 Y446,3 Y446,4 Y446,5 Y446,6 Y447,0 Y447,1 Y447,2 Y447,3 Y447,4 Y447,5 Y447,6 Y448,0 Y448,1 Y448,2
 Y448,3 Y448,4 Y448,5 Y448,6 Y449,0 Y449,1 Y449,2 Y449,3 Y449,4 Y449,5 Y449,6 Y450,0 Y450,1 Y450,2 Y450,3
 Y450,4 Y450,5 Y450,6 Y451,0 Y451,1 Y451,2 Y451,3 Y451,4 Y451,5 Y451,6 Y452,0 Y452,1 Y452,2 Y452,3 Y452,4
 Y452,5 Y452,6 Y453,0 Y453,1 Y453,2 Y453,3 Y453,4 Y453,5 Y453,6 Y454,0 Y454,1 Y454,2 Y454,3 Y454,4 Y454,5
 Y454,6 Y455,0 Y455,1 Y455,2 Y455,3 Y455,4 Y455,5 Y455,6 Y456,0 Y456,1 Y456,2 Y456,3 Y456,4 Y456,5 Y456,6
 Y457,0 Y457,1 Y457,2 Y457,3 Y457,4 Y457,5 Y457,6 Y458,0 Y458,1 Y458,2 Y458,3 Y458,4 Y458,5 Y458,6 Y459,0
 Y459,1 Y459,2 Y459,3 Y459,4 Y459,5 Y459,6 Y460,0 Y460,1 Y460,2 Y460,3 Y460,4 Y460,5 Y460,6 Y461,0 Y461,1
 Y461,2 Y461,3 Y461,4 Y461,5 Y461,6 Y462,0 Y462,1 Y462,2 Y462,3 Y462,4 Y462,5 Y462,6 Y463,0 Y463,1 Y463,2
 Y463,3 Y463,4 Y463,5 Y463,6 Y464,0 Y464,1 Y464,2 Y464,3 Y464,4 Y464,5 Y464,6 Y465,0 Y465,1 Y465,2 Y465,3
 Y465,4 Y465,5 Y465,6 Y466,0 Y466,1 Y466,2 Y466,3 Y466,4 Y466,5 Y466,6 Y467,0 Y467,1 Y467,2 Y467,3 Y467,4
 Y467,5 Y467,6 Y468,0 Y468,1 Y468,2 Y468,3 Y468,4 Y468,5 Y468,6 Y469,0 Y469,1 Y469,2 Y469,3 Y469,4 Y469,5
 Y469,6 Y470,0 Y470,1 Y470,2 Y470,3 Y470,4 Y470,5 Y470,6 Y471,0 Y471,1 Y471,2 Y471,3 Y471,4 Y471,5 Y471,6
 Y472,0 Y472,1 Y472,2 Y472,3 Y472,4 Y472,5 Y472,6 Y473,0 Y473,1 Y473,2 Y473,3 Y473,4 Y473,5 Y473,6 Y474,0
 Y474,1 Y474,2 Y474,3 Y474,4 Y474,5 Y474,6 Y475,0 Y475,1 Y475,2 Y475,3 Y475,4 Y475,5 Y475,6 Y476,0 Y476,1
 Y476,2 Y476,3 Y476,4 Y476,5 Y476,6 Y477,0 Y477,1 Y477,2 Y477,3 Y477,4 Y477,5 Y477,6 Y478,0 Y478,1 Y478,2
 Y478,3 Y478,4 Y478,5 Y478,6 Y479,0 Y479,1 Y479,2 Y479,3 Y479,4 Y479,5 Y479,6 Y480,0 Y480,1 Y480,2 Y480,3
 Y480,4 Y480,5 Y480,6 Y481,0 Y481,1 Y481,2 Y481,3 Y481,4 Y481,5 Y481,6 Y482,0 Y482,1 Y482,2 Y482,3 Y482,4
 Y482,5 Y482,6 Y483,0 Y483,1 Y483,2 Y483,3 Y483,4 Y483,5 Y483,6 Y484,0 Y484,1 Y484,2 Y484,3 Y484,4 Y484,5
 Y484,6 Y485,0 Y485,1 Y485,2 Y485,3 Y485,4 Y485,5 Y485,6 Y486,0 Y486,1 Y486,2 Y486,3 Y486,4 Y486,5 Y486,6
 Y487,0 Y487,1 Y487,2 Y487,3 Y487,4 Y487,5 Y487,6 Y488,0 Y488,1 Y488,2 Y488,3 Y488,4 Y488,5 Y488,6 Y489,0
 Y489,1 Y489,2 Y489,3 Y489,4 Y489,5 Y489,6 Y490,0 Y490,1 Y490,2 Y490,3 Y490,4 Y490,5 Y490,6 Y491,0 Y491,1
 Y491,2 Y491,3 Y491,4 Y491,5 Y491,6 Y492,0 Y492,1 Y492,2 Y492,3 Y492,4 Y492,5 Y492,6 Y493,0 Y493,1 Y493,2
 Y493,3 Y493,4 Y493,5 Y493,6 Y494,0 Y494,1 Y494,2 Y494,3 Y494,4 Y494,5 Y494,6 Y495,0 Y495,1 Y495,2 Y495,3
 Y495,4 Y495,5 Y495,6 Y496,0 Y496,1 Y496,2 Y496,3 Y496,4 Y496,5 Y496,6 Y497,0 Y497,1 Y497,2 Y497,3 Y497,4
 Y497,5 Y497,6 Y498,0 Y498,1 Y498,2 Y498,3 Y498,4 Y498,5 Y498,6 Y499,0 Y499,1 Y499,2 Y499,3 Y499,4 Y499,5
 Y499,6 Y500,0 Y500,1 Y500,2 Y500,3 Y500,4 Y500,5 Y500,6 Y501,0 Y501,1 Y501,2 Y501,3 Y501,4 Y501,5 Y501,6
 Y502,0 Y502,1 Y502,2 Y502,3 Y502,4 Y502,5 Y502,6 Y503,0 Y503,1 Y503,2 Y503,3 Y503,4 Y503,5 Y503,6 Y504,0
 Y504,1 Y504,2 Y504,3 Y504,4 Y504,5 Y504,6 Y505,0 Y505,1 Y505,2 Y505,3 Y505,4 Y505,5 Y505,6 Y506,0 Y506,1
 Y506,2 Y506,3 Y506,4 Y506,5 Y506,6 Y507,0 Y507,1 Y507,2 Y507,3 Y507,4 Y507,5 Y507,6 Y508,0 Y508,1 Y508,2
 Y508,3 Y508,4 Y508,5 Y508,6 Y509,0 Y509,1 Y509,2 Y509,3 Y509,4 Y509,5 Y509,6 Y510,0 Y510,1 Y510,2 Y510,3
 Y510,4 Y510,5 Y510,6 Y511,0 Y511,1 Y511,2 Y511,3 Y511,4 Y511,5 Y511,6 Y512,0 Y512,1 Y512,2 Y512,3 Y512,4
 Y512,5 Y512,6 Y513,0 Y513,1 Y513,2 Y513,3 Y513,4 Y513,5 Y513,6 Y514,0 Y514,1 Y514,2 Y514,3 Y514,4 Y514,5
 Y514,6 Y515,0 Y515,1 Y515,2 Y515,3 Y515,4 Y515,5 Y515,6 Y516,0 Y516,1 Y516,2 Y516,3 Y516,4 Y516,5 Y516,6
 Y517,0 Y517,1 Y517,2 Y517,3 Y517,4 Y517,5 Y517,6 Y518,0 Y518,1 Y518,2 Y518,3 Y518,4 Y518,5 Y518,6 Y519,0
 Y519,1 Y519,2 Y519,3 Y519,4 Y519,5 Y519,6 Y520,0 Y520,1 Y520,2 Y520,3 Y520,4 Y520,5 Y520,6 Y521,0 Y521,1
 Y521,2 Y521,3 Y521,4 Y521,5 Y521,6 Y522,0 Y522,1 Y522,2 Y522,3 Y522,4 Y522,5 Y522,6 Y523,0 Y523,1 Y523,2
 Y523,3 Y523,4 Y523,5 Y523,6 Y524,0 Y524,1 Y524,2 Y524,3 Y524,4 Y524,5 Y524,6 Y525,0 Y525,1 Y525,2 Y525,3
 Y525,4 Y525,5 Y525,6 Y526,0 Y526,1 Y526,2 Y526,3 Y526,4 Y526,5 Y526,6 Y527,0 Y527,1 Y527,2 Y527,3 Y527,4
 Y527,5 Y527,6 Y528,0 Y528,1 Y528,2 Y528,3 Y528,4 Y528,5 Y528,6 Y529,0 Y529,1 Y529,2 Y529,3 Y529,4 Y529,5
 Y529,6 Y530,0 Y530,1 Y530,2 Y530,3 Y530,4 Y530,5 Y530,6 Y531,0 Y531,1 Y531,2 Y531,3 Y531,4 Y531,5 Y531,6
 Y532,0 Y532,1 Y532,2 Y532,3 Y532,4 Y532,5 Y532,6 Y533,0 Y533,1 Y533,2 Y533,3 Y533,4 Y533,5 Y533,6 Y534,0
 Y534,1 Y534,2 Y534,3 Y534,4 Y534,5 Y534,6 Y535,0 Y535,1 Y535,2 Y535,3 Y535,4 Y535,5 Y535,6 Y536,0 Y536,1
 Y536,2 Y536,3 Y536,4 Y536,5 Y536,6 Y537,0 Y537,1 Y537,2 Y537,3 Y537,4 Y537,5 Y537,6 Y538,0 Y538,1 Y538,2
 Y538,3 Y538,4 Y538,5 Y538,6 Y539,0 Y539,1 Y539,2 Y539,3 Y539,4 Y539,5 Y539,6 Y540,0 Y540,1 Y540,2 Y540,3
 Y540,4 Y540,5 Y540,6 Y541,0 Y541,1 Y541,2 Y541,3 Y541,4 Y541,5 Y541,6 Y542,0 Y542,1 Y542,2 Y542,3 Y542,4
 Y542,5 Y542,6 Y543,0 Y543,1 Y543,2 Y543,3 Y543,4 Y543,5 Y543,6 Y544,0 Y544,1 Y544,2 Y544,3 Y544,4 Y544,5
 Y544,6 Y545,0 Y545,1 Y545,2 Y545,3 Y545,4 Y545,5 Y545,6 Y546,0 Y546,1 Y546,2 Y546,3 Y546,4 Y546,5 Y546,6
 Y547,0 Y547,1 Y547,2 Y547,3 Y547,4 Y547,5 Y547,6 Y548,0 Y548,1 Y548,2 Y548,3 Y548,4 Y548,5 Y548,6 Y549,0
 Y549,1 Y549,2 Y549,3 Y549,4 Y549,5 Y549,6 Y550,0 Y550,1 Y550,2 Y550,3 Y550,4 Y550,5 Y550,6 Y551,0 Y551,1
 Y551,2 Y551,3 Y551,4 Y551,5 Y551,6 Y552,0 Y552,1 Y552,2 Y552,3 Y552,4 Y552,5 Y552,6 Y553,0 Y553,1 Y553,2
 Y553,3 Y553,4 Y553,5 Y553,6 Y554,0 Y554,1 Y554,2 Y554,3 Y554,4 Y554,5 Y554,6 Y555,0 Y555,1 Y555,2 Y555,3
 Y555,4 Y555,5 Y555,6 Y556,0 Y556,1 Y556,2 Y556,3 Y556,4 Y556,5 Y556,6 Y557,0 Y557,1 Y557,2 Y557,3 Y557,4
 Y557,5 Y557,6 Y558,0 Y558,1 Y558,2 Y558,3 Y558,4 Y558,5 Y558,6 Y559,0 Y559,1 Y559,2 Y559,3 Y559,4 Y559,5
 Y559,6 Y560,0 Y560,1 Y560,2 Y560,3 Y560,4 Y560,5 Y560,6 Y561,0 Y561,1 Y561,2 Y561,3 Y561,4 Y561,5 Y561,6
 Y562,0 Y562,1 Y562,2 Y562,3 Y562,4 Y562,5 Y562,6 Y563,0 Y563,1 Y563,2 Y563,3 Y563,4 Y563,5 Y563,6 Y564,0
 Y564,1 Y564,2 Y564,3 Y564,4 Y564,5 Y564,6 Y565,0 Y565,1 Y565,2 Y565,3 Y565,4 Y565,5 Y565,6 Y566,0 Y566,1
 Y566,2 Y566,3 Y566,4 Y566,5 Y566,6 Y567,0 Y567,1 Y567,2 Y567,3 Y567,4 Y567,5 Y567,6 Y568,0 Y568,1 Y568,2
 Y568,3 Y568,4 Y568,5 Y568,6 Y569,0 Y569,1 Y569,2 Y569,3 Y569,4 Y569,5 Y569,6 Y570,0 Y570,1 Y570,2 Y570,3
 Y570,4 Y570,5 Y570,6 Y571,0 Y571,1 Y571,2 Y571,3 Y571,4 Y571,5 Y571,6 Y572,0 Y572,1 Y572,2 Y572,3 Y572,4
 Y572,5 Y572,6 Y573,0 Y573,1 Y573,2 Y573,3 Y573,4 Y573,5 Y573,6 Y574,0 Y574,1 Y574,2 Y574,3 Y574,4 Y574,5
 Y574,6 Y575,0 Y575,1 Y575,2 Y575,3 Y575,4 Y575,5 Y575,6 Y576,0 Y576,1 Y576,2 Y576,3 Y576,4 Y576,5 Y576,6
 Y577,0 Y577,1 Y577,2 Y577,3 Y577,4 Y577,5 Y577,6 Y578,0 Y578,1 Y578,2 Y578,3 Y578,4 Y578,5 Y578,6 Y579,0
 Y579,1 Y579,2 Y579,3 Y579,4 Y579,5 Y579,6 Y580,0 Y580,1 Y580,2 Y580,3 Y580,4 Y580,5 Y580,6 Y581,0 Y581,1
 Y581,2 Y581,3 Y581,4 Y581,5 Y581,6 Y582,0 Y582,1 Y582,2 Y582,3 Y582,4 Y582,5 Y582,6 Y583,0 Y583,1 Y583,2
 Y583,3 Y583,4 Y583,5 Y583,6 Y584,0 Y584,1 Y584,2 Y584,3 Y584,4 Y584,5 Y584,6 Y585,0 Y585,1 Y585,2 Y585,3
 Y585,4 Y585,5 Y585,6 Y586,0 Y586,1 Y586,2 Y586,3 Y586,4 Y586,5 Y586,6 Y587,0 Y587,1 Y587,2 Y587,3 Y587,4
 Y587,5 Y587,6 Y588,0 Y588,1 Y588,2 Y588,3 Y588,4 Y588,5 Y588,6 Y589,0 Y589,1 Y589,2 Y589,3 Y589,4 Y589,5
 Y589,6 Y590,0 Y590,1 Y590,2 Y590,3 Y590,4 Y590,5 Y590,6 Y591,0 Y591,1 Y591,2 Y591,3 Y591,4 Y591,5 Y591,6
 Y592,0 Y592,1 Y592,2 Y592,3 Y592,4 Y592,5 Y592,6 Y593,0 Y593,1 Y593,2 Y593,3 Y593,4 Y593,5 Y593,6 Y594,0
 Y594,1 Y594,2 Y594,3 Y594,4 Y594,5 Y594,6 Y595,0 Y595,1 Y595,2 Y595,3 Y595,4 Y595,5 Y595,6 Y596,0 Y596,1
 Y596,2 Y596,3 Y596,4 Y596,5 Y596,6 Y597,0 Y597,1 Y597,2 Y597,3 Y597,4 Y597,5 Y597,6 Y598,0 Y598,1 Y598,2
 Y598,3 Y598,4 Y598,5 Y598,6 Y599,0 Y599,1 Y599,2 Y599,3 Y599,4 Y599,5 Y599,6 Y600,0 Y600,1 Y600,2 Y600,3
 Y600,4 Y600,5 Y600,6 Y601,0 Y601,1 Y601,2 Y601,3 Y601,4 Y601,5 Y601,6 Y602,0 Y602,1 Y602,2 Y602,3 Y602,4
 Y602,5 Y602,6 Y603,0 Y603,1 Y603,2 Y603,3 Y603,4 Y603,5 Y603,6 Y604,0 Y604,1 Y604,2 Y604,3 Y604,4 Y604,5
 Y604,6 Y605,0 Y605,1 Y605,2 Y605,3 Y605,4 Y605,5 Y605,6 Y606,0 Y606,1 Y606,2 Y606,3 Y606,4 Y606,5 Y606,6
 Y607,0 Y607,1 Y607,2 Y607,3 Y607,4 Y607,5 Y607,6 Y608,0 Y608,1 Y608,2 Y608,3 Y608,4 Y608,5 Y608,6 Y609,0
 Y609,1 Y609,2 Y609,3 Y609,4 Y609,5 Y609,6 Y610,0 Y610,1 Y610,2 Y610,3 Y610,4 Y610,5 Y610,6 Y611,0 Y611,1
 Y611,2 Y611,3 Y611,4 Y611,5 Y611,6 Y612,0 Y612,1 Y612,2 Y612,3 Y612,4 Y612,5 Y612,6 Y613,0 Y613,1 Y613,2
 Y613,3 Y613,4 Y613,5 Y613,6 Y614,0 Y614,1 Y614,2 Y614,3 Y614,4 Y614,5 Y614,6 Y615,0 Y615,1 Y615,2 Y615,3
 Y615,4 Y615,5 Y615,6 Y616,0 Y616,1 Y616,2 Y616,3 Y616,4 Y616,5 Y616,6 Y617,0 Y617,1 Y617,2 Y617,3 Y617,4
 Y617,5 Y617,6 Y618,0 Y618,1 Y618,2 Y618,3 Y618,4 Y618,5 Y618,6 Y619,0 Y619,1 Y619,2 Y619,3 Y619,4 Y619,5
 Y619,6 Y620,0 Y620,1 Y620,2 Y620,3 Y620,4 Y620,5 Y620,6 Y621,0 Y621,1 Y621,2 Y621,3 Y621,4 Y621,5 Y621,6
 Y622,0 Y622,1 Y622,2 Y622,3 Y622,4 Y622,5 Y622,6 Y623,0 Y623,1 Y623,2 Y623,3 Y623,4 Y623,5 Y623,6 Y624,0
 Y624,1 Y624,2 Y624,3 Y624,4 Y624,5 Y624,6 Y625,0 Y625,1 Y625,2 Y625,3 Y625,4 Y625,5 Y625,6 Y626,0 Y626,1
 Y626,2 Y626,3 Y626,4 Y626,5 Y626,6 Y627,0 Y627,1 Y627,2 Y627,3 Y627,4 Y627,5 Y627,6 Y628,0 Y628,1 Y628,2
 Y628,3 Y628,4 Y628,5 Y628,6 Y629,0 Y629,1 Y629,2 Y629,3 Y629,4 Y629,5 Y629,6 Y630,0 Y630,1 Y630,2 Y630,3
 Y630,4 Y630,5 Y630,6 Y631,0 Y631,1 Y631,2 Y631,3 Y631,4 Y631,5 Y631,6 Y632,0 Y632,1 Y632,2 Y632,3 Y632,4
 Y632,5 Y632,6 Y633,0 Y633,1 Y633,2 Y633,3 Y633,4 Y633,5 Y633,6 Y634,0 Y634,1 Y634,2 Y634,3 Y634,4 Y634,5
 Y634,6 Y635,0 Y635,1 Y635,2 Y635,3 Y635,4 Y635,5 Y635,6 Y636,0 Y636,1 Y636,2 Y636,3 Y636,4 Y636,5 Y636,6
 Y637,0 Y637,1 Y637,2 Y637,3 Y637,4 Y637,5 Y637,6 Y638,0 Y638,1 Y638,2 Y638,3 Y638,4 Y638,5 Y638,6 Y639,0
 Y639,1 Y639,2 Y639,3 Y639,4 Y639,5 Y639,6 Y640,0 Y640,1 Y640,2 Y640,3 Y640,4 Y640,5 Y640,6 Y641,0 Y641,1
 Y641,2 Y641,3 Y641,4 Y641,5 Y641,6 Y642,0 Y642,1 Y642,2 Y642,3 Y642,4 Y642,5 Y642,6 Y643,0 Y643,1 Y643,2
 Y643,3 Y643,4 Y643,5 Y643,6 Y644,0 Y644,1 Y644,2 Y644,3 Y644,4 Y644,5 Y644,6 Y645,0 Y645,1 Y645,2 Y645,3
 Y645,4 Y645,5 Y645,6 Y646,0 Y646,1 Y646,2 Y646,3 Y646,4 Y646,5 Y646,6 Y647,0 Y647,1 Y647,2 Y647,3 Y647,4
 Y647,5 Y647,6 Y648,0 Y648,1 Y648,2 Y648,3 Y648,4 Y648,5 Y648,6 Y649,0 Y649,1 Y649,2 Y649,3 Y649,4 Y649,5
 Y649,6 Y650,0 Y650,1 Y650,2 Y650,3 Y650,4 Y650,5 Y650,6 Y651,0 Y651,1 Y651,2 Y651,3 Y651,4 Y651,5 Y651,6
 Y652,0 Y652,1 Y652,2 Y652,3 Y652,4 Y652,5 Y652,6 Y653,0 Y653,1 Y653,2 Y653,3 Y653,4 Y653,5 Y653,6 Y654,0
 Y654,1 Y654,2 Y654,3 Y654,4 Y654,5 Y654,6 Y655,0 Y655,1 Y655,2 Y655,3 Y655,4 Y655,5 Y655,6 Y656,0 Y656,1
 Y656,2 Y656,3 Y656,4 Y656,5 Y656,6 Y657,0 Y657,1 Y657,2 Y657,3 Y657,4 Y657,5 Y657,6 Y658,0 Y658,1 Y658,2
 Y658,3 Y658,4 Y658,5 Y658,6 Y659,0 Y659,1 Y659,2 Y659,3 Y659,4 Y659,5 Y659,6 Y660,0 Y660,1 Y660,2 Y660,3
 Y660,4 Y660,5 Y660,6 Y661,0 Y661,1 Y661,2 Y661,3 Y661,4 Y661,5 Y661,6 Y662,0 Y662,1 Y662,2 Y662,3 Y662,4
 Y662,5 Y662,6 Y663,0 Y663,1 Y663,2 Y663,3 Y663,4 Y663,5 Y663,6 Y664,0 Y664,1 Y664,2 Y664,3 Y664,4 Y664,5
 Y664,6 Y665,0 Y665,1 Y665,2 Y665,3 Y665,4 Y665,5 Y665,6 Y666,0 Y666,1 Y666,2 Y666,3 Y666,4 Y666,5 Y666,6
 Y667,0 Y667,1 Y667,2 Y667,3 Y667,4 Y667,5 Y667,6 Y668,0 Y668,1 Y668,2 Y668,3 Y668,4 Y668,5 Y668,6 Y669,0
 Y669,1 Y669,2 Y669,3 Y669,4 Y669,5 Y669,6 Y670,0 Y670,1 Y670,2 Y670,3 Y670,4 Y670,5 Y670,6 Y671,0 Y671,1
 Y671,2 Y671,3 Y671,4 Y671,5 Y671,6 Y672,0 Y672,1 Y672,2 Y672,3 Y672,4 Y672,5 Y672,6 Y673,0 Y673,1 Y673,2
 Y673,3 Y673,4 Y673,5 Y673,6 Y674,0 Y674,1 Y674,2 Y674,3 Y674,4 Y674,5 Y674,6 Y675,0 Y675,1 Y675,2 Y675,3
 Y675,4 Y675,5 Y675,6 Y676,0 Y676,1 Y676,2 Y676,3 Y676,4 Y676,5 Y676,6 Y677,0 Y677,1 Y677,2 Y677,3 Y677,4
 Y677,5 Y677,6 Y678,0 Y678,1 Y678,2 Y678,3 Y678,4 Y678,5 Y678,6 Y679,0 Y679,1 Y679,2 Y679,3 Y679,4 Y679,5
 Y679,6 Y680,0 Y680,1 Y680,2 Y680,3 Y680,4 Y680,5 Y680,6 Y681,0 Y681,1 Y681,2 Y681,3 Y681,4 Y681,5 Y681,6
 Y682,0 Y682,1 Y682,2 Y682,3 Y682,4 Y682,5 Y682,6 Y683,0 Y683,1 Y683,2 Y683,3 Y683,4 Y683,5 Y683,6 Y684,0
 Y684,1 Y684,2 Y684,3 Y684,4 Y684,5 Y684,6 Y685,0 Y685,1 Y685,2 Y685,3 Y685,4 Y685,5 Y685,6 Y686,0 Y686,1
 Y686,2 Y686,3 Y686,4 Y686,5 Y686,6 Y687,0 Y687,1 Y687,2 Y687,3 Y687,4 Y687,5 Y687,6 Y688,0 Y688,1 Y688,2
 Y688,3 Y688,4 Y688,5 Y688,6 Y689,0 Y689,1 Y689,2 Y689,3 Y689,4 Y689,5 Y689,6 Y690,0 Y690,1 Y690,2 Y690,3
 Y690,4 Y690,5 Y690,6 Y691,0 Y691,1 Y691,2 Y691,3 Y691,4 Y691,5 Y691,6 Y692,0 Y692,1 Y692,2 Y692,3 Y692,4
 Y692,5 Y692,6 Y693,0 Y693,1 Y693,2 Y693,3 Y693,4 Y693,5 Y693,6 Y694,0 Y694,1 Y694,2 Y694,3 Y694,4 Y694,5
 Y694,6 Y695,0 Y695,1 Y695,2 Y695,3 Y695,4 Y695,5 Y695,6 Y696,0 Y696,1 Y696,2 Y696,3 Y696,4 Y696,5 Y696,6
 Y697,0 Y697,1 Y697,2 Y697,3 Y697,4 Y697,5 Y697,6 Y698,0 Y698,1 Y698,2 Y698,3 Y698,4 Y698,5 Y698,6 Y699,0
 Y699,1 Y699,2 Y699,3 Y699,4 Y699,5 Y699,6 Y700,0 Y700,1 Y700,2 Y700,3 Y700,4 Y700,5 Y700,6 Y701,0 Y701,1
 Y701,2 Y701,3 Y701,4 Y701,5 Y701,6 Y702,0 Y702,1 Y702,2 Y702,3 Y702,4 Y702,5 Y702,6 Y703,0 Y703,1 Y703,2
 Y703,3 Y703,4 Y703,5 Y703,6 Y704,0 Y704,1 Y704,2 Y704,3 Y704,4 Y704,5 Y704,6 Y705,0 Y705,1 Y705,2 Y705,3
 Y705,4 Y705,5 Y705,6 Y706,0 Y706,1 Y706,2 Y706,3 Y706,4 Y706,5 Y706,6 Y707,0 Y707,1 Y707,2 Y707,3 Y707,4
 Y707,5 Y707,6 Y708,0 Y708,1 Y708,2 Y708,3 Y708,4 Y708,5 Y708,6 Y709,0 Y709,1 Y709,2 Y709,3 Y709,4 Y709,5
 Y709,6 Y710,0 Y710,1 Y710,2 Y710,3 Y710,4 Y710,5 Y710,6 Y711,0 Y711,1 Y711,2 Y711,3 Y711,4 Y711,5 Y711,6
 Y712,0 Y712,1 Y712,2 Y712,3 Y712,4 Y712,5 Y712,6 Y713,0 Y713,1 Y713,2 Y713,3 Y713,4 Y713,5 Y713,6 Y714,0
 Y714,1 Y714,2 Y714,3 Y714,4 Y714,5 Y714,6 Y715,0 Y715,1 Y715,2 Y715,3 Y715,4 Y715,5 Y715,6 Y716,0 Y716,1
 Y716,2 Y716,3 Y716,4 Y716,5 Y716,6 Y717,0 Y717,1 Y717,2 Y717,3 Y717,4 Y717,5 Y717,6 Y718,0 Y718,1 Y718,2
 Y718,3 Y718,4 Y718,5 Y718,6 Y719,0 Y719,1 Y719,2 Y719,3 Y719,4 Y719,5 Y719,6 Y720,0 Y720,1 Y720,2 Y720,3
 Y720,4 Y720,5 Y720,6 Y721,0 Y721,1 Y721,2 Y721,3 Y721,4 Y721,5 Y721,6 Y722,0 Y722,1 Y722,2 Y722,3 Y722,4
 Y722,5 Y722,6 Y723,0 Y723,1 Y723,2 Y723,3 Y723,4 Y723,5 Y723,6 Y724,0 Y724,1 Y724,2 Y724,3 Y724,4 Y724,5
 Y724,6 Y725,0 Y725,1 Y725,2 Y725,3 Y725,4 Y725,5 Y725,6 Y726,0 Y726,1 Y726,2 Y726,3 Y726,4 Y726,5 Y726,6
 Y727,0 Y727,1 Y727,2 Y727,3 Y727,4 Y727,5 Y727,6 Y728,0 Y728,1 Y728,2 Y728,3 Y728,4 Y728,5 Y728,6 Y729,0
 Y729,1 Y729,2 Y729,3 Y729,4 Y729,5 Y729,6 Y730,0 Y730,1 Y730,2 Y730,3 Y730,4 Y730,5 Y730,6 Y731,0 Y731,1
 Y731,2 Y731,3 Y731,4 Y731,5 Y731,6 Y732,0 Y732,1 Y732,2 Y732,3 Y732,4 Y732,5 Y732,6 Y733,0 Y733,1 Y733,2
 Y733,3 Y733,4 Y733,5 Y733,6 Y734,0 Y734,1 Y734,2 Y734,3 Y734,4 Y734,5 Y734,6 Y735,0 Y735,1 Y735,2 Y735,3
 Y735,4 Y735,5 Y735,6 Y736,0 Y736,1 Y736,2 Y736,3 Y736,4 Y736,5 Y736,6 Y737,0 Y737,1 Y737,2 Y737,3 Y737,4
 Y737,5 Y737,6 Y738,0 Y738,1 Y738,2 Y738,3 Y738,4 Y738,5 Y738,6 Y739,0 Y739,1 Y739,2 Y739,3 Y739,4 Y739,5
 Y739,6 Y740,0 Y740,1 Y740,2 Y740,3 Y740,4 Y740,5 Y740,6 Y741,0 Y741,1 Y741,2 Y741,3 Y741,4 Y741,5 Y741,6
 Y742,0 Y742,1 Y742,2 Y742,3 Y742,4 Y742,5 Y742,6 Y743,0 Y743,1 Y743,2 Y743,3 Y743,4 Y743,5 Y743,6 Y744,0
 Y744,1 Y744,2 Y744,3 Y744,4 Y744,5 Y744,6 Y745,0 Y745,1 Y745,2 Y745,3 Y745,4 Y745,5 Y745,6 Y746,0 Y746,1
 Y746,2 Y746,3 Y746,4 Y746,5 Y746,6 Y747,0 Y747,1 Y747,2 Y747,3 Y747,4 Y747,5 Y747,6 Y748,0 Y748,1 Y748,2
 Y748,3 Y748,4 Y748,5 Y748,6 Y749,0 Y749,1 Y749,2 Y749,3 Y749,4 Y749,5 Y749,6 Y750,0 Y750,1 Y750,2 Y750,3
 Y750,4 Y750,5 Y750,6 Y751,0 Y751,1 Y751,2 Y751,3 Y751,4 Y751,5 Y751,6 Y752,0 Y752,1 Y752,2 Y752,3 Y752,4
 Y752,5 Y752,6 Y753,0 Y753,1 Y753,2 Y753,3 Y753,4 Y753,5 Y753,6 Y754,0 Y754,1 Y754,2 Y754,3 Y754,4 Y754,5
 Y754,6 Y755,0 Y755,1 Y755,2 Y755,3 Y755,4 Y755,5 Y755,6 Y756,0 Y756,1 Y756,2 Y756,3 Y756,4 Y756,5 Y756,6
 Y757,0 Y757,1 Y757,2 Y757,3 Y757,4 Y757,5 Y757,6 Y758,0 Y758,1 Y758,2 Y758,3 Y758,4 Y758,5 Y758,6 Y759,0
 Y759,1 Y759,2 Y759,3 Y759,4 Y759,5 Y759,6 Y760,0 Y760,1 Y760,2 Y760,3 Y760,4 Y760,5 Y760,6 Y761,0 Y761,1
 Y761,2 Y761,3 Y761,4 Y761,5 Y761,6 Y762,0 Y762,1 Y762,2 Y762,3 Y762,4 Y762,5 Y762,6 Y763,0 Y763,1 Y763,2
 Y763,3 Y763,4 Y763,5 Y763,6 Y764,0 Y764,1 Y764,2 Y764,3 Y764,4 Y764,5 Y764,6 Y765,0 Y765,1 Y765,2 Y765,3
 Y765,4 Y765,5 Y765,6 Y766,0 Y766,1 Y766,2 Y766,3 Y766,4 Y766,5 Y766,6 Y767,0 Y767,1 Y767,2 Y767,3 Y767,4
 Y767,5 Y767,6 Y768,0 Y768,1 Y768,2 Y768,3 Y768,4 Y768,5 Y768,6 Y769,0 Y769,1 Y769,2 Y769,3 Y769,4 Y769,5
 Y769,6 Y770,0 Y770,1 Y770,2 Y770,3 Y770,4 Y770,5 Y770,6 Y771,0 Y771,1 Y771,2 Y771,3 Y771,4 Y771,5 Y771,6
 Y772,0 Y772,1 Y772,2 Y772,3 Y772,4 Y772,5 Y772,6 Y773,0 Y773,1 Y773,2 Y773,3 Y773,4 Y773,5 Y773,6 Y774,0
 Y774,1 Y774,2 Y774,3 Y774,4 Y774,5 Y774,6 Y775,0 Y775,1 Y775,2 Y775,3 Y775,4 Y775,5 Y775,6 Y776,0 Y776,1
 Y776,2 Y776,3 Y776,4 Y776,5 Y776,6 Y777,0 Y777,1 Y777,2 Y777,3 Y777,4 Y777,5 Y777,6 Y778,0 Y778,1 Y778,2
 Y778,3 Y778,4 Y778,5 Y778,6 Y779,0 Y779,1 Y779,2 Y779,3 Y779,4 Y779,5 Y779,6 Y780,0 Y780,1 Y780,2 Y780,3
 Y780,4 Y780,5 Y780,6 Y781,0 Y781,1 Y781,2 Y781,3 Y781,4 Y781,5 Y781,6 Y782,0 Y782,1 Y782,2 Y782,3 Y782,4
 Y782,5 Y782,6 Y783,0 Y783,1 Y783,2 Y783,3 Y783,4 Y783,5 Y783,6 Y784,0 Y784,1 Y784,2 Y784,3 Y784,4 Y784,5
 Y784,6 Y785,0 Y785,1 Y785,2 Y785,3 Y785,4 Y785,5 Y785,6 Y786,0 Y786,1 Y786,2 Y786,3 Y786,4 Y786,5 Y786,6
 Y787,0 Y787,1 Y787,2 Y787,3 Y787,4 Y787,5 Y787,6 Y788,0 Y788,1 Y788,2 Y788,3 Y788,4 Y788,5 Y788,6 Y789,0
 Y789,1 Y789,2 Y789,3 Y789,4 Y789,5 Y789,6 Y790,0 Y790,1 Y790,2 Y790,3 Y790,4 Y790,5 Y790,6 Y791,0 Y791,1
 Y791,2 Y791,3 Y791,4 Y791,5 Y791,6 Y792,0 Y792,1 Y792,2 Y792,3 Y792,4 Y792,5 Y792,6 Y793,0 Y793,1 Y793,2
 Y793,3 Y793,4 Y793,5 Y793,6 Y794,0 Y794,1 Y794,2 Y794,3 Y794,4 Y794,5 Y794,6 Y795,0 Y795,1 Y795,2 Y795,3
 Y795,4 Y795,5 Y795,6 Y796,0 Y796,1 Y796,2 Y796,3 Y796,4 Y796,5 Y796,6 Y797,0 Y797,1 Y797,2 Y797,3 Y797,4
 Y797,5 Y797,6 Y798,0 Y798,1 Y798,2 Y798,3 Y798,4 Y798,5 Y798,6 Y799,0 Y799,1 Y799,2 Y799,3 Y799,4 Y799,5
 Y799,6 Y800,0 Y800,1 Y800,2 Y800,3 Y800,4 Y800,5 Y800,6 Y801,0 Y801,1 Y801,2 Y801,3 Y801,4 Y801,5 Y801,6
 Y802,0 Y802,1 Y802,2 Y802,3 Y802,4 Y802,5 Y802,6 Y803,0 Y803,1 Y803,2 Y803,3 Y803,4 Y803,5 Y803,6 Y804,0
 Y804,1 Y804,2 Y804,3 Y804,4 Y804,5 Y804,6 Y805,0 Y805,1 Y805,2 Y805,3 Y805,4 Y805,5 Y805,6 Y806,0 Y806,1
 Y806,2 Y806,3 Y806,4 Y806,5 Y806,6 Y807,0 Y807,1 Y807,2 Y807,3 Y807,4 Y807,5 Y807,6 Y808,0 Y808,1 Y808,2
 Y808,3 Y808,4 Y808,5 Y808,6 Y809,0 Y809,1 Y809,2 Y809,3 Y809,4 Y809,5 Y809,6 Y810,0 Y810,1 Y810,2 Y810,3
 Y810,4 Y810,5 Y810,6 Y811,0 Y811,1 Y811,2 Y811,3 Y811,4 Y811,5 Y811,6 Y812,0 Y812,1 Y812,2 Y812,3 Y812,4
 Y812,5 Y812,6 Y813,0 Y813,1 Y813,2 Y813,3 Y813,4 Y813,5 Y813,6 Y814,0 Y814,1 Y814,2 Y814,3 Y814,4 Y814,5
 Y814,6 Y815,0 Y815,1 Y815,2 Y815,3 Y815,4 Y815,5 Y815,6 Y816,0 Y816,1 Y816,2 Y816,3 Y816,4 Y816,5 Y816,6
 Y817,0 Y817,1 Y817,2 Y817,3 Y817,4 Y817,5 Y817,6 Y818,0 Y818,1 Y818,2 Y818,3 Y818,4 Y818,5 Y818,6 Y819,0
 Y819,1 Y819,2 Y819,3 Y819,4 Y819,5 Y819,6 Y820,0 Y820,1 Y820,2 Y820,3 Y820,4 Y820,5 Y820,6 Y821,0 Y821,1
 Y821,2 Y821,3 Y821,4 Y821,5 Y821,6 Y822,0 Y822,1 Y822,2 Y822,3 Y822,4 Y822,5 Y822,6 Y823,0 Y823,1 Y823,2
 Y823,3 Y823,4 Y823,5 Y823,6 Y824,0 Y824,1 Y824,2 Y824,3 Y824,4 Y824,5 Y824,6 Y825,0 Y825,1 Y825,2 Y825,3
 Y825,4 Y825,5 Y825,6 Y826,0 Y826,1 Y826,2 Y826,3 Y826,4 Y826,5 Y826,6 Y827,0 Y827,1 Y827,2 Y827,3 Y827,4
 Y827,5 Y827,6 Y828,0 Y828,1 Y828,2 Y828,3 Y828,4 Y828,5 Y828,6 Y829,0 Y829,1 Y829,2 Y829,3 Y829,4 Y829,5
 Y829,6 Y830,0 Y830,1 Y830,2 Y830,3 Y830,4 Y830,5 Y830,6 Y831,0 Y831,1 Y831,2 Y831,3 Y831,4 Y831,5 Y831,6
 Y832,0 Y832,1 Y832,2 Y832,3 Y832,4 Y832,5 Y832,6 Y833,0 Y833,1 Y833,2 Y833,3 Y833,4 Y833,5 Y833,6 Y834,0
 Y834,1 Y834,2 Y834,3 Y834,4 Y834,5 Y834,6 Y835,0 Y835,1 Y835,2 Y835,3 Y835,4 Y835,5 Y835,6 Y836,0 Y836,1
 Y836,2 Y836,3 Y836,4 Y836,5 Y836,6 Y837,0 Y837,1 Y837,2 Y837,3 Y837,4 Y837,5 Y837,6 Y838,0 Y838,1 Y838,2
 Y838,3 Y838,4 Y838,5 Y838,6 Y839,0 Y839,1 Y839,2 Y839,3 Y839,4 Y839,5 Y839,6 Y840,0 Y840,1 Y840,2 Y840,3
 Y840,4 Y840,5 Y840,6 Y841,0 Y841,1 Y841,2 Y841,3 Y841,4 Y841,5 Y841,6 Y842,0 Y842,1 Y842,2 Y842,3 Y842,4
 Y842,5 Y842,6 Y843,0 Y843,1 Y843,2 Y843,3 Y843,4 Y843,5 Y843,6 Y844,0 Y844,1 Y844,2 Y844,3 Y844,4 Y844,5
 Y844,6 Y845,0 Y845,1 Y845,2 Y845,3 Y845,4 Y845,5 Y845,6 Y846,0 Y846,1 Y846,2 Y846,3 Y846,4 Y846,5 Y846,6
 Y847,0 Y847,1 Y847,2 Y847,3 Y847,4 Y847,5 Y847,6 Y848,0 Y848,1 Y848,2 Y848,3 Y848,4 Y848,5 Y848,6 Y849,0
 Y849,1 Y849,2 Y849,3 Y849,4 Y849,5 Y849,6 Y850,0 Y850,1 Y850,2 Y850,3 Y850,4 Y850,5 Y850,6 Y851,0 Y851,1
 Y851,2 Y851,3 Y851,4 Y851,5 Y851,6 Y852,0 Y852,1 Y852,2 Y852,3 Y852,4 Y852,5 Y852,6 Y853,0 Y853,1 Y853,2
 Y853,3 Y853,4 Y853,5 Y853,6 Y854,0 Y854,1 Y854,2 Y854,3 Y854,4 Y854,5 Y854,6 Y855,0 Y855,1 Y855,2 Y855,3
 Y855,4 Y855,5 Y855,6 Y856,0 Y856,1 Y856,2 Y856,3 Y856,4 Y856,5 Y856,6 Y857,0 Y857,1 Y857,2 Y857,3 Y857,4
 Y857,5 Y857,6
End
