\ SCIP STATISTICS
\   Problem name     : Scheduling
\   Variables        : 706 (705 binary, 0 integer, 0 implicit integer, 1 continuous)
\   Constraints      : 1112
Minimize
 Obj: +1 Cmax
Subject to
 cons1: +1 Y0,0 +1 Y0,1 +1 Y0,2 +1 Y0,3 +1 Y0,4 +1 Y3,0 +1 Y3,1 +1 Y3,2 +1 Y3,3 +1 Y3,4 +1 Y4,0 +1 Y4,1
  +1 Y4,2 +1 Y4,3 +1 Y4,4 +1 Y6,0 +1 Y6,1 +1 Y6,2 +1 Y6,3 +1 Y6,4 = +1
 cons1: +1 Y7,0 +1 Y7,1 +1 Y7,2 +1 Y7,3 +1 Y7,4 +1 Y11,0 +1 Y11,1 +1 Y11,2 +1 Y11,3 +1 Y11,4 +1 Y12,0
  +1 Y12,1 +1 Y12,2 +1 Y12,3 +1 Y12,4 +1 Y13,0 +1 Y13,1 +1 Y13,2 +1 Y13,3 +1 Y13,4 +1 Y17,0 +1 Y17,1 +1 Y17,2
  +1 Y17,3 +1 Y17,4 +1 Y18,0 +1 Y18,1 +1 Y18,2 +1 Y18,3 +1 Y18,4 +1 Y19,0 +1 Y19,1 +1 Y19,2 +1 Y19,3 +1 Y19,4
  +1 Y21,0 +1 Y21,1 +1 Y21,2 +1 Y21,3 +1 Y21,4 = +1
 cons1: +1 Y22,0 +1 Y22,1 +1 Y22,2 +1 Y22,3 +1 Y22,4 +1 Y28,0 +1 Y28,1 +1 Y28,2 +1 Y28,3 +1 Y28,4 +1 Y29,0
  +1 Y29,1 +1 Y29,2 +1 Y29,3 +1 Y29,4 +1 Y30,0 +1 Y30,1 +1 Y30,2 +1 Y30,3 +1 Y30,4 +1 Y31,0 +1 Y31,1 +1 Y31,2
  +1 Y31,3 +1 Y31,4 +1 Y32,0 +1 Y32,1 +1 Y32,2 +1 Y32,3 +1 Y32,4 +1 Y43,0 +1 Y43,1 +1 Y43,2 +1 Y43,3 +1 Y43,4
  +1 Y44,0 +1 Y44,1 +1 Y44,2 +1 Y44,3 +1 Y44,4 +1 Y45,0 +1 Y45,1 +1 Y45,2 +1 Y45,3 +1 Y45,4 +1 Y46,0 +1 Y46,1
  +1 Y46,2 +1 Y46,3 +1 Y46,4 +1 Y47,0 +1 Y47,1 +1 Y47,2 +1 Y47,3 +1 Y47,4 +1 Y48,0 +1 Y48,1 +1 Y48,2 +1 Y48,3
  +1 Y48,4 +1 Y49,0 +1 Y49,1 +1 Y49,2 +1 Y49,3 +1 Y49,4 +1 Y50,0 +1 Y50,1 +1 Y50,2 +1 Y50,3 +1 Y50,4 +1 Y61,0
  +1 Y61,1 +1 Y61,2 +1 Y61,3 +1 Y61,4 +1 Y62,0 +1 Y62,1 +1 Y62,2 +1 Y62,3 +1 Y62,4 = +1
 cons1: +1 Y66,0 +1 Y66,1 +1 Y66,2 +1 Y66,3 +1 Y66,4 +1 Y71,0 +1 Y71,1 +1 Y71,2 +1 Y71,3 +1 Y71,4 +1 Y72,0
  +1 Y72,1 +1 Y72,2 +1 Y72,3 +1 Y72,4 +1 Y73,0 +1 Y73,1 +1 Y73,2 +1 Y73,3 +1 Y73,4 +1 Y74,0 +1 Y74,1 +1 Y74,2
  +1 Y74,3 +1 Y74,4 +1 Y81,0 +1 Y81,1 +1 Y81,2 +1 Y81,3 +1 Y81,4 +1 Y82,0 +1 Y82,1 +1 Y82,2 +1 Y82,3 +1 Y82,4
  +1 Y83,0 +1 Y83,1 +1 Y83,2 +1 Y83,3 +1 Y83,4 +1 Y84,0 +1 Y84,1 +1 Y84,2 +1 Y84,3 +1 Y84,4 +1 Y85,0 +1 Y85,1
  +1 Y85,2 +1 Y85,3 +1 Y85,4 +1 Y86,0 +1 Y86,1 +1 Y86,2 +1 Y86,3 +1 Y86,4 +1 Y91,0 +1 Y91,1 +1 Y91,2 +1 Y91,3
  +1 Y91,4 +1 Y92,0 +1 Y92,1 +1 Y92,2 +1 Y92,3 +1 Y92,4 +1 Y93,0 +1 Y93,1 +1 Y93,2 +1 Y93,3 +1 Y93,4 +1 Y94,0
  +1 Y94,1 +1 Y94,2 +1 Y94,3 +1 Y94,4 +1 Y96,0 +1 Y96,1 +1 Y96,2 +1 Y96,3 +1 Y96,4 = +1
 cons1: +1 Y97,0 +1 Y97,1 +1 Y97,2 +1 Y97,3 +1 Y97,4 +1 Y101,0 +1 Y101,1 +1 Y101,2 +1 Y101,3 +1 Y101,4
  +1 Y102,0 +1 Y102,1 +1 Y102,2 +1 Y102,3 +1 Y102,4 +1 Y103,0 +1 Y103,1 +1 Y103,2 +1 Y103,3 +1 Y103,4
  +1 Y107,0 +1 Y107,1 +1 Y107,2 +1 Y107,3 +1 Y107,4 +1 Y108,0 +1 Y108,1 +1 Y108,2 +1 Y108,3 +1 Y108,4
  +1 Y109,0 +1 Y109,1 +1 Y109,2 +1 Y109,3 +1 Y109,4 = +1
 cons1: +1 Y111,0 +1 Y111,1 +1 Y111,2 +1 Y111,3 +1 Y111,4 +1 Y115,0 +1 Y115,1 +1 Y115,2 +1 Y115,3 +1 Y115,4
  +1 Y116,0 +1 Y116,1 +1 Y116,2 +1 Y116,3 +1 Y116,4 +1 Y117,0 +1 Y117,1 +1 Y117,2 +1 Y117,3 +1 Y117,4
  +1 Y121,0 +1 Y121,1 +1 Y121,2 +1 Y121,3 +1 Y121,4 +1 Y122,0 +1 Y122,1 +1 Y122,2 +1 Y122,3 +1 Y122,4
  +1 Y123,0 +1 Y123,1 +1 Y123,2 +1 Y123,3 +1 Y123,4 +1 Y125,0 +1 Y125,1 +1 Y125,2 +1 Y125,3 +1 Y125,4
  = +1
 cons1: +1 Y126,0 +1 Y126,1 +1 Y126,2 +1 Y126,3 +1 Y126,4 +1 Y130,0 +1 Y130,1 +1 Y130,2 +1 Y130,3 +1 Y130,4
  +1 Y131,0 +1 Y131,1 +1 Y131,2 +1 Y131,3 +1 Y131,4 +1 Y132,0 +1 Y132,1 +1 Y132,2 +1 Y132,3 +1 Y132,4
  +1 Y136,0 +1 Y136,1 +1 Y136,2 +1 Y136,3 +1 Y136,4 +1 Y137,0 +1 Y137,1 +1 Y137,2 +1 Y137,3 +1 Y137,4
  +1 Y138,0 +1 Y138,1 +1 Y138,2 +1 Y138,3 +1 Y138,4 +1 Y140,0 +1 Y140,1 +1 Y140,2 +1 Y140,3 +1 Y140,4
  = +1
 cons1: +1 Y67,0 +1 Y67,1 +1 Y67,2 +1 Y67,3 +1 Y67,4 +1 Y71,0 +1 Y71,1 +1 Y71,2 +1 Y71,3 +1 Y71,4 +1 Y75,0
  +1 Y75,1 +1 Y75,2 +1 Y75,3 +1 Y75,4 +1 Y76,0 +1 Y76,1 +1 Y76,2 +1 Y76,3 +1 Y76,4 +1 Y77,0 +1 Y77,1 +1 Y77,2
  +1 Y77,3 +1 Y77,4 +1 Y81,0 +1 Y81,1 +1 Y81,2 +1 Y81,3 +1 Y81,4 +1 Y82,0 +1 Y82,1 +1 Y82,2 +1 Y82,3 +1 Y82,4
  +1 Y83,0 +1 Y83,1 +1 Y83,2 +1 Y83,3 +1 Y83,4 +1 Y87,0 +1 Y87,1 +1 Y87,2 +1 Y87,3 +1 Y87,4 +1 Y88,0 +1 Y88,1
  +1 Y88,2 +1 Y88,3 +1 Y88,4 +1 Y89,0 +1 Y89,1 +1 Y89,2 +1 Y89,3 +1 Y89,4 +1 Y91,0 +1 Y91,1 +1 Y91,2 +1 Y91,3
  +1 Y91,4 +1 Y92,0 +1 Y92,1 +1 Y92,2 +1 Y92,3 +1 Y92,4 +1 Y93,0 +1 Y93,1 +1 Y93,2 +1 Y93,3 +1 Y93,4 +1 Y95,0
  +1 Y95,1 +1 Y95,2 +1 Y95,3 +1 Y95,4 +1 Y96,0 +1 Y96,1 +1 Y96,2 +1 Y96,3 +1 Y96,4 = +1
 cons1: +1 Y8,0 +1 Y8,1 +1 Y8,2 +1 Y8,3 +1 Y8,4 +1 Y11,0 +1 Y11,1 +1 Y11,2 +1 Y11,3 +1 Y11,4 +1 Y14,0
  +1 Y14,1 +1 Y14,2 +1 Y14,3 +1 Y14,4 +1 Y15,0 +1 Y15,1 +1 Y15,2 +1 Y15,3 +1 Y15,4 +1 Y17,0 +1 Y17,1 +1 Y17,2
  +1 Y17,3 +1 Y17,4 +1 Y18,0 +1 Y18,1 +1 Y18,2 +1 Y18,3 +1 Y18,4 +1 Y20,0 +1 Y20,1 +1 Y20,2 +1 Y20,3 +1 Y20,4
  +1 Y21,0 +1 Y21,1 +1 Y21,2 +1 Y21,3 +1 Y21,4 = +1
 cons1: +1 Y68,0 +1 Y68,1 +1 Y68,2 +1 Y68,3 +1 Y68,4 +1 Y72,0 +1 Y72,1 +1 Y72,2 +1 Y72,3 +1 Y72,4 +1 Y75,0
  +1 Y75,1 +1 Y75,2 +1 Y75,3 +1 Y75,4 +1 Y78,0 +1 Y78,1 +1 Y78,2 +1 Y78,3 +1 Y78,4 +1 Y79,0 +1 Y79,1 +1 Y79,2
  +1 Y79,3 +1 Y79,4 +1 Y81,0 +1 Y81,1 +1 Y81,2 +1 Y81,3 +1 Y81,4 +1 Y84,0 +1 Y84,1 +1 Y84,2 +1 Y84,3 +1 Y84,4
  +1 Y85,0 +1 Y85,1 +1 Y85,2 +1 Y85,3 +1 Y85,4 +1 Y87,0 +1 Y87,1 +1 Y87,2 +1 Y87,3 +1 Y87,4 +1 Y88,0 +1 Y88,1
  +1 Y88,2 +1 Y88,3 +1 Y88,4 +1 Y90,0 +1 Y90,1 +1 Y90,2 +1 Y90,3 +1 Y90,4 +1 Y91,0 +1 Y91,1 +1 Y91,2 +1 Y91,3
  +1 Y91,4 +1 Y92,0 +1 Y92,1 +1 Y92,2 +1 Y92,3 +1 Y92,4 +1 Y94,0 +1 Y94,1 +1 Y94,2 +1 Y94,3 +1 Y94,4 +1 Y95,0
  +1 Y95,1 +1 Y95,2 +1 Y95,3 +1 Y95,4 +1 Y96,0 +1 Y96,1 +1 Y96,2 +1 Y96,3 +1 Y96,4 = +1
 cons1: +1 Y1,0 +1 Y1,1 +1 Y1,2 +1 Y1,3 +1 Y1,4 +1 Y3,0 +1 Y3,1 +1 Y3,2 +1 Y3,3 +1 Y3,4 +1 Y5,0 +1 Y5,1
  +1 Y5,2 +1 Y5,3 +1 Y5,4 +1 Y6,0 +1 Y6,1 +1 Y6,2 +1 Y6,3 +1 Y6,4 = +1
 cons1: +1 Y98,0 +1 Y98,1 +1 Y98,2 +1 Y98,3 +1 Y98,4 +1 Y101,0 +1 Y101,1 +1 Y101,2 +1 Y101,3 +1 Y101,4
  +1 Y104,0 +1 Y104,1 +1 Y104,2 +1 Y104,3 +1 Y104,4 +1 Y105,0 +1 Y105,1 +1 Y105,2 +1 Y105,3 +1 Y105,4
  +1 Y107,0 +1 Y107,1 +1 Y107,2 +1 Y107,3 +1 Y107,4 +1 Y108,0 +1 Y108,1 +1 Y108,2 +1 Y108,3 +1 Y108,4
  +1 Y110,0 +1 Y110,1 +1 Y110,2 +1 Y110,3 +1 Y110,4 = +1
 cons1: +1 Y23,0 +1 Y23,1 +1 Y23,2 +1 Y23,3 +1 Y23,4 +1 Y28,0 +1 Y28,1 +1 Y28,2 +1 Y28,3 +1 Y28,4 +1 Y33,0
  +1 Y33,1 +1 Y33,2 +1 Y33,3 +1 Y33,4 +1 Y34,0 +1 Y34,1 +1 Y34,2 +1 Y34,3 +1 Y34,4 +1 Y35,0 +1 Y35,1 +1 Y35,2
  +1 Y35,3 +1 Y35,4 +1 Y36,0 +1 Y36,1 +1 Y36,2 +1 Y36,3 +1 Y36,4 +1 Y43,0 +1 Y43,1 +1 Y43,2 +1 Y43,3 +1 Y43,4
  +1 Y44,0 +1 Y44,1 +1 Y44,2 +1 Y44,3 +1 Y44,4 +1 Y45,0 +1 Y45,1 +1 Y45,2 +1 Y45,3 +1 Y45,4 +1 Y46,0 +1 Y46,1
  +1 Y46,2 +1 Y46,3 +1 Y46,4 +1 Y51,0 +1 Y51,1 +1 Y51,2 +1 Y51,3 +1 Y51,4 +1 Y52,0 +1 Y52,1 +1 Y52,2 +1 Y52,3
  +1 Y52,4 +1 Y53,0 +1 Y53,1 +1 Y53,2 +1 Y53,3 +1 Y53,4 +1 Y54,0 +1 Y54,1 +1 Y54,2 +1 Y54,3 +1 Y54,4 +1 Y55,0
  +1 Y55,1 +1 Y55,2 +1 Y55,3 +1 Y55,4 +1 Y56,0 +1 Y56,1 +1 Y56,2 +1 Y56,3 +1 Y56,4 +1 Y61,0 +1 Y61,1 +1 Y61,2
  +1 Y61,3 +1 Y61,4 +1 Y62,0 +1 Y62,1 +1 Y62,2 +1 Y62,3 +1 Y62,4 +1 Y63,0 +1 Y63,1 +1 Y63,2 +1 Y63,3 +1 Y63,4
  +1 Y64,0 +1 Y64,1 +1 Y64,2 +1 Y64,3 +1 Y64,4 +1 Y65,0 +1 Y65,1 +1 Y65,2 +1 Y65,3 +1 Y65,4 = +1
 cons1: +1 Y112,0 +1 Y112,1 +1 Y112,2 +1 Y112,3 +1 Y112,4 +1 Y115,0 +1 Y115,1 +1 Y115,2 +1 Y115,3 +1 Y115,4
  +1 Y118,0 +1 Y118,1 +1 Y118,2 +1 Y118,3 +1 Y118,4 +1 Y119,0 +1 Y119,1 +1 Y119,2 +1 Y119,3 +1 Y119,4
  +1 Y121,0 +1 Y121,1 +1 Y121,2 +1 Y121,3 +1 Y121,4 +1 Y122,0 +1 Y122,1 +1 Y122,2 +1 Y122,3 +1 Y122,4
  +1 Y124,0 +1 Y124,1 +1 Y124,2 +1 Y124,3 +1 Y124,4 +1 Y125,0 +1 Y125,1 +1 Y125,2 +1 Y125,3 +1 Y125,4
  = +1
 cons1: +1 Y127,0 +1 Y127,1 +1 Y127,2 +1 Y127,3 +1 Y127,4 +1 Y130,0 +1 Y130,1 +1 Y130,2 +1 Y130,3 +1 Y130,4
  +1 Y133,0 +1 Y133,1 +1 Y133,2 +1 Y133,3 +1 Y133,4 +1 Y134,0 +1 Y134,1 +1 Y134,2 +1 Y134,3 +1 Y134,4
  +1 Y136,0 +1 Y136,1 +1 Y136,2 +1 Y136,3 +1 Y136,4 +1 Y137,0 +1 Y137,1 +1 Y137,2 +1 Y137,3 +1 Y137,4
  +1 Y139,0 +1 Y139,1 +1 Y139,2 +1 Y139,3 +1 Y139,4 +1 Y140,0 +1 Y140,1 +1 Y140,2 +1 Y140,3 +1 Y140,4
  = +1
 cons1: +1 Y24,0 +1 Y24,1 +1 Y24,2 +1 Y24,3 +1 Y24,4 +1 Y29,0 +1 Y29,1 +1 Y29,2 +1 Y29,3 +1 Y29,4 +1 Y33,0
  +1 Y33,1 +1 Y33,2 +1 Y33,3 +1 Y33,4 +1 Y37,0 +1 Y37,1 +1 Y37,2 +1 Y37,3 +1 Y37,4 +1 Y38,0 +1 Y38,1 +1 Y38,2
  +1 Y38,3 +1 Y38,4 +1 Y39,0 +1 Y39,1 +1 Y39,2 +1 Y39,3 +1 Y39,4 +1 Y43,0 +1 Y43,1 +1 Y43,2 +1 Y43,3 +1 Y43,4
  +1 Y47,0 +1 Y47,1 +1 Y47,2 +1 Y47,3 +1 Y47,4 +1 Y48,0 +1 Y48,1 +1 Y48,2 +1 Y48,3 +1 Y48,4 +1 Y51,0 +1 Y51,1
  +1 Y51,2 +1 Y51,3 +1 Y51,4 +1 Y52,0 +1 Y52,1 +1 Y52,2 +1 Y52,3 +1 Y52,4 +1 Y53,0 +1 Y53,1 +1 Y53,2 +1 Y53,3
  +1 Y53,4 +1 Y57,0 +1 Y57,1 +1 Y57,2 +1 Y57,3 +1 Y57,4 +1 Y58,0 +1 Y58,1 +1 Y58,2 +1 Y58,3 +1 Y58,4 +1 Y59,0
  +1 Y59,1 +1 Y59,2 +1 Y59,3 +1 Y59,4 +1 Y61,0 +1 Y61,1 +1 Y61,2 +1 Y61,3 +1 Y61,4 +1 Y63,0 +1 Y63,1 +1 Y63,2
  +1 Y63,3 +1 Y63,4 +1 Y64,0 +1 Y64,1 +1 Y64,2 +1 Y64,3 +1 Y64,4 = +1
 cons1: +1 Y9,0 +1 Y9,1 +1 Y9,2 +1 Y9,3 +1 Y9,4 +1 Y12,0 +1 Y12,1 +1 Y12,2 +1 Y12,3 +1 Y12,4 +1 Y14,0
  +1 Y14,1 +1 Y14,2 +1 Y14,3 +1 Y14,4 +1 Y16,0 +1 Y16,1 +1 Y16,2 +1 Y16,3 +1 Y16,4 +1 Y17,0 +1 Y17,1 +1 Y17,2
  +1 Y17,3 +1 Y17,4 +1 Y19,0 +1 Y19,1 +1 Y19,2 +1 Y19,3 +1 Y19,4 +1 Y20,0 +1 Y20,1 +1 Y20,2 +1 Y20,3 +1 Y20,4
  +1 Y21,0 +1 Y21,1 +1 Y21,2 +1 Y21,3 +1 Y21,4 = +1
 cons1: +1 Y99,0 +1 Y99,1 +1 Y99,2 +1 Y99,3 +1 Y99,4 +1 Y102,0 +1 Y102,1 +1 Y102,2 +1 Y102,3 +1 Y102,4
  +1 Y104,0 +1 Y104,1 +1 Y104,2 +1 Y104,3 +1 Y104,4 +1 Y106,0 +1 Y106,1 +1 Y106,2 +1 Y106,3 +1 Y106,4
  +1 Y107,0 +1 Y107,1 +1 Y107,2 +1 Y107,3 +1 Y107,4 +1 Y109,0 +1 Y109,1 +1 Y109,2 +1 Y109,3 +1 Y109,4
  +1 Y110,0 +1 Y110,1 +1 Y110,2 +1 Y110,3 +1 Y110,4 = +1
 cons1: +1 Y69,0 +1 Y69,1 +1 Y69,2 +1 Y69,3 +1 Y69,4 +1 Y73,0 +1 Y73,1 +1 Y73,2 +1 Y73,3 +1 Y73,4 +1 Y76,0
  +1 Y76,1 +1 Y76,2 +1 Y76,3 +1 Y76,4 +1 Y78,0 +1 Y78,1 +1 Y78,2 +1 Y78,3 +1 Y78,4 +1 Y80,0 +1 Y80,1 +1 Y80,2
  +1 Y80,3 +1 Y80,4 +1 Y82,0 +1 Y82,1 +1 Y82,2 +1 Y82,3 +1 Y82,4 +1 Y84,0 +1 Y84,1 +1 Y84,2 +1 Y84,3 +1 Y84,4
  +1 Y86,0 +1 Y86,1 +1 Y86,2 +1 Y86,3 +1 Y86,4 +1 Y87,0 +1 Y87,1 +1 Y87,2 +1 Y87,3 +1 Y87,4 +1 Y89,0 +1 Y89,1
  +1 Y89,2 +1 Y89,3 +1 Y89,4 +1 Y90,0 +1 Y90,1 +1 Y90,2 +1 Y90,3 +1 Y90,4 +1 Y91,0 +1 Y91,1 +1 Y91,2 +1 Y91,3
  +1 Y91,4 +1 Y93,0 +1 Y93,1 +1 Y93,2 +1 Y93,3 +1 Y93,4 +1 Y94,0 +1 Y94,1 +1 Y94,2 +1 Y94,3 +1 Y94,4 +1 Y95,0
  +1 Y95,1 +1 Y95,2 +1 Y95,3 +1 Y95,4 +1 Y96,0 +1 Y96,1 +1 Y96,2 +1 Y96,3 +1 Y96,4 = +1
 cons1: +1 Y25,0 +1 Y25,1 +1 Y25,2 +1 Y25,3 +1 Y25,4 +1 Y30,0 +1 Y30,1 +1 Y30,2 +1 Y30,3 +1 Y30,4 +1 Y34,0
  +1 Y34,1 +1 Y34,2 +1 Y34,3 +1 Y34,4 +1 Y37,0 +1 Y37,1 +1 Y37,2 +1 Y37,3 +1 Y37,4 +1 Y40,0 +1 Y40,1 +1 Y40,2
  +1 Y40,3 +1 Y40,4 +1 Y41,0 +1 Y41,1 +1 Y41,2 +1 Y41,3 +1 Y41,4 +1 Y44,0 +1 Y44,1 +1 Y44,2 +1 Y44,3 +1 Y44,4
  +1 Y47,0 +1 Y47,1 +1 Y47,2 +1 Y47,3 +1 Y47,4 +1 Y49,0 +1 Y49,1 +1 Y49,2 +1 Y49,3 +1 Y49,4 +1 Y51,0 +1 Y51,1
  +1 Y51,2 +1 Y51,3 +1 Y51,4 +1 Y54,0 +1 Y54,1 +1 Y54,2 +1 Y54,3 +1 Y54,4 +1 Y55,0 +1 Y55,1 +1 Y55,2 +1 Y55,3
  +1 Y55,4 +1 Y57,0 +1 Y57,1 +1 Y57,2 +1 Y57,3 +1 Y57,4 +1 Y58,0 +1 Y58,1 +1 Y58,2 +1 Y58,3 +1 Y58,4 +1 Y60,0
  +1 Y60,1 +1 Y60,2 +1 Y60,3 +1 Y60,4 +1 Y62,0 +1 Y62,1 +1 Y62,2 +1 Y62,3 +1 Y62,4 +1 Y63,0 +1 Y63,1 +1 Y63,2
  +1 Y63,3 +1 Y63,4 +1 Y65,0 +1 Y65,1 +1 Y65,2 +1 Y65,3 +1 Y65,4 = +1
 cons1: +1 Y113,0 +1 Y113,1 +1 Y113,2 +1 Y113,3 +1 Y113,4 +1 Y116,0 +1 Y116,1 +1 Y116,2 +1 Y116,3 +1 Y116,4
  +1 Y118,0 +1 Y118,1 +1 Y118,2 +1 Y118,3 +1 Y118,4 +1 Y120,0 +1 Y120,1 +1 Y120,2 +1 Y120,3 +1 Y120,4
  +1 Y121,0 +1 Y121,1 +1 Y121,2 +1 Y121,3 +1 Y121,4 +1 Y123,0 +1 Y123,1 +1 Y123,2 +1 Y123,3 +1 Y123,4
  +1 Y124,0 +1 Y124,1 +1 Y124,2 +1 Y124,3 +1 Y124,4 +1 Y125,0 +1 Y125,1 +1 Y125,2 +1 Y125,3 +1 Y125,4
  = +1
 cons1: +1 Y128,0 +1 Y128,1 +1 Y128,2 +1 Y128,3 +1 Y128,4 +1 Y131,0 +1 Y131,1 +1 Y131,2 +1 Y131,3 +1 Y131,4
  +1 Y133,0 +1 Y133,1 +1 Y133,2 +1 Y133,3 +1 Y133,4 +1 Y135,0 +1 Y135,1 +1 Y135,2 +1 Y135,3 +1 Y135,4
  +1 Y136,0 +1 Y136,1 +1 Y136,2 +1 Y136,3 +1 Y136,4 +1 Y138,0 +1 Y138,1 +1 Y138,2 +1 Y138,3 +1 Y138,4
  +1 Y139,0 +1 Y139,1 +1 Y139,2 +1 Y139,3 +1 Y139,4 +1 Y140,0 +1 Y140,1 +1 Y140,2 +1 Y140,3 +1 Y140,4
  = +1
 cons1: +1 Y2,0 +1 Y2,1 +1 Y2,2 +1 Y2,3 +1 Y2,4 +1 Y4,0 +1 Y4,1 +1 Y4,2 +1 Y4,3 +1 Y4,4 +1 Y5,0 +1 Y5,1
  +1 Y5,2 +1 Y5,3 +1 Y5,4 +1 Y6,0 +1 Y6,1 +1 Y6,2 +1 Y6,3 +1 Y6,4 = +1
 cons1: +1 Y26,0 +1 Y26,1 +1 Y26,2 +1 Y26,3 +1 Y26,4 +1 Y31,0 +1 Y31,1 +1 Y31,2 +1 Y31,3 +1 Y31,4 +1 Y35,0
  +1 Y35,1 +1 Y35,2 +1 Y35,3 +1 Y35,4 +1 Y38,0 +1 Y38,1 +1 Y38,2 +1 Y38,3 +1 Y38,4 +1 Y40,0 +1 Y40,1 +1 Y40,2
  +1 Y40,3 +1 Y40,4 +1 Y42,0 +1 Y42,1 +1 Y42,2 +1 Y42,3 +1 Y42,4 +1 Y45,0 +1 Y45,1 +1 Y45,2 +1 Y45,3 +1 Y45,4
  +1 Y48,0 +1 Y48,1 +1 Y48,2 +1 Y48,3 +1 Y48,4 +1 Y49,0 +1 Y49,1 +1 Y49,2 +1 Y49,3 +1 Y49,4 +1 Y50,0 +1 Y50,1
  +1 Y50,2 +1 Y50,3 +1 Y50,4 +1 Y52,0 +1 Y52,1 +1 Y52,2 +1 Y52,3 +1 Y52,4 +1 Y54,0 +1 Y54,1 +1 Y54,2 +1 Y54,3
  +1 Y54,4 +1 Y56,0 +1 Y56,1 +1 Y56,2 +1 Y56,3 +1 Y56,4 +1 Y57,0 +1 Y57,1 +1 Y57,2 +1 Y57,3 +1 Y57,4 +1 Y59,0
  +1 Y59,1 +1 Y59,2 +1 Y59,3 +1 Y59,4 +1 Y60,0 +1 Y60,1 +1 Y60,2 +1 Y60,3 +1 Y60,4 +1 Y61,0 +1 Y61,1 +1 Y61,2
  +1 Y61,3 +1 Y61,4 +1 Y62,0 +1 Y62,1 +1 Y62,2 +1 Y62,3 +1 Y62,4 +1 Y63,0 +1 Y63,1 +1 Y63,2 +1 Y63,3 +1 Y63,4
  +1 Y64,0 +1 Y64,1 +1 Y64,2 +1 Y64,3 +1 Y64,4 +1 Y65,0 +1 Y65,1 +1 Y65,2 +1 Y65,3 +1 Y65,4 = +1
 cons1: +1 Y10,0 +1 Y10,1 +1 Y10,2 +1 Y10,3 +1 Y10,4 +1 Y13,0 +1 Y13,1 +1 Y13,2 +1 Y13,3 +1 Y13,4 +1 Y15,0
  +1 Y15,1 +1 Y15,2 +1 Y15,3 +1 Y15,4 +1 Y16,0 +1 Y16,1 +1 Y16,2 +1 Y16,3 +1 Y16,4 +1 Y18,0 +1 Y18,1 +1 Y18,2
  +1 Y18,3 +1 Y18,4 +1 Y19,0 +1 Y19,1 +1 Y19,2 +1 Y19,3 +1 Y19,4 +1 Y20,0 +1 Y20,1 +1 Y20,2 +1 Y20,3 +1 Y20,4
  +1 Y21,0 +1 Y21,1 +1 Y21,2 +1 Y21,3 +1 Y21,4 = +1
 cons1: +1 Y100,0 +1 Y100,1 +1 Y100,2 +1 Y100,3 +1 Y100,4 +1 Y103,0 +1 Y103,1 +1 Y103,2 +1 Y103,3 +1 Y103,4
  +1 Y105,0 +1 Y105,1 +1 Y105,2 +1 Y105,3 +1 Y105,4 +1 Y106,0 +1 Y106,1 +1 Y106,2 +1 Y106,3 +1 Y106,4
  +1 Y108,0 +1 Y108,1 +1 Y108,2 +1 Y108,3 +1 Y108,4 +1 Y109,0 +1 Y109,1 +1 Y109,2 +1 Y109,3 +1 Y109,4
  +1 Y110,0 +1 Y110,1 +1 Y110,2 +1 Y110,3 +1 Y110,4 = +1
 cons1: +1 Y70,0 +1 Y70,1 +1 Y70,2 +1 Y70,3 +1 Y70,4 +1 Y74,0 +1 Y74,1 +1 Y74,2 +1 Y74,3 +1 Y74,4 +1 Y77,0
  +1 Y77,1 +1 Y77,2 +1 Y77,3 +1 Y77,4 +1 Y79,0 +1 Y79,1 +1 Y79,2 +1 Y79,3 +1 Y79,4 +1 Y80,0 +1 Y80,1 +1 Y80,2
  +1 Y80,3 +1 Y80,4 +1 Y83,0 +1 Y83,1 +1 Y83,2 +1 Y83,3 +1 Y83,4 +1 Y85,0 +1 Y85,1 +1 Y85,2 +1 Y85,3 +1 Y85,4
  +1 Y86,0 +1 Y86,1 +1 Y86,2 +1 Y86,3 +1 Y86,4 +1 Y88,0 +1 Y88,1 +1 Y88,2 +1 Y88,3 +1 Y88,4 +1 Y89,0 +1 Y89,1
  +1 Y89,2 +1 Y89,3 +1 Y89,4 +1 Y90,0 +1 Y90,1 +1 Y90,2 +1 Y90,3 +1 Y90,4 +1 Y92,0 +1 Y92,1 +1 Y92,2 +1 Y92,3
  +1 Y92,4 +1 Y93,0 +1 Y93,1 +1 Y93,2 +1 Y93,3 +1 Y93,4 +1 Y94,0 +1 Y94,1 +1 Y94,2 +1 Y94,3 +1 Y94,4 +1 Y95,0
  +1 Y95,1 +1 Y95,2 +1 Y95,3 +1 Y95,4 +1 Y96,0 +1 Y96,1 +1 Y96,2 +1 Y96,3 +1 Y96,4 = +1
 cons1: +1 Y114,0 +1 Y114,1 +1 Y114,2 +1 Y114,3 +1 Y114,4 +1 Y117,0 +1 Y117,1 +1 Y117,2 +1 Y117,3 +1 Y117,4
  +1 Y119,0 +1 Y119,1 +1 Y119,2 +1 Y119,3 +1 Y119,4 +1 Y120,0 +1 Y120,1 +1 Y120,2 +1 Y120,3 +1 Y120,4
  +1 Y122,0 +1 Y122,1 +1 Y122,2 +1 Y122,3 +1 Y122,4 +1 Y123,0 +1 Y123,1 +1 Y123,2 +1 Y123,3 +1 Y123,4
  +1 Y124,0 +1 Y124,1 +1 Y124,2 +1 Y124,3 +1 Y124,4 +1 Y125,0 +1 Y125,1 +1 Y125,2 +1 Y125,3 +1 Y125,4
  = +1
 cons1: +1 Y27,0 +1 Y27,1 +1 Y27,2 +1 Y27,3 +1 Y27,4 +1 Y32,0 +1 Y32,1 +1 Y32,2 +1 Y32,3 +1 Y32,4 +1 Y36,0
  +1 Y36,1 +1 Y36,2 +1 Y36,3 +1 Y36,4 +1 Y39,0 +1 Y39,1 +1 Y39,2 +1 Y39,3 +1 Y39,4 +1 Y41,0 +1 Y41,1 +1 Y41,2
  +1 Y41,3 +1 Y41,4 +1 Y42,0 +1 Y42,1 +1 Y42,2 +1 Y42,3 +1 Y42,4 +1 Y46,0 +1 Y46,1 +1 Y46,2 +1 Y46,3 +1 Y46,4
  +1 Y50,0 +1 Y50,1 +1 Y50,2 +1 Y50,3 +1 Y50,4 +1 Y53,0 +1 Y53,1 +1 Y53,2 +1 Y53,3 +1 Y53,4 +1 Y55,0 +1 Y55,1
  +1 Y55,2 +1 Y55,3 +1 Y55,4 +1 Y56,0 +1 Y56,1 +1 Y56,2 +1 Y56,3 +1 Y56,4 +1 Y58,0 +1 Y58,1 +1 Y58,2 +1 Y58,3
  +1 Y58,4 +1 Y59,0 +1 Y59,1 +1 Y59,2 +1 Y59,3 +1 Y59,4 +1 Y60,0 +1 Y60,1 +1 Y60,2 +1 Y60,3 +1 Y60,4 +1 Y64,0
  +1 Y64,1 +1 Y64,2 +1 Y64,3 +1 Y64,4 +1 Y65,0 +1 Y65,1 +1 Y65,2 +1 Y65,3 +1 Y65,4 = +1
 cons1: +1 Y129,0 +1 Y129,1 +1 Y129,2 +1 Y129,3 +1 Y129,4 +1 Y132,0 +1 Y132,1 +1 Y132,2 +1 Y132,3 +1 Y132,4
  +1 Y134,0 +1 Y134,1 +1 Y134,2 +1 Y134,3 +1 Y134,4 +1 Y135,0 +1 Y135,1 +1 Y135,2 +1 Y135,3 +1 Y135,4
  +1 Y137,0 +1 Y137,1 +1 Y137,2 +1 Y137,3 +1 Y137,4 +1 Y138,0 +1 Y138,1 +1 Y138,2 +1 Y138,3 +1 Y138,4
  +1 Y139,0 +1 Y139,1 +1 Y139,2 +1 Y139,3 +1 Y139,4 +1 Y140,0 +1 Y140,1 +1 Y140,2 +1 Y140,3 +1 Y140,4
  = +1
 cons2: +1 Y0,1 = +0
 cons2: +1 Y0,2 = +0
 cons2: +1 Y1,1 = +0
 cons2: +1 Y1,2 = +0
 cons2: +1 Y2,1 = +0
 cons2: +1 Y2,2 = +0
 cons2: +1 Y3,1 = +0
 cons2: +1 Y3,2 = +0
 cons2: +1 Y4,1 = +0
 cons2: +1 Y4,2 = +0
 cons2: +1 Y5,1 = +0
 cons2: +1 Y5,2 = +0
 cons2: +1 Y6,1 = +0
 cons2: +1 Y6,2 = +0
 cons2: +1 Y7,1 = +0
 cons2: +1 Y7,3 = +0
 cons2: +1 Y7,4 = +0
 cons2: +1 Y8,1 = +0
 cons2: +1 Y8,3 = +0
 cons2: +1 Y8,4 = +0
 cons2: +1 Y9,1 = +0
 cons2: +1 Y9,3 = +0
 cons2: +1 Y9,4 = +0
 cons2: +1 Y10,1 = +0
 cons2: +1 Y10,3 = +0
 cons2: +1 Y10,4 = +0
 cons2: +1 Y11,1 = +0
 cons2: +1 Y11,3 = +0
 cons2: +1 Y11,4 = +0
 cons2: +1 Y12,1 = +0
 cons2: +1 Y12,3 = +0
 cons2: +1 Y12,4 = +0
 cons2: +1 Y13,1 = +0
 cons2: +1 Y13,3 = +0
 cons2: +1 Y13,4 = +0
 cons2: +1 Y14,1 = +0
 cons2: +1 Y14,3 = +0
 cons2: +1 Y14,4 = +0
 cons2: +1 Y15,1 = +0
 cons2: +1 Y15,3 = +0
 cons2: +1 Y15,4 = +0
 cons2: +1 Y16,1 = +0
 cons2: +1 Y16,3 = +0
 cons2: +1 Y16,4 = +0
 cons2: +1 Y17,1 = +0
 cons2: +1 Y17,3 = +0
 cons2: +1 Y17,4 = +0
 cons2: +1 Y18,1 = +0
 cons2: +1 Y18,3 = +0
 cons2: +1 Y18,4 = +0
 cons2: +1 Y19,1 = +0
 cons2: +1 Y19,3 = +0
 cons2: +1 Y19,4 = +0
 cons2: +1 Y20,1 = +0
 cons2: +1 Y20,3 = +0
 cons2: +1 Y20,4 = +0
 cons2: +1 Y21,1 = +0
 cons2: +1 Y21,3 = +0
 cons2: +1 Y21,4 = +0
 cons2: +1 Y22,0 = +0
 cons2: +1 Y22,3 = +0
 cons2: +1 Y23,0 = +0
 cons2: +1 Y23,3 = +0
 cons2: +1 Y24,0 = +0
 cons2: +1 Y24,3 = +0
 cons2: +1 Y25,0 = +0
 cons2: +1 Y25,3 = +0
 cons2: +1 Y26,0 = +0
 cons2: +1 Y26,3 = +0
 cons2: +1 Y27,0 = +0
 cons2: +1 Y27,3 = +0
 cons2: +1 Y28,0 = +0
 cons2: +1 Y28,3 = +0
 cons2: +1 Y29,0 = +0
 cons2: +1 Y29,3 = +0
 cons2: +1 Y30,0 = +0
 cons2: +1 Y30,3 = +0
 cons2: +1 Y31,0 = +0
 cons2: +1 Y31,3 = +0
 cons2: +1 Y32,0 = +0
 cons2: +1 Y32,3 = +0
 cons2: +1 Y33,0 = +0
 cons2: +1 Y33,3 = +0
 cons2: +1 Y34,0 = +0
 cons2: +1 Y34,3 = +0
 cons2: +1 Y35,0 = +0
 cons2: +1 Y35,3 = +0
 cons2: +1 Y36,0 = +0
 cons2: +1 Y36,3 = +0
 cons2: +1 Y37,0 = +0
 cons2: +1 Y37,3 = +0
 cons2: +1 Y38,0 = +0
 cons2: +1 Y38,3 = +0
 cons2: +1 Y39,0 = +0
 cons2: +1 Y39,3 = +0
 cons2: +1 Y40,0 = +0
 cons2: +1 Y40,3 = +0
 cons2: +1 Y41,0 = +0
 cons2: +1 Y41,3 = +0
 cons2: +1 Y42,0 = +0
 cons2: +1 Y42,3 = +0
 cons2: +1 Y43,0 = +0
 cons2: +1 Y43,3 = +0
 cons2: +1 Y44,0 = +0
 cons2: +1 Y44,3 = +0
 cons2: +1 Y45,0 = +0
 cons2: +1 Y45,3 = +0
 cons2: +1 Y46,0 = +0
 cons2: +1 Y46,3 = +0
 cons2: +1 Y47,0 = +0
 cons2: +1 Y47,3 = +0
 cons2: +1 Y48,0 = +0
 cons2: +1 Y48,3 = +0
 cons2: +1 Y49,0 = +0
 cons2: +1 Y49,3 = +0
 cons2: +1 Y50,0 = +0
 cons2: +1 Y50,3 = +0
 cons2: +1 Y51,0 = +0
 cons2: +1 Y51,3 = +0
 cons2: +1 Y52,0 = +0
 cons2: +1 Y52,3 = +0
 cons2: +1 Y53,0 = +0
 cons2: +1 Y53,3 = +0
 cons2: +1 Y54,0 = +0
 cons2: +1 Y54,3 = +0
 cons2: +1 Y55,0 = +0
 cons2: +1 Y55,3 = +0
 cons2: +1 Y56,0 = +0
 cons2: +1 Y56,3 = +0
 cons2: +1 Y57,0 = +0
 cons2: +1 Y57,3 = +0
 cons2: +1 Y58,0 = +0
 cons2: +1 Y58,3 = +0
 cons2: +1 Y59,0 = +0
 cons2: +1 Y59,3 = +0
 cons2: +1 Y60,0 = +0
 cons2: +1 Y60,3 = +0
 cons2: +1 Y61,0 = +0
 cons2: +1 Y61,3 = +0
 cons2: +1 Y62,0 = +0
 cons2: +1 Y62,3 = +0
 cons2: +1 Y63,0 = +0
 cons2: +1 Y63,3 = +0
 cons2: +1 Y64,0 = +0
 cons2: +1 Y64,3 = +0
 cons2: +1 Y65,0 = +0
 cons2: +1 Y65,3 = +0
 cons2: +1 Y66,0 = +0
 cons2: +1 Y66,2 = +0
 cons2: +1 Y66,4 = +0
 cons2: +1 Y67,0 = +0
 cons2: +1 Y67,2 = +0
 cons2: +1 Y67,4 = +0
 cons2: +1 Y68,0 = +0
 cons2: +1 Y68,2 = +0
 cons2: +1 Y68,4 = +0
 cons2: +1 Y69,0 = +0
 cons2: +1 Y69,2 = +0
 cons2: +1 Y69,4 = +0
 cons2: +1 Y70,0 = +0
 cons2: +1 Y70,2 = +0
 cons2: +1 Y70,4 = +0
 cons2: +1 Y71,0 = +0
 cons2: +1 Y71,2 = +0
 cons2: +1 Y71,4 = +0
 cons2: +1 Y72,0 = +0
 cons2: +1 Y72,2 = +0
 cons2: +1 Y72,4 = +0
 cons2: +1 Y73,0 = +0
 cons2: +1 Y73,2 = +0
 cons2: +1 Y73,4 = +0
 cons2: +1 Y74,0 = +0
 cons2: +1 Y74,2 = +0
 cons2: +1 Y74,4 = +0
 cons2: +1 Y75,0 = +0
 cons2: +1 Y75,2 = +0
 cons2: +1 Y75,4 = +0
 cons2: +1 Y76,0 = +0
 cons2: +1 Y76,2 = +0
 cons2: +1 Y76,4 = +0
 cons2: +1 Y77,0 = +0
 cons2: +1 Y77,2 = +0
 cons2: +1 Y77,4 = +0
 cons2: +1 Y78,0 = +0
 cons2: +1 Y78,2 = +0
 cons2: +1 Y78,4 = +0
 cons2: +1 Y79,0 = +0
 cons2: +1 Y79,2 = +0
 cons2: +1 Y79,4 = +0
 cons2: +1 Y80,0 = +0
 cons2: +1 Y80,2 = +0
 cons2: +1 Y80,4 = +0
 cons2: +1 Y81,0 = +0
 cons2: +1 Y81,2 = +0
 cons2: +1 Y81,4 = +0
 cons2: +1 Y82,0 = +0
 cons2: +1 Y82,2 = +0
 cons2: +1 Y82,4 = +0
 cons2: +1 Y83,0 = +0
 cons2: +1 Y83,2 = +0
 cons2: +1 Y83,4 = +0
 cons2: +1 Y84,0 = +0
 cons2: +1 Y84,2 = +0
 cons2: +1 Y84,4 = +0
 cons2: +1 Y85,0 = +0
 cons2: +1 Y85,2 = +0
 cons2: +1 Y85,4 = +0
 cons2: +1 Y86,0 = +0
 cons2: +1 Y86,2 = +0
 cons2: +1 Y86,4 = +0
 cons2: +1 Y87,0 = +0
 cons2: +1 Y87,2 = +0
 cons2: +1 Y87,4 = +0
 cons2: +1 Y88,0 = +0
 cons2: +1 Y88,2 = +0
 cons2: +1 Y88,4 = +0
 cons2: +1 Y89,0 = +0
 cons2: +1 Y89,2 = +0
 cons2: +1 Y89,4 = +0
 cons2: +1 Y90,0 = +0
 cons2: +1 Y90,2 = +0
 cons2: +1 Y90,4 = +0
 cons2: +1 Y91,0 = +0
 cons2: +1 Y91,2 = +0
 cons2: +1 Y91,4 = +0
 cons2: +1 Y92,0 = +0
 cons2: +1 Y92,2 = +0
 cons2: +1 Y92,4 = +0
 cons2: +1 Y93,0 = +0
 cons2: +1 Y93,2 = +0
 cons2: +1 Y93,4 = +0
 cons2: +1 Y94,0 = +0
 cons2: +1 Y94,2 = +0
 cons2: +1 Y94,4 = +0
 cons2: +1 Y95,0 = +0
 cons2: +1 Y95,2 = +0
 cons2: +1 Y95,4 = +0
 cons2: +1 Y96,0 = +0
 cons2: +1 Y96,2 = +0
 cons2: +1 Y96,4 = +0
 cons2: +1 Y97,0 = +0
 cons2: +1 Y97,1 = +0
 cons2: +1 Y97,4 = +0
 cons2: +1 Y98,0 = +0
 cons2: +1 Y98,1 = +0
 cons2: +1 Y98,4 = +0
 cons2: +1 Y99,0 = +0
 cons2: +1 Y99,1 = +0
 cons2: +1 Y99,4 = +0
 cons2: +1 Y100,0 = +0
 cons2: +1 Y100,1 = +0
 cons2: +1 Y100,4 = +0
 cons2: +1 Y101,0 = +0
 cons2: +1 Y101,1 = +0
 cons2: +1 Y101,4 = +0
 cons2: +1 Y102,0 = +0
 cons2: +1 Y102,1 = +0
 cons2: +1 Y102,4 = +0
 cons2: +1 Y103,0 = +0
 cons2: +1 Y103,1 = +0
 cons2: +1 Y103,4 = +0
 cons2: +1 Y104,0 = +0
 cons2: +1 Y104,1 = +0
 cons2: +1 Y104,4 = +0
 cons2: +1 Y105,0 = +0
 cons2: +1 Y105,1 = +0
 cons2: +1 Y105,4 = +0
 cons2: +1 Y106,0 = +0
 cons2: +1 Y106,1 = +0
 cons2: +1 Y106,4 = +0
 cons2: +1 Y107,0 = +0
 cons2: +1 Y107,1 = +0
 cons2: +1 Y107,4 = +0
 cons2: +1 Y108,0 = +0
 cons2: +1 Y108,1 = +0
 cons2: +1 Y108,4 = +0
 cons2: +1 Y109,0 = +0
 cons2: +1 Y109,1 = +0
 cons2: +1 Y109,4 = +0
 cons2: +1 Y110,0 = +0
 cons2: +1 Y110,1 = +0
 cons2: +1 Y110,4 = +0
 cons2: +1 Y111,0 = +0
 cons2: +1 Y111,2 = +0
 cons2: +1 Y111,3 = +0
 cons2: +1 Y112,0 = +0
 cons2: +1 Y112,2 = +0
 cons2: +1 Y112,3 = +0
 cons2: +1 Y113,0 = +0
 cons2: +1 Y113,2 = +0
 cons2: +1 Y113,3 = +0
 cons2: +1 Y114,0 = +0
 cons2: +1 Y114,2 = +0
 cons2: +1 Y114,3 = +0
 cons2: +1 Y115,0 = +0
 cons2: +1 Y115,2 = +0
 cons2: +1 Y115,3 = +0
 cons2: +1 Y116,0 = +0
 cons2: +1 Y116,2 = +0
 cons2: +1 Y116,3 = +0
 cons2: +1 Y117,0 = +0
 cons2: +1 Y117,2 = +0
 cons2: +1 Y117,3 = +0
 cons2: +1 Y118,0 = +0
 cons2: +1 Y118,2 = +0
 cons2: +1 Y118,3 = +0
 cons2: +1 Y119,0 = +0
 cons2: +1 Y119,2 = +0
 cons2: +1 Y119,3 = +0
 cons2: +1 Y120,0 = +0
 cons2: +1 Y120,2 = +0
 cons2: +1 Y120,3 = +0
 cons2: +1 Y121,0 = +0
 cons2: +1 Y121,2 = +0
 cons2: +1 Y121,3 = +0
 cons2: +1 Y122,0 = +0
 cons2: +1 Y122,2 = +0
 cons2: +1 Y122,3 = +0
 cons2: +1 Y123,0 = +0
 cons2: +1 Y123,2 = +0
 cons2: +1 Y123,3 = +0
 cons2: +1 Y124,0 = +0
 cons2: +1 Y124,2 = +0
 cons2: +1 Y124,3 = +0
 cons2: +1 Y125,0 = +0
 cons2: +1 Y125,2 = +0
 cons2: +1 Y125,3 = +0
 cons2: +1 Y126,1 = +0
 cons2: +1 Y126,2 = +0
 cons2: +1 Y126,3 = +0
 cons2: +1 Y127,1 = +0
 cons2: +1 Y127,2 = +0
 cons2: +1 Y127,3 = +0
 cons2: +1 Y128,1 = +0
 cons2: +1 Y128,2 = +0
 cons2: +1 Y128,3 = +0
 cons2: +1 Y129,1 = +0
 cons2: +1 Y129,2 = +0
 cons2: +1 Y129,3 = +0
 cons2: +1 Y130,1 = +0
 cons2: +1 Y130,2 = +0
 cons2: +1 Y130,3 = +0
 cons2: +1 Y131,1 = +0
 cons2: +1 Y131,2 = +0
 cons2: +1 Y131,3 = +0
 cons2: +1 Y132,1 = +0
 cons2: +1 Y132,2 = +0
 cons2: +1 Y132,3 = +0
 cons2: +1 Y133,1 = +0
 cons2: +1 Y133,2 = +0
 cons2: +1 Y133,3 = +0
 cons2: +1 Y134,1 = +0
 cons2: +1 Y134,2 = +0
 cons2: +1 Y134,3 = +0
 cons2: +1 Y135,1 = +0
 cons2: +1 Y135,2 = +0
 cons2: +1 Y135,3 = +0
 cons2: +1 Y136,1 = +0
 cons2: +1 Y136,2 = +0
 cons2: +1 Y136,3 = +0
 cons2: +1 Y137,1 = +0
 cons2: +1 Y137,2 = +0
 cons2: +1 Y137,3 = +0
 cons2: +1 Y138,1 = +0
 cons2: +1 Y138,2 = +0
 cons2: +1 Y138,3 = +0
 cons2: +1 Y139,1 = +0
 cons2: +1 Y139,2 = +0
 cons2: +1 Y139,3 = +0
 cons2: +1 Y140,1 = +0
 cons2: +1 Y140,2 = +0
 cons2: +1 Y140,3 = +0
 cons3: +1 Cmax -70 Y0,0 -70 Y1,0 -70 Y2,0 -70 Y3,0 -70 Y4,0 -70 Y5,0 -70 Y6,0 -60 Y7,0 -60 Y8,0 -60 Y9,0
  -60 Y10,0 -60 Y11,0 -60 Y12,0 -60 Y13,0 -60 Y14,0 -60 Y15,0 -60 Y16,0 -60 Y17,0 -60 Y18,0 -60 Y19,0
  -60 Y20,0 -60 Y21,0 -80 Y22,0 -80 Y23,0 -80 Y24,0 -80 Y25,0 -80 Y26,0 -80 Y27,0 -80 Y28,0 -80 Y29,0
  -80 Y30,0 -80 Y31,0 -80 Y32,0 -80 Y33,0 -80 Y34,0 -80 Y35,0 -80 Y36,0 -80 Y37,0 -80 Y38,0 -80 Y39,0
  -80 Y40,0 -80 Y41,0 -80 Y42,0 -80 Y43,0 -80 Y44,0 -80 Y45,0 -80 Y46,0 -80 Y47,0 -80 Y48,0 -80 Y49,0
  -80 Y50,0 -80 Y51,0 -80 Y52,0 -80 Y53,0 -80 Y54,0 -80 Y55,0 -80 Y56,0 -80 Y57,0 -80 Y58,0 -80 Y59,0
  -80 Y60,0 -80 Y61,0 -80 Y62,0 -80 Y63,0 -80 Y64,0 -80 Y65,0 -65 Y66,0 -65 Y67,0 -65 Y68,0 -65 Y69,0
  -65 Y70,0 -65 Y71,0 -65 Y72,0 -65 Y73,0 -65 Y74,0 -65 Y75,0 -65 Y76,0 -65 Y77,0 -65 Y78,0 -65 Y79,0
  -65 Y80,0 -65 Y81,0 -65 Y82,0 -65 Y83,0 -65 Y84,0 -65 Y85,0 -65 Y86,0 -65 Y87,0 -65 Y88,0 -65 Y89,0
  -65 Y90,0 -65 Y91,0 -65 Y92,0 -65 Y93,0 -65 Y94,0 -65 Y95,0 -65 Y96,0 -50 Y97,0 -50 Y98,0 -50 Y99,0
  -50 Y100,0 -50 Y101,0 -50 Y102,0 -50 Y103,0 -50 Y104,0 -50 Y105,0 -50 Y106,0 -50 Y107,0 -50 Y108,0 -50 Y109,0
  -50 Y110,0 -45 Y111,0 -45 Y112,0 -45 Y113,0 -45 Y114,0 -45 Y115,0 -45 Y116,0 -45 Y117,0 -45 Y118,0 -45 Y119,0
  -45 Y120,0 -45 Y121,0 -45 Y122,0 -45 Y123,0 -45 Y124,0 -45 Y125,0 -45 Y126,0 -45 Y127,0 -45 Y128,0 -45 Y129,0
  -45 Y130,0 -45 Y131,0 -45 Y132,0 -45 Y133,0 -45 Y134,0 -45 Y135,0 -45 Y136,0 -45 Y137,0 -45 Y138,0 -45 Y139,0
  -45 Y140,0 >= +0
 cons3: +1 Cmax -70 Y0,1 -70 Y1,1 -70 Y2,1 -70 Y3,1 -70 Y4,1 -70 Y5,1 -70 Y6,1 -60 Y7,1 -60 Y8,1 -60 Y9,1
  -60 Y10,1 -60 Y11,1 -60 Y12,1 -60 Y13,1 -60 Y14,1 -60 Y15,1 -60 Y16,1 -60 Y17,1 -60 Y18,1 -60 Y19,1
  -60 Y20,1 -60 Y21,1 -80 Y22,1 -80 Y23,1 -80 Y24,1 -80 Y25,1 -80 Y26,1 -80 Y27,1 -80 Y28,1 -80 Y29,1
  -80 Y30,1 -80 Y31,1 -80 Y32,1 -80 Y33,1 -80 Y34,1 -80 Y35,1 -80 Y36,1 -80 Y37,1 -80 Y38,1 -80 Y39,1
  -80 Y40,1 -80 Y41,1 -80 Y42,1 -80 Y43,1 -80 Y44,1 -80 Y45,1 -80 Y46,1 -80 Y47,1 -80 Y48,1 -80 Y49,1
  -80 Y50,1 -80 Y51,1 -80 Y52,1 -80 Y53,1 -80 Y54,1 -80 Y55,1 -80 Y56,1 -80 Y57,1 -80 Y58,1 -80 Y59,1
  -80 Y60,1 -80 Y61,1 -80 Y62,1 -80 Y63,1 -80 Y64,1 -80 Y65,1 -65 Y66,1 -65 Y67,1 -65 Y68,1 -65 Y69,1
  -65 Y70,1 -65 Y71,1 -65 Y72,1 -65 Y73,1 -65 Y74,1 -65 Y75,1 -65 Y76,1 -65 Y77,1 -65 Y78,1 -65 Y79,1
  -65 Y80,1 -65 Y81,1 -65 Y82,1 -65 Y83,1 -65 Y84,1 -65 Y85,1 -65 Y86,1 -65 Y87,1 -65 Y88,1 -65 Y89,1
  -65 Y90,1 -65 Y91,1 -65 Y92,1 -65 Y93,1 -65 Y94,1 -65 Y95,1 -65 Y96,1 -50 Y97,1 -50 Y98,1 -50 Y99,1
  -50 Y100,1 -50 Y101,1 -50 Y102,1 -50 Y103,1 -50 Y104,1 -50 Y105,1 -50 Y106,1 -50 Y107,1 -50 Y108,1 -50 Y109,1
  -50 Y110,1 -45 Y111,1 -45 Y112,1 -45 Y113,1 -45 Y114,1 -45 Y115,1 -45 Y116,1 -45 Y117,1 -45 Y118,1 -45 Y119,1
  -45 Y120,1 -45 Y121,1 -45 Y122,1 -45 Y123,1 -45 Y124,1 -45 Y125,1 -45 Y126,1 -45 Y127,1 -45 Y128,1 -45 Y129,1
  -45 Y130,1 -45 Y131,1 -45 Y132,1 -45 Y133,1 -45 Y134,1 -45 Y135,1 -45 Y136,1 -45 Y137,1 -45 Y138,1 -45 Y139,1
  -45 Y140,1 >= +0
 cons3: +1 Cmax -70 Y0,2 -70 Y1,2 -70 Y2,2 -70 Y3,2 -70 Y4,2 -70 Y5,2 -70 Y6,2 -60 Y7,2 -60 Y8,2 -60 Y9,2
  -60 Y10,2 -60 Y11,2 -60 Y12,2 -60 Y13,2 -60 Y14,2 -60 Y15,2 -60 Y16,2 -60 Y17,2 -60 Y18,2 -60 Y19,2
  -60 Y20,2 -60 Y21,2 -80 Y22,2 -80 Y23,2 -80 Y24,2 -80 Y25,2 -80 Y26,2 -80 Y27,2 -80 Y28,2 -80 Y29,2
  -80 Y30,2 -80 Y31,2 -80 Y32,2 -80 Y33,2 -80 Y34,2 -80 Y35,2 -80 Y36,2 -80 Y37,2 -80 Y38,2 -80 Y39,2
  -80 Y40,2 -80 Y41,2 -80 Y42,2 -80 Y43,2 -80 Y44,2 -80 Y45,2 -80 Y46,2 -80 Y47,2 -80 Y48,2 -80 Y49,2
  -80 Y50,2 -80 Y51,2 -80 Y52,2 -80 Y53,2 -80 Y54,2 -80 Y55,2 -80 Y56,2 -80 Y57,2 -80 Y58,2 -80 Y59,2
  -80 Y60,2 -80 Y61,2 -80 Y62,2 -80 Y63,2 -80 Y64,2 -80 Y65,2 -65 Y66,2 -65 Y67,2 -65 Y68,2 -65 Y69,2
  -65 Y70,2 -65 Y71,2 -65 Y72,2 -65 Y73,2 -65 Y74,2 -65 Y75,2 -65 Y76,2 -65 Y77,2 -65 Y78,2 -65 Y79,2
  -65 Y80,2 -65 Y81,2 -65 Y82,2 -65 Y83,2 -65 Y84,2 -65 Y85,2 -65 Y86,2 -65 Y87,2 -65 Y88,2 -65 Y89,2
  -65 Y90,2 -65 Y91,2 -65 Y92,2 -65 Y93,2 -65 Y94,2 -65 Y95,2 -65 Y96,2 -50 Y97,2 -50 Y98,2 -50 Y99,2
  -50 Y100,2 -50 Y101,2 -50 Y102,2 -50 Y103,2 -50 Y104,2 -50 Y105,2 -50 Y106,2 -50 Y107,2 -50 Y108,2 -50 Y109,2
  -50 Y110,2 -45 Y111,2 -45 Y112,2 -45 Y113,2 -45 Y114,2 -45 Y115,2 -45 Y116,2 -45 Y117,2 -45 Y118,2 -45 Y119,2
  -45 Y120,2 -45 Y121,2 -45 Y122,2 -45 Y123,2 -45 Y124,2 -45 Y125,2 -45 Y126,2 -45 Y127,2 -45 Y128,2 -45 Y129,2
  -45 Y130,2 -45 Y131,2 -45 Y132,2 -45 Y133,2 -45 Y134,2 -45 Y135,2 -45 Y136,2 -45 Y137,2 -45 Y138,2 -45 Y139,2
  -45 Y140,2 >= +0
 cons3: +1 Cmax -70 Y0,3 -70 Y1,3 -70 Y2,3 -70 Y3,3 -70 Y4,3 -70 Y5,3 -70 Y6,3 -60 Y7,3 -60 Y8,3 -60 Y9,3
  -60 Y10,3 -60 Y11,3 -60 Y12,3 -60 Y13,3 -60 Y14,3 -60 Y15,3 -60 Y16,3 -60 Y17,3 -60 Y18,3 -60 Y19,3
  -60 Y20,3 -60 Y21,3 -80 Y22,3 -80 Y23,3 -80 Y24,3 -80 Y25,3 -80 Y26,3 -80 Y27,3 -80 Y28,3 -80 Y29,3
  -80 Y30,3 -80 Y31,3 -80 Y32,3 -80 Y33,3 -80 Y34,3 -80 Y35,3 -80 Y36,3 -80 Y37,3 -80 Y38,3 -80 Y39,3
  -80 Y40,3 -80 Y41,3 -80 Y42,3 -80 Y43,3 -80 Y44,3 -80 Y45,3 -80 Y46,3 -80 Y47,3 -80 Y48,3 -80 Y49,3
  -80 Y50,3 -80 Y51,3 -80 Y52,3 -80 Y53,3 -80 Y54,3 -80 Y55,3 -80 Y56,3 -80 Y57,3 -80 Y58,3 -80 Y59,3
  -80 Y60,3 -80 Y61,3 -80 Y62,3 -80 Y63,3 -80 Y64,3 -80 Y65,3 -65 Y66,3 -65 Y67,3 -65 Y68,3 -65 Y69,3
  -65 Y70,3 -65 Y71,3 -65 Y72,3 -65 Y73,3 -65 Y74,3 -65 Y75,3 -65 Y76,3 -65 Y77,3 -65 Y78,3 -65 Y79,3
  -65 Y80,3 -65 Y81,3 -65 Y82,3 -65 Y83,3 -65 Y84,3 -65 Y85,3 -65 Y86,3 -65 Y87,3 -65 Y88,3 -65 Y89,3
  -65 Y90,3 -65 Y91,3 -65 Y92,3 -65 Y93,3 -65 Y94,3 -65 Y95,3 -65 Y96,3 -50 Y97,3 -50 Y98,3 -50 Y99,3
  -50 Y100,3 -50 Y101,3 -50 Y102,3 -50 Y103,3 -50 Y104,3 -50 Y105,3 -50 Y106,3 -50 Y107,3 -50 Y108,3 -50 Y109,3
  -50 Y110,3 -45 Y111,3 -45 Y112,3 -45 Y113,3 -45 Y114,3 -45 Y115,3 -45 Y116,3 -45 Y117,3 -45 Y118,3 -45 Y119,3
  -45 Y120,3 -45 Y121,3 -45 Y122,3 -45 Y123,3 -45 Y124,3 -45 Y125,3 -45 Y126,3 -45 Y127,3 -45 Y128,3 -45 Y129,3
  -45 Y130,3 -45 Y131,3 -45 Y132,3 -45 Y133,3 -45 Y134,3 -45 Y135,3 -45 Y136,3 -45 Y137,3 -45 Y138,3 -45 Y139,3
  -45 Y140,3 >= +0
 cons3: +1 Cmax -70 Y0,4 -70 Y1,4 -70 Y2,4 -70 Y3,4 -70 Y4,4 -70 Y5,4 -70 Y6,4 -60 Y7,4 -60 Y8,4 -60 Y9,4
  -60 Y10,4 -60 Y11,4 -60 Y12,4 -60 Y13,4 -60 Y14,4 -60 Y15,4 -60 Y16,4 -60 Y17,4 -60 Y18,4 -60 Y19,4
  -60 Y20,4 -60 Y21,4 -80 Y22,4 -80 Y23,4 -80 Y24,4 -80 Y25,4 -80 Y26,4 -80 Y27,4 -80 Y28,4 -80 Y29,4
  -80 Y30,4 -80 Y31,4 -80 Y32,4 -80 Y33,4 -80 Y34,4 -80 Y35,4 -80 Y36,4 -80 Y37,4 -80 Y38,4 -80 Y39,4
  -80 Y40,4 -80 Y41,4 -80 Y42,4 -80 Y43,4 -80 Y44,4 -80 Y45,4 -80 Y46,4 -80 Y47,4 -80 Y48,4 -80 Y49,4
  -80 Y50,4 -80 Y51,4 -80 Y52,4 -80 Y53,4 -80 Y54,4 -80 Y55,4 -80 Y56,4 -80 Y57,4 -80 Y58,4 -80 Y59,4
  -80 Y60,4 -80 Y61,4 -80 Y62,4 -80 Y63,4 -80 Y64,4 -80 Y65,4 -65 Y66,4 -65 Y67,4 -65 Y68,4 -65 Y69,4
  -65 Y70,4 -65 Y71,4 -65 Y72,4 -65 Y73,4 -65 Y74,4 -65 Y75,4 -65 Y76,4 -65 Y77,4 -65 Y78,4 -65 Y79,4
  -65 Y80,4 -65 Y81,4 -65 Y82,4 -65 Y83,4 -65 Y84,4 -65 Y85,4 -65 Y86,4 -65 Y87,4 -65 Y88,4 -65 Y89,4
  -65 Y90,4 -65 Y91,4 -65 Y92,4 -65 Y93,4 -65 Y94,4 -65 Y95,4 -65 Y96,4 -50 Y97,4 -50 Y98,4 -50 Y99,4
  -50 Y100,4 -50 Y101,4 -50 Y102,4 -50 Y103,4 -50 Y104,4 -50 Y105,4 -50 Y106,4 -50 Y107,4 -50 Y108,4 -50 Y109,4
  -50 Y110,4 -45 Y111,4 -45 Y112,4 -45 Y113,4 -45 Y114,4 -45 Y115,4 -45 Y116,4 -45 Y117,4 -45 Y118,4 -45 Y119,4
  -45 Y120,4 -45 Y121,4 -45 Y122,4 -45 Y123,4 -45 Y124,4 -45 Y125,4 -45 Y126,4 -45 Y127,4 -45 Y128,4 -45 Y129,4
  -45 Y130,4 -45 Y131,4 -45 Y132,4 -45 Y133,4 -45 Y134,4 -45 Y135,4 -45 Y136,4 -45 Y137,4 -45 Y138,4 -45 Y139,4
  -45 Y140,4 >= +0
 cons4: +15.2 Y0,0 <= +40
 cons4: +15.2 Y0,1 <= +30
 cons4: +15.2 Y0,2 <= +50
 cons4: +15.2 Y0,3 <= +40
 cons4: +15.2 Y0,4 <= +60
 cons4: +17.9 Y1,0 <= +40
 cons4: +17.9 Y1,1 <= +30
 cons4: +17.9 Y1,2 <= +50
 cons4: +17.9 Y1,3 <= +40
 cons4: +17.9 Y1,4 <= +60
 cons4: +23.2 Y2,0 <= +40
 cons4: +23.2 Y2,1 <= +30
 cons4: +23.2 Y2,2 <= +50
 cons4: +23.2 Y2,3 <= +40
 cons4: +23.2 Y2,4 <= +60
 cons4: +33.1 Y3,0 <= +40
 cons4: +33.1 Y3,1 <= +30
 cons4: +33.1 Y3,2 <= +50
 cons4: +33.1 Y3,3 <= +40
 cons4: +33.1 Y3,4 <= +60
 cons4: +38.4 Y4,0 <= +40
 cons4: +38.4 Y4,1 <= +30
 cons4: +38.4 Y4,2 <= +50
 cons4: +38.4 Y4,3 <= +40
 cons4: +38.4 Y4,4 <= +60
 cons4: +41.1 Y5,0 <= +40
 cons4: +41.1 Y5,1 <= +30
 cons4: +41.1 Y5,2 <= +50
 cons4: +41.1 Y5,3 <= +40
 cons4: +41.1 Y5,4 <= +60
 cons4: +56.3 Y6,0 <= +40
 cons4: +56.3 Y6,1 <= +30
 cons4: +56.3 Y6,2 <= +50
 cons4: +56.3 Y6,3 <= +40
 cons4: +56.3 Y6,4 <= +60
 cons4: +8.8 Y7,0 <= +40
 cons4: +8.8 Y7,1 <= +30
 cons4: +8.8 Y7,2 <= +50
 cons4: +8.8 Y7,3 <= +40
 cons4: +8.8 Y7,4 <= +60
 cons4: +11.1 Y8,0 <= +40
 cons4: +11.1 Y8,1 <= +30
 cons4: +11.1 Y8,2 <= +50
 cons4: +11.1 Y8,3 <= +40
 cons4: +11.1 Y8,4 <= +60
 cons4: +20.8 Y9,0 <= +40
 cons4: +20.8 Y9,1 <= +30
 cons4: +20.8 Y9,2 <= +50
 cons4: +20.8 Y9,3 <= +40
 cons4: +20.8 Y9,4 <= +60
 cons4: +11.7 Y10,0 <= +40
 cons4: +11.7 Y10,1 <= +30
 cons4: +11.7 Y10,2 <= +50
 cons4: +11.7 Y10,3 <= +40
 cons4: +11.7 Y10,4 <= +60
 cons4: +19.9 Y11,0 <= +40
 cons4: +19.9 Y11,1 <= +30
 cons4: +19.9 Y11,2 <= +50
 cons4: +19.9 Y11,3 <= +40
 cons4: +19.9 Y11,4 <= +60
 cons4: +29.6 Y12,0 <= +40
 cons4: +29.6 Y12,1 <= +30
 cons4: +29.6 Y12,2 <= +50
 cons4: +29.6 Y12,3 <= +40
 cons4: +29.6 Y12,4 <= +60
 cons4: +20.5 Y13,0 <= +40
 cons4: +20.5 Y13,1 <= +30
 cons4: +20.5 Y13,2 <= +50
 cons4: +20.5 Y13,3 <= +40
 cons4: +20.5 Y13,4 <= +60
 cons4: +31.9 Y14,0 <= +40
 cons4: +31.9 Y14,1 <= +30
 cons4: +31.9 Y14,2 <= +50
 cons4: +31.9 Y14,3 <= +40
 cons4: +31.9 Y14,4 <= +60
 cons4: +22.8 Y15,0 <= +40
 cons4: +22.8 Y15,1 <= +30
 cons4: +22.8 Y15,2 <= +50
 cons4: +22.8 Y15,3 <= +40
 cons4: +22.8 Y15,4 <= +60
 cons4: +32.5 Y16,0 <= +40
 cons4: +32.5 Y16,1 <= +30
 cons4: +32.5 Y16,2 <= +50
 cons4: +32.5 Y16,3 <= +40
 cons4: +32.5 Y16,4 <= +60
 cons4: +40.7 Y17,0 <= +40
 cons4: +40.7 Y17,1 <= +30
 cons4: +40.7 Y17,2 <= +50
 cons4: +40.7 Y17,3 <= +40
 cons4: +40.7 Y17,4 <= +60
 cons4: +31.6 Y18,0 <= +40
 cons4: +31.6 Y18,1 <= +30
 cons4: +31.6 Y18,2 <= +50
 cons4: +31.6 Y18,3 <= +40
 cons4: +31.6 Y18,4 <= +60
 cons4: +41.3 Y19,0 <= +40
 cons4: +41.3 Y19,1 <= +30
 cons4: +41.3 Y19,2 <= +50
 cons4: +41.3 Y19,3 <= +40
 cons4: +41.3 Y19,4 <= +60
 cons4: +43.6 Y20,0 <= +40
 cons4: +43.6 Y20,1 <= +30
 cons4: +43.6 Y20,2 <= +50
 cons4: +43.6 Y20,3 <= +40
 cons4: +43.6 Y20,4 <= +60
 cons4: +52.4 Y21,0 <= +40
 cons4: +52.4 Y21,1 <= +30
 cons4: +52.4 Y21,2 <= +50
 cons4: +52.4 Y21,3 <= +40
 cons4: +52.4 Y21,4 <= +60
 cons4: +24.1 Y22,0 <= +40
 cons4: +24.1 Y22,1 <= +30
 cons4: +24.1 Y22,2 <= +50
 cons4: +24.1 Y22,3 <= +40
 cons4: +24.1 Y22,4 <= +60
 cons4: +9.5 Y23,0 <= +40
 cons4: +9.5 Y23,1 <= +30
 cons4: +9.5 Y23,2 <= +50
 cons4: +9.5 Y23,3 <= +40
 cons4: +9.5 Y23,4 <= +60
 cons4: +16.2 Y24,0 <= +40
 cons4: +16.2 Y24,1 <= +30
 cons4: +16.2 Y24,2 <= +50
 cons4: +16.2 Y24,3 <= +40
 cons4: +16.2 Y24,4 <= +60
 cons4: +15.1 Y25,0 <= +40
 cons4: +15.1 Y25,1 <= +30
 cons4: +15.1 Y25,2 <= +50
 cons4: +15.1 Y25,3 <= +40
 cons4: +15.1 Y25,4 <= +60
 cons4: +8.6 Y26,0 <= +40
 cons4: +8.6 Y26,1 <= +30
 cons4: +8.6 Y26,2 <= +50
 cons4: +8.6 Y26,3 <= +40
 cons4: +8.6 Y26,4 <= +60
 cons4: +22.4 Y27,0 <= +40
 cons4: +22.4 Y27,1 <= +30
 cons4: +22.4 Y27,2 <= +50
 cons4: +22.4 Y27,3 <= +40
 cons4: +22.4 Y27,4 <= +60
 cons4: +33.6 Y28,0 <= +40
 cons4: +33.6 Y28,1 <= +30
 cons4: +33.6 Y28,2 <= +50
 cons4: +33.6 Y28,3 <= +40
 cons4: +33.6 Y28,4 <= +60
 cons4: +40.3 Y29,0 <= +40
 cons4: +40.3 Y29,1 <= +30
 cons4: +40.3 Y29,2 <= +50
 cons4: +40.3 Y29,3 <= +40
 cons4: +40.3 Y29,4 <= +60
 cons4: +39.2 Y30,0 <= +40
 cons4: +39.2 Y30,1 <= +30
 cons4: +39.2 Y30,2 <= +50
 cons4: +39.2 Y30,3 <= +40
 cons4: +39.2 Y30,4 <= +60
 cons4: +32.7 Y31,0 <= +40
 cons4: +32.7 Y31,1 <= +30
 cons4: +32.7 Y31,2 <= +50
 cons4: +32.7 Y31,3 <= +40
 cons4: +32.7 Y31,4 <= +60
 cons4: +46.5 Y32,0 <= +40
 cons4: +46.5 Y32,1 <= +30
 cons4: +46.5 Y32,2 <= +50
 cons4: +46.5 Y32,3 <= +40
 cons4: +46.5 Y32,4 <= +60
 cons4: +25.7 Y33,0 <= +40
 cons4: +25.7 Y33,1 <= +30
 cons4: +25.7 Y33,2 <= +50
 cons4: +25.7 Y33,3 <= +40
 cons4: +25.7 Y33,4 <= +60
 cons4: +24.6 Y34,0 <= +40
 cons4: +24.6 Y34,1 <= +30
 cons4: +24.6 Y34,2 <= +50
 cons4: +24.6 Y34,3 <= +40
 cons4: +24.6 Y34,4 <= +60
 cons4: +18.1 Y35,0 <= +40
 cons4: +18.1 Y35,1 <= +30
 cons4: +18.1 Y35,2 <= +50
 cons4: +18.1 Y35,3 <= +40
 cons4: +18.1 Y35,4 <= +60
 cons4: +31.9 Y36,0 <= +40
 cons4: +31.9 Y36,1 <= +30
 cons4: +31.9 Y36,2 <= +50
 cons4: +31.9 Y36,3 <= +40
 cons4: +31.9 Y36,4 <= +60
 cons4: +31.3 Y37,0 <= +40
 cons4: +31.3 Y37,1 <= +30
 cons4: +31.3 Y37,2 <= +50
 cons4: +31.3 Y37,3 <= +40
 cons4: +31.3 Y37,4 <= +60
 cons4: +24.8 Y38,0 <= +40
 cons4: +24.8 Y38,1 <= +30
 cons4: +24.8 Y38,2 <= +50
 cons4: +24.8 Y38,3 <= +40
 cons4: +24.8 Y38,4 <= +60
 cons4: +38.6 Y39,0 <= +40
 cons4: +38.6 Y39,1 <= +30
 cons4: +38.6 Y39,2 <= +50
 cons4: +38.6 Y39,3 <= +40
 cons4: +38.6 Y39,4 <= +60
 cons4: +23.7 Y40,0 <= +40
 cons4: +23.7 Y40,1 <= +30
 cons4: +23.7 Y40,2 <= +50
 cons4: +23.7 Y40,3 <= +40
 cons4: +23.7 Y40,4 <= +60
 cons4: +37.5 Y41,0 <= +40
 cons4: +37.5 Y41,1 <= +30
 cons4: +37.5 Y41,2 <= +50
 cons4: +37.5 Y41,3 <= +40
 cons4: +37.5 Y41,4 <= +60
 cons4: +31 Y42,0 <= +40
 cons4: +31 Y42,1 <= +30
 cons4: +31 Y42,2 <= +50
 cons4: +31 Y42,3 <= +40
 cons4: +31 Y42,4 <= +60
 cons4: +49.8 Y43,0 <= +40
 cons4: +49.8 Y43,1 <= +30
 cons4: +49.8 Y43,2 <= +50
 cons4: +49.8 Y43,3 <= +40
 cons4: +49.8 Y43,4 <= +60
 cons4: +48.7 Y44,0 <= +40
 cons4: +48.7 Y44,1 <= +30
 cons4: +48.7 Y44,2 <= +50
 cons4: +48.7 Y44,3 <= +40
 cons4: +48.7 Y44,4 <= +60
 cons4: +42.2 Y45,0 <= +40
 cons4: +42.2 Y45,1 <= +30
 cons4: +42.2 Y45,2 <= +50
 cons4: +42.2 Y45,3 <= +40
 cons4: +42.2 Y45,4 <= +60
 cons4: +56 Y46,0 <= +40
 cons4: +56 Y46,1 <= +30
 cons4: +56 Y46,2 <= +50
 cons4: +56 Y46,3 <= +40
 cons4: +56 Y46,4 <= +60
 cons4: +55.4 Y47,0 <= +40
 cons4: +55.4 Y47,1 <= +30
 cons4: +55.4 Y47,2 <= +50
 cons4: +55.4 Y47,3 <= +40
 cons4: +55.4 Y47,4 <= +60
 cons4: +48.9 Y48,0 <= +40
 cons4: +48.9 Y48,1 <= +30
 cons4: +48.9 Y48,2 <= +50
 cons4: +48.9 Y48,3 <= +40
 cons4: +48.9 Y48,4 <= +60
 cons4: +47.8 Y49,0 <= +40
 cons4: +47.8 Y49,1 <= +30
 cons4: +47.8 Y49,2 <= +50
 cons4: +47.8 Y49,3 <= +40
 cons4: +47.8 Y49,4 <= +60
 cons4: +55.1 Y50,0 <= +40
 cons4: +55.1 Y50,1 <= +30
 cons4: +55.1 Y50,2 <= +50
 cons4: +55.1 Y50,3 <= +40
 cons4: +55.1 Y50,4 <= +60
 cons4: +40.8 Y51,0 <= +40
 cons4: +40.8 Y51,1 <= +30
 cons4: +40.8 Y51,2 <= +50
 cons4: +40.8 Y51,3 <= +40
 cons4: +40.8 Y51,4 <= +60
 cons4: +34.3 Y52,0 <= +40
 cons4: +34.3 Y52,1 <= +30
 cons4: +34.3 Y52,2 <= +50
 cons4: +34.3 Y52,3 <= +40
 cons4: +34.3 Y52,4 <= +60
 cons4: +48.1 Y53,0 <= +40
 cons4: +48.1 Y53,1 <= +30
 cons4: +48.1 Y53,2 <= +50
 cons4: +48.1 Y53,3 <= +40
 cons4: +48.1 Y53,4 <= +60
 cons4: +33.2 Y54,0 <= +40
 cons4: +33.2 Y54,1 <= +30
 cons4: +33.2 Y54,2 <= +50
 cons4: +33.2 Y54,3 <= +40
 cons4: +33.2 Y54,4 <= +60
 cons4: +47 Y55,0 <= +40
 cons4: +47 Y55,1 <= +30
 cons4: +47 Y55,2 <= +50
 cons4: +47 Y55,3 <= +40
 cons4: +47 Y55,4 <= +60
 cons4: +40.5 Y56,0 <= +40
 cons4: +40.5 Y56,1 <= +30
 cons4: +40.5 Y56,2 <= +50
 cons4: +40.5 Y56,3 <= +40
 cons4: +40.5 Y56,4 <= +60
 cons4: +39.9 Y57,0 <= +40
 cons4: +39.9 Y57,1 <= +30
 cons4: +39.9 Y57,2 <= +50
 cons4: +39.9 Y57,3 <= +40
 cons4: +39.9 Y57,4 <= +60
 cons4: +53.7 Y58,0 <= +40
 cons4: +53.7 Y58,1 <= +30
 cons4: +53.7 Y58,2 <= +50
 cons4: +53.7 Y58,3 <= +40
 cons4: +53.7 Y58,4 <= +60
 cons4: +47.2 Y59,0 <= +40
 cons4: +47.2 Y59,1 <= +30
 cons4: +47.2 Y59,2 <= +50
 cons4: +47.2 Y59,3 <= +40
 cons4: +47.2 Y59,4 <= +60
 cons4: +46.1 Y60,0 <= +40
 cons4: +46.1 Y60,1 <= +30
 cons4: +46.1 Y60,2 <= +50
 cons4: +46.1 Y60,3 <= +40
 cons4: +46.1 Y60,4 <= +60
 cons4: +58.4 Y61,0 <= +40
 cons4: +58.4 Y61,1 <= +30
 cons4: +58.4 Y61,2 <= +50
 cons4: +58.4 Y61,3 <= +40
 cons4: +58.4 Y61,4 <= +60
 cons4: +57.3 Y62,0 <= +40
 cons4: +57.3 Y62,1 <= +30
 cons4: +57.3 Y62,2 <= +50
 cons4: +57.3 Y62,3 <= +40
 cons4: +57.3 Y62,4 <= +60
 cons4: +49.4 Y63,0 <= +40
 cons4: +49.4 Y63,1 <= +30
 cons4: +49.4 Y63,2 <= +50
 cons4: +49.4 Y63,3 <= +40
 cons4: +49.4 Y63,4 <= +60
 cons4: +56.7 Y64,0 <= +40
 cons4: +56.7 Y64,1 <= +30
 cons4: +56.7 Y64,2 <= +50
 cons4: +56.7 Y64,3 <= +40
 cons4: +56.7 Y64,4 <= +60
 cons4: +55.6 Y65,0 <= +40
 cons4: +55.6 Y65,1 <= +30
 cons4: +55.6 Y65,2 <= +50
 cons4: +55.6 Y65,3 <= +40
 cons4: +55.6 Y65,4 <= +60
 cons4: +6.1 Y66,0 <= +40
 cons4: +6.1 Y66,1 <= +30
 cons4: +6.1 Y66,2 <= +50
 cons4: +6.1 Y66,3 <= +40
 cons4: +6.1 Y66,4 <= +60
 cons4: +27.5 Y67,0 <= +40
 cons4: +27.5 Y67,1 <= +30
 cons4: +27.5 Y67,2 <= +50
 cons4: +27.5 Y67,3 <= +40
 cons4: +27.5 Y67,4 <= +60
 cons4: +7.2 Y68,0 <= +40
 cons4: +7.2 Y68,1 <= +30
 cons4: +7.2 Y68,2 <= +50
 cons4: +7.2 Y68,3 <= +40
 cons4: +7.2 Y68,4 <= +60
 cons4: +10.4 Y69,0 <= +40
 cons4: +10.4 Y69,1 <= +30
 cons4: +10.4 Y69,2 <= +50
 cons4: +10.4 Y69,3 <= +40
 cons4: +10.4 Y69,4 <= +60
 cons4: +6.9 Y70,0 <= +40
 cons4: +6.9 Y70,1 <= +30
 cons4: +6.9 Y70,2 <= +50
 cons4: +6.9 Y70,3 <= +40
 cons4: +6.9 Y70,4 <= +60
 cons4: +33.6 Y71,0 <= +40
 cons4: +33.6 Y71,1 <= +30
 cons4: +33.6 Y71,2 <= +50
 cons4: +33.6 Y71,3 <= +40
 cons4: +33.6 Y71,4 <= +60
 cons4: +13.3 Y72,0 <= +40
 cons4: +13.3 Y72,1 <= +30
 cons4: +13.3 Y72,2 <= +50
 cons4: +13.3 Y72,3 <= +40
 cons4: +13.3 Y72,4 <= +60
 cons4: +16.5 Y73,0 <= +40
 cons4: +16.5 Y73,1 <= +30
 cons4: +16.5 Y73,2 <= +50
 cons4: +16.5 Y73,3 <= +40
 cons4: +16.5 Y73,4 <= +60
 cons4: +13 Y74,0 <= +40
 cons4: +13 Y74,1 <= +30
 cons4: +13 Y74,2 <= +50
 cons4: +13 Y74,3 <= +40
 cons4: +13 Y74,4 <= +60
 cons4: +34.7 Y75,0 <= +40
 cons4: +34.7 Y75,1 <= +30
 cons4: +34.7 Y75,2 <= +50
 cons4: +34.7 Y75,3 <= +40
 cons4: +34.7 Y75,4 <= +60
 cons4: +37.9 Y76,0 <= +40
 cons4: +37.9 Y76,1 <= +30
 cons4: +37.9 Y76,2 <= +50
 cons4: +37.9 Y76,3 <= +40
 cons4: +37.9 Y76,4 <= +60
 cons4: +34.4 Y77,0 <= +40
 cons4: +34.4 Y77,1 <= +30
 cons4: +34.4 Y77,2 <= +50
 cons4: +34.4 Y77,3 <= +40
 cons4: +34.4 Y77,4 <= +60
 cons4: +17.6 Y78,0 <= +40
 cons4: +17.6 Y78,1 <= +30
 cons4: +17.6 Y78,2 <= +50
 cons4: +17.6 Y78,3 <= +40
 cons4: +17.6 Y78,4 <= +60
 cons4: +14.1 Y79,0 <= +40
 cons4: +14.1 Y79,1 <= +30
 cons4: +14.1 Y79,2 <= +50
 cons4: +14.1 Y79,3 <= +40
 cons4: +14.1 Y79,4 <= +60
 cons4: +17.3 Y80,0 <= +40
 cons4: +17.3 Y80,1 <= +30
 cons4: +17.3 Y80,2 <= +50
 cons4: +17.3 Y80,3 <= +40
 cons4: +17.3 Y80,4 <= +60
 cons4: +40.8 Y81,0 <= +40
 cons4: +40.8 Y81,1 <= +30
 cons4: +40.8 Y81,2 <= +50
 cons4: +40.8 Y81,3 <= +40
 cons4: +40.8 Y81,4 <= +60
 cons4: +44 Y82,0 <= +40
 cons4: +44 Y82,1 <= +30
 cons4: +44 Y82,2 <= +50
 cons4: +44 Y82,3 <= +40
 cons4: +44 Y82,4 <= +60
 cons4: +40.5 Y83,0 <= +40
 cons4: +40.5 Y83,1 <= +30
 cons4: +40.5 Y83,2 <= +50
 cons4: +40.5 Y83,3 <= +40
 cons4: +40.5 Y83,4 <= +60
 cons4: +23.7 Y84,0 <= +40
 cons4: +23.7 Y84,1 <= +30
 cons4: +23.7 Y84,2 <= +50
 cons4: +23.7 Y84,3 <= +40
 cons4: +23.7 Y84,4 <= +60
 cons4: +20.2 Y85,0 <= +40
 cons4: +20.2 Y85,1 <= +30
 cons4: +20.2 Y85,2 <= +50
 cons4: +20.2 Y85,3 <= +40
 cons4: +20.2 Y85,4 <= +60
 cons4: +23.4 Y86,0 <= +40
 cons4: +23.4 Y86,1 <= +30
 cons4: +23.4 Y86,2 <= +50
 cons4: +23.4 Y86,3 <= +40
 cons4: +23.4 Y86,4 <= +60
 cons4: +45.1 Y87,0 <= +40
 cons4: +45.1 Y87,1 <= +30
 cons4: +45.1 Y87,2 <= +50
 cons4: +45.1 Y87,3 <= +40
 cons4: +45.1 Y87,4 <= +60
 cons4: +41.6 Y88,0 <= +40
 cons4: +41.6 Y88,1 <= +30
 cons4: +41.6 Y88,2 <= +50
 cons4: +41.6 Y88,3 <= +40
 cons4: +41.6 Y88,4 <= +60
 cons4: +44.8 Y89,0 <= +40
 cons4: +44.8 Y89,1 <= +30
 cons4: +44.8 Y89,2 <= +50
 cons4: +44.8 Y89,3 <= +40
 cons4: +44.8 Y89,4 <= +60
 cons4: +24.5 Y90,0 <= +40
 cons4: +24.5 Y90,1 <= +30
 cons4: +24.5 Y90,2 <= +50
 cons4: +24.5 Y90,3 <= +40
 cons4: +24.5 Y90,4 <= +60
 cons4: +51.2 Y91,0 <= +40
 cons4: +51.2 Y91,1 <= +30
 cons4: +51.2 Y91,2 <= +50
 cons4: +51.2 Y91,3 <= +40
 cons4: +51.2 Y91,4 <= +60
 cons4: +47.7 Y92,0 <= +40
 cons4: +47.7 Y92,1 <= +30
 cons4: +47.7 Y92,2 <= +50
 cons4: +47.7 Y92,3 <= +40
 cons4: +47.7 Y92,4 <= +60
 cons4: +50.9 Y93,0 <= +40
 cons4: +50.9 Y93,1 <= +30
 cons4: +50.9 Y93,2 <= +50
 cons4: +50.9 Y93,3 <= +40
 cons4: +50.9 Y93,4 <= +60
 cons4: +30.6 Y94,0 <= +40
 cons4: +30.6 Y94,1 <= +30
 cons4: +30.6 Y94,2 <= +50
 cons4: +30.6 Y94,3 <= +40
 cons4: +30.6 Y94,4 <= +60
 cons4: +52 Y95,0 <= +40
 cons4: +52 Y95,1 <= +30
 cons4: +52 Y95,2 <= +50
 cons4: +52 Y95,3 <= +40
 cons4: +52 Y95,4 <= +60
 cons4: +58.1 Y96,0 <= +40
 cons4: +58.1 Y96,1 <= +30
 cons4: +58.1 Y96,2 <= +50
 cons4: +58.1 Y96,3 <= +40
 cons4: +58.1 Y96,4 <= +60
 cons4: +12.9 Y97,0 <= +40
 cons4: +12.9 Y97,1 <= +30
 cons4: +12.9 Y97,2 <= +50
 cons4: +12.9 Y97,3 <= +40
 cons4: +12.9 Y97,4 <= +60
 cons4: +21.3 Y98,0 <= +40
 cons4: +21.3 Y98,1 <= +30
 cons4: +21.3 Y98,2 <= +50
 cons4: +21.3 Y98,3 <= +40
 cons4: +21.3 Y98,4 <= +60
 cons4: +7.9 Y99,0 <= +40
 cons4: +7.9 Y99,1 <= +30
 cons4: +7.9 Y99,2 <= +50
 cons4: +7.9 Y99,3 <= +40
 cons4: +7.9 Y99,4 <= +60
 cons4: +19.5 Y100,0 <= +40
 cons4: +19.5 Y100,1 <= +30
 cons4: +19.5 Y100,2 <= +50
 cons4: +19.5 Y100,3 <= +40
 cons4: +19.5 Y100,4 <= +60
 cons4: +34.2 Y101,0 <= +40
 cons4: +34.2 Y101,1 <= +30
 cons4: +34.2 Y101,2 <= +50
 cons4: +34.2 Y101,3 <= +40
 cons4: +34.2 Y101,4 <= +60
 cons4: +20.8 Y102,0 <= +40
 cons4: +20.8 Y102,1 <= +30
 cons4: +20.8 Y102,2 <= +50
 cons4: +20.8 Y102,3 <= +40
 cons4: +20.8 Y102,4 <= +60
 cons4: +32.4 Y103,0 <= +40
 cons4: +32.4 Y103,1 <= +30
 cons4: +32.4 Y103,2 <= +50
 cons4: +32.4 Y103,3 <= +40
 cons4: +32.4 Y103,4 <= +60
 cons4: +29.2 Y104,0 <= +40
 cons4: +29.2 Y104,1 <= +30
 cons4: +29.2 Y104,2 <= +50
 cons4: +29.2 Y104,3 <= +40
 cons4: +29.2 Y104,4 <= +60
 cons4: +40.8 Y105,0 <= +40
 cons4: +40.8 Y105,1 <= +30
 cons4: +40.8 Y105,2 <= +50
 cons4: +40.8 Y105,3 <= +40
 cons4: +40.8 Y105,4 <= +60
 cons4: +27.4 Y106,0 <= +40
 cons4: +27.4 Y106,1 <= +30
 cons4: +27.4 Y106,2 <= +50
 cons4: +27.4 Y106,3 <= +40
 cons4: +27.4 Y106,4 <= +60
 cons4: +42.1 Y107,0 <= +40
 cons4: +42.1 Y107,1 <= +30
 cons4: +42.1 Y107,2 <= +50
 cons4: +42.1 Y107,3 <= +40
 cons4: +42.1 Y107,4 <= +60
 cons4: +53.7 Y108,0 <= +40
 cons4: +53.7 Y108,1 <= +30
 cons4: +53.7 Y108,2 <= +50
 cons4: +53.7 Y108,3 <= +40
 cons4: +53.7 Y108,4 <= +60
 cons4: +40.3 Y109,0 <= +40
 cons4: +40.3 Y109,1 <= +30
 cons4: +40.3 Y109,2 <= +50
 cons4: +40.3 Y109,3 <= +40
 cons4: +40.3 Y109,4 <= +60
 cons4: +48.7 Y110,0 <= +40
 cons4: +48.7 Y110,1 <= +30
 cons4: +48.7 Y110,2 <= +50
 cons4: +48.7 Y110,3 <= +40
 cons4: +48.7 Y110,4 <= +60
 cons4: +8 Y111,0 <= +40
 cons4: +8 Y111,1 <= +30
 cons4: +8 Y111,2 <= +50
 cons4: +8 Y111,3 <= +40
 cons4: +8 Y111,4 <= +60
 cons4: +13.8 Y112,0 <= +40
 cons4: +13.8 Y112,1 <= +30
 cons4: +13.8 Y112,2 <= +50
 cons4: +13.8 Y112,3 <= +40
 cons4: +13.8 Y112,4 <= +60
 cons4: +5 Y113,0 <= +40
 cons4: +5 Y113,1 <= +30
 cons4: +5 Y113,2 <= +50
 cons4: +5 Y113,3 <= +40
 cons4: +5 Y113,4 <= +60
 cons4: +14.2 Y114,0 <= +40
 cons4: +14.2 Y114,1 <= +30
 cons4: +14.2 Y114,2 <= +50
 cons4: +14.2 Y114,3 <= +40
 cons4: +14.2 Y114,4 <= +60
 cons4: +21.8 Y115,0 <= +40
 cons4: +21.8 Y115,1 <= +30
 cons4: +21.8 Y115,2 <= +50
 cons4: +21.8 Y115,3 <= +40
 cons4: +21.8 Y115,4 <= +60
 cons4: +13 Y116,0 <= +40
 cons4: +13 Y116,1 <= +30
 cons4: +13 Y116,2 <= +50
 cons4: +13 Y116,3 <= +40
 cons4: +13 Y116,4 <= +60
 cons4: +22.2 Y117,0 <= +40
 cons4: +22.2 Y117,1 <= +30
 cons4: +22.2 Y117,2 <= +50
 cons4: +22.2 Y117,3 <= +40
 cons4: +22.2 Y117,4 <= +60
 cons4: +18.8 Y118,0 <= +40
 cons4: +18.8 Y118,1 <= +30
 cons4: +18.8 Y118,2 <= +50
 cons4: +18.8 Y118,3 <= +40
 cons4: +18.8 Y118,4 <= +60
 cons4: +28 Y119,0 <= +40
 cons4: +28 Y119,1 <= +30
 cons4: +28 Y119,2 <= +50
 cons4: +28 Y119,3 <= +40
 cons4: +28 Y119,4 <= +60
 cons4: +19.2 Y120,0 <= +40
 cons4: +19.2 Y120,1 <= +30
 cons4: +19.2 Y120,2 <= +50
 cons4: +19.2 Y120,3 <= +40
 cons4: +19.2 Y120,4 <= +60
 cons4: +26.8 Y121,0 <= +40
 cons4: +26.8 Y121,1 <= +30
 cons4: +26.8 Y121,2 <= +50
 cons4: +26.8 Y121,3 <= +40
 cons4: +26.8 Y121,4 <= +60
 cons4: +36 Y122,0 <= +40
 cons4: +36 Y122,1 <= +30
 cons4: +36 Y122,2 <= +50
 cons4: +36 Y122,3 <= +40
 cons4: +36 Y122,4 <= +60
 cons4: +27.2 Y123,0 <= +40
 cons4: +27.2 Y123,1 <= +30
 cons4: +27.2 Y123,2 <= +50
 cons4: +27.2 Y123,3 <= +40
 cons4: +27.2 Y123,4 <= +60
 cons4: +33 Y124,0 <= +40
 cons4: +33 Y124,1 <= +30
 cons4: +33 Y124,2 <= +50
 cons4: +33 Y124,3 <= +40
 cons4: +33 Y124,4 <= +60
 cons4: +41 Y125,0 <= +40
 cons4: +41 Y125,1 <= +30
 cons4: +41 Y125,2 <= +50
 cons4: +41 Y125,3 <= +40
 cons4: +41 Y125,4 <= +60
 cons4: +19 Y126,0 <= +40
 cons4: +19 Y126,1 <= +30
 cons4: +19 Y126,2 <= +50
 cons4: +19 Y126,3 <= +40
 cons4: +19 Y126,4 <= +60
 cons4: +3 Y127,0 <= +40
 cons4: +3 Y127,1 <= +30
 cons4: +3 Y127,2 <= +50
 cons4: +3 Y127,3 <= +40
 cons4: +3 Y127,4 <= +60
 cons4: +18.8 Y128,0 <= +40
 cons4: +18.8 Y128,1 <= +30
 cons4: +18.8 Y128,2 <= +50
 cons4: +18.8 Y128,3 <= +40
 cons4: +18.8 Y128,4 <= +60
 cons4: +9.1 Y129,0 <= +40
 cons4: +9.1 Y129,1 <= +30
 cons4: +9.1 Y129,2 <= +50
 cons4: +9.1 Y129,3 <= +40
 cons4: +9.1 Y129,4 <= +60
 cons4: +22 Y130,0 <= +40
 cons4: +22 Y130,1 <= +30
 cons4: +22 Y130,2 <= +50
 cons4: +22 Y130,3 <= +40
 cons4: +22 Y130,4 <= +60
 cons4: +37.8 Y131,0 <= +40
 cons4: +37.8 Y131,1 <= +30
 cons4: +37.8 Y131,2 <= +50
 cons4: +37.8 Y131,3 <= +40
 cons4: +37.8 Y131,4 <= +60
 cons4: +28.1 Y132,0 <= +40
 cons4: +28.1 Y132,1 <= +30
 cons4: +28.1 Y132,2 <= +50
 cons4: +28.1 Y132,3 <= +40
 cons4: +28.1 Y132,4 <= +60
 cons4: +21.8 Y133,0 <= +40
 cons4: +21.8 Y133,1 <= +30
 cons4: +21.8 Y133,2 <= +50
 cons4: +21.8 Y133,3 <= +40
 cons4: +21.8 Y133,4 <= +60
 cons4: +12.1 Y134,0 <= +40
 cons4: +12.1 Y134,1 <= +30
 cons4: +12.1 Y134,2 <= +50
 cons4: +12.1 Y134,3 <= +40
 cons4: +12.1 Y134,4 <= +60
 cons4: +27.9 Y135,0 <= +40
 cons4: +27.9 Y135,1 <= +30
 cons4: +27.9 Y135,2 <= +50
 cons4: +27.9 Y135,3 <= +40
 cons4: +27.9 Y135,4 <= +60
 cons4: +40.8 Y136,0 <= +40
 cons4: +40.8 Y136,1 <= +30
 cons4: +40.8 Y136,2 <= +50
 cons4: +40.8 Y136,3 <= +40
 cons4: +40.8 Y136,4 <= +60
 cons4: +31.1 Y137,0 <= +40
 cons4: +31.1 Y137,1 <= +30
 cons4: +31.1 Y137,2 <= +50
 cons4: +31.1 Y137,3 <= +40
 cons4: +31.1 Y137,4 <= +60
 cons4: +46.9 Y138,0 <= +40
 cons4: +46.9 Y138,1 <= +30
 cons4: +46.9 Y138,2 <= +50
 cons4: +46.9 Y138,3 <= +40
 cons4: +46.9 Y138,4 <= +60
 cons4: +30.9 Y139,0 <= +40
 cons4: +30.9 Y139,1 <= +30
 cons4: +30.9 Y139,2 <= +50
 cons4: +30.9 Y139,3 <= +40
 cons4: +30.9 Y139,4 <= +60
 cons4: +49.9 Y140,0 <= +40
 cons4: +49.9 Y140,1 <= +30
 cons4: +49.9 Y140,2 <= +50
 cons4: +49.9 Y140,3 <= +40
 cons4: +49.9 Y140,4 <= +60
Bounds
 0 <= Y0,0 <= 1
 0 <= Y0,1 <= 1
 0 <= Y0,2 <= 1
 0 <= Y0,3 <= 1
 0 <= Y0,4 <= 1
 0 <= Y1,0 <= 1
 0 <= Y1,1 <= 1
 0 <= Y1,2 <= 1
 0 <= Y1,3 <= 1
 0 <= Y1,4 <= 1
 0 <= Y2,0 <= 1
 0 <= Y2,1 <= 1
 0 <= Y2,2 <= 1
 0 <= Y2,3 <= 1
 0 <= Y2,4 <= 1
 0 <= Y3,0 <= 1
 0 <= Y3,1 <= 1
 0 <= Y3,2 <= 1
 0 <= Y3,3 <= 1
 0 <= Y3,4 <= 1
 0 <= Y4,0 <= 1
 0 <= Y4,1 <= 1
 0 <= Y4,2 <= 1
 0 <= Y4,3 <= 1
 0 <= Y4,4 <= 1
 0 <= Y5,0 <= 1
 0 <= Y5,1 <= 1
 0 <= Y5,2 <= 1
 0 <= Y5,3 <= 1
 0 <= Y5,4 <= 1
 0 <= Y6,0 <= 1
 0 <= Y6,1 <= 1
 0 <= Y6,2 <= 1
 0 <= Y6,3 <= 1
 0 <= Y6,4 <= 1
 0 <= Y7,0 <= 1
 0 <= Y7,1 <= 1
 0 <= Y7,2 <= 1
 0 <= Y7,3 <= 1
 0 <= Y7,4 <= 1
 0 <= Y8,0 <= 1
 0 <= Y8,1 <= 1
 0 <= Y8,2 <= 1
 0 <= Y8,3 <= 1
 0 <= Y8,4 <= 1
 0 <= Y9,0 <= 1
 0 <= Y9,1 <= 1
 0 <= Y9,2 <= 1
 0 <= Y9,3 <= 1
 0 <= Y9,4 <= 1
 0 <= Y10,0 <= 1
 0 <= Y10,1 <= 1
 0 <= Y10,2 <= 1
 0 <= Y10,3 <= 1
 0 <= Y10,4 <= 1
 0 <= Y11,0 <= 1
 0 <= Y11,1 <= 1
 0 <= Y11,2 <= 1
 0 <= Y11,3 <= 1
 0 <= Y11,4 <= 1
 0 <= Y12,0 <= 1
 0 <= Y12,1 <= 1
 0 <= Y12,2 <= 1
 0 <= Y12,3 <= 1
 0 <= Y12,4 <= 1
 0 <= Y13,0 <= 1
 0 <= Y13,1 <= 1
 0 <= Y13,2 <= 1
 0 <= Y13,3 <= 1
 0 <= Y13,4 <= 1
 0 <= Y14,0 <= 1
 0 <= Y14,1 <= 1
 0 <= Y14,2 <= 1
 0 <= Y14,3 <= 1
 0 <= Y14,4 <= 1
 0 <= Y15,0 <= 1
 0 <= Y15,1 <= 1
 0 <= Y15,2 <= 1
 0 <= Y15,3 <= 1
 0 <= Y15,4 <= 1
 0 <= Y16,0 <= 1
 0 <= Y16,1 <= 1
 0 <= Y16,2 <= 1
 0 <= Y16,3 <= 1
 0 <= Y16,4 <= 1
 0 <= Y17,0 <= 1
 0 <= Y17,1 <= 1
 0 <= Y17,2 <= 1
 0 <= Y17,3 <= 1
 0 <= Y17,4 <= 1
 0 <= Y18,0 <= 1
 0 <= Y18,1 <= 1
 0 <= Y18,2 <= 1
 0 <= Y18,3 <= 1
 0 <= Y18,4 <= 1
 0 <= Y19,0 <= 1
 0 <= Y19,1 <= 1
 0 <= Y19,2 <= 1
 0 <= Y19,3 <= 1
 0 <= Y19,4 <= 1
 0 <= Y20,0 <= 1
 0 <= Y20,1 <= 1
 0 <= Y20,2 <= 1
 0 <= Y20,3 <= 1
 0 <= Y20,4 <= 1
 0 <= Y21,0 <= 1
 0 <= Y21,1 <= 1
 0 <= Y21,2 <= 1
 0 <= Y21,3 <= 1
 0 <= Y21,4 <= 1
 0 <= Y22,0 <= 1
 0 <= Y22,1 <= 1
 0 <= Y22,2 <= 1
 0 <= Y22,3 <= 1
 0 <= Y22,4 <= 1
 0 <= Y23,0 <= 1
 0 <= Y23,1 <= 1
 0 <= Y23,2 <= 1
 0 <= Y23,3 <= 1
 0 <= Y23,4 <= 1
 0 <= Y24,0 <= 1
 0 <= Y24,1 <= 1
 0 <= Y24,2 <= 1
 0 <= Y24,3 <= 1
 0 <= Y24,4 <= 1
 0 <= Y25,0 <= 1
 0 <= Y25,1 <= 1
 0 <= Y25,2 <= 1
 0 <= Y25,3 <= 1
 0 <= Y25,4 <= 1
 0 <= Y26,0 <= 1
 0 <= Y26,1 <= 1
 0 <= Y26,2 <= 1
 0 <= Y26,3 <= 1
 0 <= Y26,4 <= 1
 0 <= Y27,0 <= 1
 0 <= Y27,1 <= 1
 0 <= Y27,2 <= 1
 0 <= Y27,3 <= 1
 0 <= Y27,4 <= 1
 0 <= Y28,0 <= 1
 0 <= Y28,1 <= 1
 0 <= Y28,2 <= 1
 0 <= Y28,3 <= 1
 0 <= Y28,4 <= 1
 0 <= Y29,0 <= 1
 0 <= Y29,1 <= 1
 0 <= Y29,2 <= 1
 0 <= Y29,3 <= 1
 0 <= Y29,4 <= 1
 0 <= Y30,0 <= 1
 0 <= Y30,1 <= 1
 0 <= Y30,2 <= 1
 0 <= Y30,3 <= 1
 0 <= Y30,4 <= 1
 0 <= Y31,0 <= 1
 0 <= Y31,1 <= 1
 0 <= Y31,2 <= 1
 0 <= Y31,3 <= 1
 0 <= Y31,4 <= 1
 0 <= Y32,0 <= 1
 0 <= Y32,1 <= 1
 0 <= Y32,2 <= 1
 0 <= Y32,3 <= 1
 0 <= Y32,4 <= 1
 0 <= Y33,0 <= 1
 0 <= Y33,1 <= 1
 0 <= Y33,2 <= 1
 0 <= Y33,3 <= 1
 0 <= Y33,4 <= 1
 0 <= Y34,0 <= 1
 0 <= Y34,1 <= 1
 0 <= Y34,2 <= 1
 0 <= Y34,3 <= 1
 0 <= Y34,4 <= 1
 0 <= Y35,0 <= 1
 0 <= Y35,1 <= 1
 0 <= Y35,2 <= 1
 0 <= Y35,3 <= 1
 0 <= Y35,4 <= 1
 0 <= Y36,0 <= 1
 0 <= Y36,1 <= 1
 0 <= Y36,2 <= 1
 0 <= Y36,3 <= 1
 0 <= Y36,4 <= 1
 0 <= Y37,0 <= 1
 0 <= Y37,1 <= 1
 0 <= Y37,2 <= 1
 0 <= Y37,3 <= 1
 0 <= Y37,4 <= 1
 0 <= Y38,0 <= 1
 0 <= Y38,1 <= 1
 0 <= Y38,2 <= 1
 0 <= Y38,3 <= 1
 0 <= Y38,4 <= 1
 0 <= Y39,0 <= 1
 0 <= Y39,1 <= 1
 0 <= Y39,2 <= 1
 0 <= Y39,3 <= 1
 0 <= Y39,4 <= 1
 0 <= Y40,0 <= 1
 0 <= Y40,1 <= 1
 0 <= Y40,2 <= 1
 0 <= Y40,3 <= 1
 0 <= Y40,4 <= 1
 0 <= Y41,0 <= 1
 0 <= Y41,1 <= 1
 0 <= Y41,2 <= 1
 0 <= Y41,3 <= 1
 0 <= Y41,4 <= 1
 0 <= Y42,0 <= 1
 0 <= Y42,1 <= 1
 0 <= Y42,2 <= 1
 0 <= Y42,3 <= 1
 0 <= Y42,4 <= 1
 0 <= Y43,0 <= 1
 0 <= Y43,1 <= 1
 0 <= Y43,2 <= 1
 0 <= Y43,3 <= 1
 0 <= Y43,4 <= 1
 0 <= Y44,0 <= 1
 0 <= Y44,1 <= 1
 0 <= Y44,2 <= 1
 0 <= Y44,3 <= 1
 0 <= Y44,4 <= 1
 0 <= Y45,0 <= 1
 0 <= Y45,1 <= 1
 0 <= Y45,2 <= 1
 0 <= Y45,3 <= 1
 0 <= Y45,4 <= 1
 0 <= Y46,0 <= 1
 0 <= Y46,1 <= 1
 0 <= Y46,2 <= 1
 0 <= Y46,3 <= 1
 0 <= Y46,4 <= 1
 0 <= Y47,0 <= 1
 0 <= Y47,1 <= 1
 0 <= Y47,2 <= 1
 0 <= Y47,3 <= 1
 0 <= Y47,4 <= 1
 0 <= Y48,0 <= 1
 0 <= Y48,1 <= 1
 0 <= Y48,2 <= 1
 0 <= Y48,3 <= 1
 0 <= Y48,4 <= 1
 0 <= Y49,0 <= 1
 0 <= Y49,1 <= 1
 0 <= Y49,2 <= 1
 0 <= Y49,3 <= 1
 0 <= Y49,4 <= 1
 0 <= Y50,0 <= 1
 0 <= Y50,1 <= 1
 0 <= Y50,2 <= 1
 0 <= Y50,3 <= 1
 0 <= Y50,4 <= 1
 0 <= Y51,0 <= 1
 0 <= Y51,1 <= 1
 0 <= Y51,2 <= 1
 0 <= Y51,3 <= 1
 0 <= Y51,4 <= 1
 0 <= Y52,0 <= 1
 0 <= Y52,1 <= 1
 0 <= Y52,2 <= 1
 0 <= Y52,3 <= 1
 0 <= Y52,4 <= 1
 0 <= Y53,0 <= 1
 0 <= Y53,1 <= 1
 0 <= Y53,2 <= 1
 0 <= Y53,3 <= 1
 0 <= Y53,4 <= 1
 0 <= Y54,0 <= 1
 0 <= Y54,1 <= 1
 0 <= Y54,2 <= 1
 0 <= Y54,3 <= 1
 0 <= Y54,4 <= 1
 0 <= Y55,0 <= 1
 0 <= Y55,1 <= 1
 0 <= Y55,2 <= 1
 0 <= Y55,3 <= 1
 0 <= Y55,4 <= 1
 0 <= Y56,0 <= 1
 0 <= Y56,1 <= 1
 0 <= Y56,2 <= 1
 0 <= Y56,3 <= 1
 0 <= Y56,4 <= 1
 0 <= Y57,0 <= 1
 0 <= Y57,1 <= 1
 0 <= Y57,2 <= 1
 0 <= Y57,3 <= 1
 0 <= Y57,4 <= 1
 0 <= Y58,0 <= 1
 0 <= Y58,1 <= 1
 0 <= Y58,2 <= 1
 0 <= Y58,3 <= 1
 0 <= Y58,4 <= 1
 0 <= Y59,0 <= 1
 0 <= Y59,1 <= 1
 0 <= Y59,2 <= 1
 0 <= Y59,3 <= 1
 0 <= Y59,4 <= 1
 0 <= Y60,0 <= 1
 0 <= Y60,1 <= 1
 0 <= Y60,2 <= 1
 0 <= Y60,3 <= 1
 0 <= Y60,4 <= 1
 0 <= Y61,0 <= 1
 0 <= Y61,1 <= 1
 0 <= Y61,2 <= 1
 0 <= Y61,3 <= 1
 0 <= Y61,4 <= 1
 0 <= Y62,0 <= 1
 0 <= Y62,1 <= 1
 0 <= Y62,2 <= 1
 0 <= Y62,3 <= 1
 0 <= Y62,4 <= 1
 0 <= Y63,0 <= 1
 0 <= Y63,1 <= 1
 0 <= Y63,2 <= 1
 0 <= Y63,3 <= 1
 0 <= Y63,4 <= 1
 0 <= Y64,0 <= 1
 0 <= Y64,1 <= 1
 0 <= Y64,2 <= 1
 0 <= Y64,3 <= 1
 0 <= Y64,4 <= 1
 0 <= Y65,0 <= 1
 0 <= Y65,1 <= 1
 0 <= Y65,2 <= 1
 0 <= Y65,3 <= 1
 0 <= Y65,4 <= 1
 0 <= Y66,0 <= 1
 0 <= Y66,1 <= 1
 0 <= Y66,2 <= 1
 0 <= Y66,3 <= 1
 0 <= Y66,4 <= 1
 0 <= Y67,0 <= 1
 0 <= Y67,1 <= 1
 0 <= Y67,2 <= 1
 0 <= Y67,3 <= 1
 0 <= Y67,4 <= 1
 0 <= Y68,0 <= 1
 0 <= Y68,1 <= 1
 0 <= Y68,2 <= 1
 0 <= Y68,3 <= 1
 0 <= Y68,4 <= 1
 0 <= Y69,0 <= 1
 0 <= Y69,1 <= 1
 0 <= Y69,2 <= 1
 0 <= Y69,3 <= 1
 0 <= Y69,4 <= 1
 0 <= Y70,0 <= 1
 0 <= Y70,1 <= 1
 0 <= Y70,2 <= 1
 0 <= Y70,3 <= 1
 0 <= Y70,4 <= 1
 0 <= Y71,0 <= 1
 0 <= Y71,1 <= 1
 0 <= Y71,2 <= 1
 0 <= Y71,3 <= 1
 0 <= Y71,4 <= 1
 0 <= Y72,0 <= 1
 0 <= Y72,1 <= 1
 0 <= Y72,2 <= 1
 0 <= Y72,3 <= 1
 0 <= Y72,4 <= 1
 0 <= Y73,0 <= 1
 0 <= Y73,1 <= 1
 0 <= Y73,2 <= 1
 0 <= Y73,3 <= 1
 0 <= Y73,4 <= 1
 0 <= Y74,0 <= 1
 0 <= Y74,1 <= 1
 0 <= Y74,2 <= 1
 0 <= Y74,3 <= 1
 0 <= Y74,4 <= 1
 0 <= Y75,0 <= 1
 0 <= Y75,1 <= 1
 0 <= Y75,2 <= 1
 0 <= Y75,3 <= 1
 0 <= Y75,4 <= 1
 0 <= Y76,0 <= 1
 0 <= Y76,1 <= 1
 0 <= Y76,2 <= 1
 0 <= Y76,3 <= 1
 0 <= Y76,4 <= 1
 0 <= Y77,0 <= 1
 0 <= Y77,1 <= 1
 0 <= Y77,2 <= 1
 0 <= Y77,3 <= 1
 0 <= Y77,4 <= 1
 0 <= Y78,0 <= 1
 0 <= Y78,1 <= 1
 0 <= Y78,2 <= 1
 0 <= Y78,3 <= 1
 0 <= Y78,4 <= 1
 0 <= Y79,0 <= 1
 0 <= Y79,1 <= 1
 0 <= Y79,2 <= 1
 0 <= Y79,3 <= 1
 0 <= Y79,4 <= 1
 0 <= Y80,0 <= 1
 0 <= Y80,1 <= 1
 0 <= Y80,2 <= 1
 0 <= Y80,3 <= 1
 0 <= Y80,4 <= 1
 0 <= Y81,0 <= 1
 0 <= Y81,1 <= 1
 0 <= Y81,2 <= 1
 0 <= Y81,3 <= 1
 0 <= Y81,4 <= 1
 0 <= Y82,0 <= 1
 0 <= Y82,1 <= 1
 0 <= Y82,2 <= 1
 0 <= Y82,3 <= 1
 0 <= Y82,4 <= 1
 0 <= Y83,0 <= 1
 0 <= Y83,1 <= 1
 0 <= Y83,2 <= 1
 0 <= Y83,3 <= 1
 0 <= Y83,4 <= 1
 0 <= Y84,0 <= 1
 0 <= Y84,1 <= 1
 0 <= Y84,2 <= 1
 0 <= Y84,3 <= 1
 0 <= Y84,4 <= 1
 0 <= Y85,0 <= 1
 0 <= Y85,1 <= 1
 0 <= Y85,2 <= 1
 0 <= Y85,3 <= 1
 0 <= Y85,4 <= 1
 0 <= Y86,0 <= 1
 0 <= Y86,1 <= 1
 0 <= Y86,2 <= 1
 0 <= Y86,3 <= 1
 0 <= Y86,4 <= 1
 0 <= Y87,0 <= 1
 0 <= Y87,1 <= 1
 0 <= Y87,2 <= 1
 0 <= Y87,3 <= 1
 0 <= Y87,4 <= 1
 0 <= Y88,0 <= 1
 0 <= Y88,1 <= 1
 0 <= Y88,2 <= 1
 0 <= Y88,3 <= 1
 0 <= Y88,4 <= 1
 0 <= Y89,0 <= 1
 0 <= Y89,1 <= 1
 0 <= Y89,2 <= 1
 0 <= Y89,3 <= 1
 0 <= Y89,4 <= 1
 0 <= Y90,0 <= 1
 0 <= Y90,1 <= 1
 0 <= Y90,2 <= 1
 0 <= Y90,3 <= 1
 0 <= Y90,4 <= 1
 0 <= Y91,0 <= 1
 0 <= Y91,1 <= 1
 0 <= Y91,2 <= 1
 0 <= Y91,3 <= 1
 0 <= Y91,4 <= 1
 0 <= Y92,0 <= 1
 0 <= Y92,1 <= 1
 0 <= Y92,2 <= 1
 0 <= Y92,3 <= 1
 0 <= Y92,4 <= 1
 0 <= Y93,0 <= 1
 0 <= Y93,1 <= 1
 0 <= Y93,2 <= 1
 0 <= Y93,3 <= 1
 0 <= Y93,4 <= 1
 0 <= Y94,0 <= 1
 0 <= Y94,1 <= 1
 0 <= Y94,2 <= 1
 0 <= Y94,3 <= 1
 0 <= Y94,4 <= 1
 0 <= Y95,0 <= 1
 0 <= Y95,1 <= 1
 0 <= Y95,2 <= 1
 0 <= Y95,3 <= 1
 0 <= Y95,4 <= 1
 0 <= Y96,0 <= 1
 0 <= Y96,1 <= 1
 0 <= Y96,2 <= 1
 0 <= Y96,3 <= 1
 0 <= Y96,4 <= 1
 0 <= Y97,0 <= 1
 0 <= Y97,1 <= 1
 0 <= Y97,2 <= 1
 0 <= Y97,3 <= 1
 0 <= Y97,4 <= 1
 0 <= Y98,0 <= 1
 0 <= Y98,1 <= 1
 0 <= Y98,2 <= 1
 0 <= Y98,3 <= 1
 0 <= Y98,4 <= 1
 0 <= Y99,0 <= 1
 0 <= Y99,1 <= 1
 0 <= Y99,2 <= 1
 0 <= Y99,3 <= 1
 0 <= Y99,4 <= 1
 0 <= Y100,0 <= 1
 0 <= Y100,1 <= 1
 0 <= Y100,2 <= 1
 0 <= Y100,3 <= 1
 0 <= Y100,4 <= 1
 0 <= Y101,0 <= 1
 0 <= Y101,1 <= 1
 0 <= Y101,2 <= 1
 0 <= Y101,3 <= 1
 0 <= Y101,4 <= 1
 0 <= Y102,0 <= 1
 0 <= Y102,1 <= 1
 0 <= Y102,2 <= 1
 0 <= Y102,3 <= 1
 0 <= Y102,4 <= 1
 0 <= Y103,0 <= 1
 0 <= Y103,1 <= 1
 0 <= Y103,2 <= 1
 0 <= Y103,3 <= 1
 0 <= Y103,4 <= 1
 0 <= Y104,0 <= 1
 0 <= Y104,1 <= 1
 0 <= Y104,2 <= 1
 0 <= Y104,3 <= 1
 0 <= Y104,4 <= 1
 0 <= Y105,0 <= 1
 0 <= Y105,1 <= 1
 0 <= Y105,2 <= 1
 0 <= Y105,3 <= 1
 0 <= Y105,4 <= 1
 0 <= Y106,0 <= 1
 0 <= Y106,1 <= 1
 0 <= Y106,2 <= 1
 0 <= Y106,3 <= 1
 0 <= Y106,4 <= 1
 0 <= Y107,0 <= 1
 0 <= Y107,1 <= 1
 0 <= Y107,2 <= 1
 0 <= Y107,3 <= 1
 0 <= Y107,4 <= 1
 0 <= Y108,0 <= 1
 0 <= Y108,1 <= 1
 0 <= Y108,2 <= 1
 0 <= Y108,3 <= 1
 0 <= Y108,4 <= 1
 0 <= Y109,0 <= 1
 0 <= Y109,1 <= 1
 0 <= Y109,2 <= 1
 0 <= Y109,3 <= 1
 0 <= Y109,4 <= 1
 0 <= Y110,0 <= 1
 0 <= Y110,1 <= 1
 0 <= Y110,2 <= 1
 0 <= Y110,3 <= 1
 0 <= Y110,4 <= 1
 0 <= Y111,0 <= 1
 0 <= Y111,1 <= 1
 0 <= Y111,2 <= 1
 0 <= Y111,3 <= 1
 0 <= Y111,4 <= 1
 0 <= Y112,0 <= 1
 0 <= Y112,1 <= 1
 0 <= Y112,2 <= 1
 0 <= Y112,3 <= 1
 0 <= Y112,4 <= 1
 0 <= Y113,0 <= 1
 0 <= Y113,1 <= 1
 0 <= Y113,2 <= 1
 0 <= Y113,3 <= 1
 0 <= Y113,4 <= 1
 0 <= Y114,0 <= 1
 0 <= Y114,1 <= 1
 0 <= Y114,2 <= 1
 0 <= Y114,3 <= 1
 0 <= Y114,4 <= 1
 0 <= Y115,0 <= 1
 0 <= Y115,1 <= 1
 0 <= Y115,2 <= 1
 0 <= Y115,3 <= 1
 0 <= Y115,4 <= 1
 0 <= Y116,0 <= 1
 0 <= Y116,1 <= 1
 0 <= Y116,2 <= 1
 0 <= Y116,3 <= 1
 0 <= Y116,4 <= 1
 0 <= Y117,0 <= 1
 0 <= Y117,1 <= 1
 0 <= Y117,2 <= 1
 0 <= Y117,3 <= 1
 0 <= Y117,4 <= 1
 0 <= Y118,0 <= 1
 0 <= Y118,1 <= 1
 0 <= Y118,2 <= 1
 0 <= Y118,3 <= 1
 0 <= Y118,4 <= 1
 0 <= Y119,0 <= 1
 0 <= Y119,1 <= 1
 0 <= Y119,2 <= 1
 0 <= Y119,3 <= 1
 0 <= Y119,4 <= 1
 0 <= Y120,0 <= 1
 0 <= Y120,1 <= 1
 0 <= Y120,2 <= 1
 0 <= Y120,3 <= 1
 0 <= Y120,4 <= 1
 0 <= Y121,0 <= 1
 0 <= Y121,1 <= 1
 0 <= Y121,2 <= 1
 0 <= Y121,3 <= 1
 0 <= Y121,4 <= 1
 0 <= Y122,0 <= 1
 0 <= Y122,1 <= 1
 0 <= Y122,2 <= 1
 0 <= Y122,3 <= 1
 0 <= Y122,4 <= 1
 0 <= Y123,0 <= 1
 0 <= Y123,1 <= 1
 0 <= Y123,2 <= 1
 0 <= Y123,3 <= 1
 0 <= Y123,4 <= 1
 0 <= Y124,0 <= 1
 0 <= Y124,1 <= 1
 0 <= Y124,2 <= 1
 0 <= Y124,3 <= 1
 0 <= Y124,4 <= 1
 0 <= Y125,0 <= 1
 0 <= Y125,1 <= 1
 0 <= Y125,2 <= 1
 0 <= Y125,3 <= 1
 0 <= Y125,4 <= 1
 0 <= Y126,0 <= 1
 0 <= Y126,1 <= 1
 0 <= Y126,2 <= 1
 0 <= Y126,3 <= 1
 0 <= Y126,4 <= 1
 0 <= Y127,0 <= 1
 0 <= Y127,1 <= 1
 0 <= Y127,2 <= 1
 0 <= Y127,3 <= 1
 0 <= Y127,4 <= 1
 0 <= Y128,0 <= 1
 0 <= Y128,1 <= 1
 0 <= Y128,2 <= 1
 0 <= Y128,3 <= 1
 0 <= Y128,4 <= 1
 0 <= Y129,0 <= 1
 0 <= Y129,1 <= 1
 0 <= Y129,2 <= 1
 0 <= Y129,3 <= 1
 0 <= Y129,4 <= 1
 0 <= Y130,0 <= 1
 0 <= Y130,1 <= 1
 0 <= Y130,2 <= 1
 0 <= Y130,3 <= 1
 0 <= Y130,4 <= 1
 0 <= Y131,0 <= 1
 0 <= Y131,1 <= 1
 0 <= Y131,2 <= 1
 0 <= Y131,3 <= 1
 0 <= Y131,4 <= 1
 0 <= Y132,0 <= 1
 0 <= Y132,1 <= 1
 0 <= Y132,2 <= 1
 0 <= Y132,3 <= 1
 0 <= Y132,4 <= 1
 0 <= Y133,0 <= 1
 0 <= Y133,1 <= 1
 0 <= Y133,2 <= 1
 0 <= Y133,3 <= 1
 0 <= Y133,4 <= 1
 0 <= Y134,0 <= 1
 0 <= Y134,1 <= 1
 0 <= Y134,2 <= 1
 0 <= Y134,3 <= 1
 0 <= Y134,4 <= 1
 0 <= Y135,0 <= 1
 0 <= Y135,1 <= 1
 0 <= Y135,2 <= 1
 0 <= Y135,3 <= 1
 0 <= Y135,4 <= 1
 0 <= Y136,0 <= 1
 0 <= Y136,1 <= 1
 0 <= Y136,2 <= 1
 0 <= Y136,3 <= 1
 0 <= Y136,4 <= 1
 0 <= Y137,0 <= 1
 0 <= Y137,1 <= 1
 0 <= Y137,2 <= 1
 0 <= Y137,3 <= 1
 0 <= Y137,4 <= 1
 0 <= Y138,0 <= 1
 0 <= Y138,1 <= 1
 0 <= Y138,2 <= 1
 0 <= Y138,3 <= 1
 0 <= Y138,4 <= 1
 0 <= Y139,0 <= 1
 0 <= Y139,1 <= 1
 0 <= Y139,2 <= 1
 0 <= Y139,3 <= 1
 0 <= Y139,4 <= 1
 0 <= Y140,0 <= 1
 0 <= Y140,1 <= 1
 0 <= Y140,2 <= 1
 0 <= Y140,3 <= 1
 0 <= Y140,4 <= 1
Binaries
 Y0,0 Y0,1 Y0,2 Y0,3 Y0,4 Y1,0 Y1,1 Y1,2 Y1,3 Y1,4 Y2,0 Y2,1 Y2,2 Y2,3 Y2,4 Y3,0 Y3,1 Y3,2 Y3,3 Y3,4 Y4,0
 Y4,1 Y4,2 Y4,3 Y4,4 Y5,0 Y5,1 Y5,2 Y5,3 Y5,4 Y6,0 Y6,1 Y6,2 Y6,3 Y6,4 Y7,0 Y7,1 Y7,2 Y7,3 Y7,4 Y8,0 Y8,1
 Y8,2 Y8,3 Y8,4 Y9,0 Y9,1 Y9,2 Y9,3 Y9,4 Y10,0 Y10,1 Y10,2 Y10,3 Y10,4 Y11,0 Y11,1 Y11,2 Y11,3 Y11,4 Y12,0
 Y12,1 Y12,2 Y12,3 Y12,4 Y13,0 Y13,1 Y13,2 Y13,3 Y13,4 Y14,0 Y14,1 Y14,2 Y14,3 Y14,4 Y15,0 Y15,1 Y15,2
 Y15,3 Y15,4 Y16,0 Y16,1 Y16,2 Y16,3 Y16,4 Y17,0 Y17,1 Y17,2 Y17,3 Y17,4 Y18,0 Y18,1 Y18,2 Y18,3 Y18,4
 Y19,0 Y19,1 Y19,2 Y19,3 Y19,4 Y20,0 Y20,1 Y20,2 Y20,3 Y20,4 Y21,0 Y21,1 Y21,2 Y21,3 Y21,4 Y22,0 Y22,1
 Y22,2 Y22,3 Y22,4 Y23,0 Y23,1 Y23,2 Y23,3 Y23,4 Y24,0 Y24,1 Y24,2 Y24,3 Y24,4 Y25,0 Y25,1 Y25,2 Y25,3
 Y25,4 Y26,0 Y26,1 Y26,2 Y26,3 Y26,4 Y27,0 Y27,1 Y27,2 Y27,3 Y27,4 Y28,0 Y28,1 Y28,2 Y28,3 Y28,4 Y29,0
 Y29,1 Y29,2 Y29,3 Y29,4 Y30,0 Y30,1 Y30,2 Y30,3 Y30,4 Y31,0 Y31,1 Y31,2 Y31,3 Y31,4 Y32,0 Y32,1 Y32,2
 Y32,3 Y32,4 Y33,0 Y33,1 Y33,2 Y33,3 Y33,4 Y34,0 Y34,1 Y34,2 Y34,3 Y34,4 Y35,0 Y35,1 Y35,2 Y35,3 Y35,4
 Y36,0 Y36,1 Y36,2 Y36,3 Y36,4 Y37,0 Y37,1 Y37,2 Y37,3 Y37,4 Y38,0 Y38,1 Y38,2 Y38,3 Y38,4 Y39,0 Y39,1
 Y39,2 Y39,3 Y39,4 Y40,0 Y40,1 Y40,2 Y40,3 Y40,4 Y41,0 Y41,1 Y41,2 Y41,3 Y41,4 Y42,0 Y42,1 Y42,2 Y42,3
 Y42,4 Y43,0 Y43,1 Y43,2 Y43,3 Y43,4 Y44,0 Y44,1 Y44,2 Y44,3 Y44,4 Y45,0 Y45,1 Y45,2 Y45,3 Y45,4 Y46,0
 Y46,1 Y46,2 Y46,3 Y46,4 Y47,0 Y47,1 Y47,2 Y47,3 Y47,4 Y48,0 Y48,1 Y48,2 Y48,3 Y48,4 Y49,0 Y49,1 Y49,2
 Y49,3 Y49,4 Y50,0 Y50,1 Y50,2 Y50,3 Y50,4 Y51,0 Y51,1 Y51,2 Y51,3 Y51,4 Y52,0 Y52,1 Y52,2 Y52,3 Y52,4
 Y53,0 Y53,1 Y53,2 Y53,3 Y53,4 Y54,0 Y54,1 Y54,2 Y54,3 Y54,4 Y55,0 Y55,1 Y55,2 Y55,3 Y55,4 Y56,0 Y56,1
 Y56,2 Y56,3 Y56,4 Y57,0 Y57,1 Y57,2 Y57,3 Y57,4 Y58,0 Y58,1 Y58,2 Y58,3 Y58,4 Y59,0 Y59,1 Y59,2 Y59,3
 Y59,4 Y60,0 Y60,1 Y60,2 Y60,3 Y60,4 Y61,0 Y61,1 Y61,2 Y61,3 Y61,4 Y62,0 Y62,1 Y62,2 Y62,3 Y62,4 Y63,0
 Y63,1 Y63,2 Y63,3 Y63,4 Y64,0 Y64,1 Y64,2 Y64,3 Y64,4 Y65,0 Y65,1 Y65,2 Y65,3 Y65,4 Y66,0 Y66,1 Y66,2
 Y66,3 Y66,4 Y67,0 Y67,1 Y67,2 Y67,3 Y67,4 Y68,0 Y68,1 Y68,2 Y68,3 Y68,4 Y69,0 Y69,1 Y69,2 Y69,3 Y69,4
 Y70,0 Y70,1 Y70,2 Y70,3 Y70,4 Y71,0 Y71,1 Y71,2 Y71,3 Y71,4 Y72,0 Y72,1 Y72,2 Y72,3 Y72,4 Y73,0 Y73,1
 Y73,2 Y73,3 Y73,4 Y74,0 Y74,1 Y74,2 Y74,3 Y74,4 Y75,0 Y75,1 Y75,2 Y75,3 Y75,4 Y76,0 Y76,1 Y76,2 Y76,3
 Y76,4 Y77,0 Y77,1 Y77,2 Y77,3 Y77,4 Y78,0 Y78,1 Y78,2 Y78,3 Y78,4 Y79,0 Y79,1 Y79,2 Y79,3 Y79,4 Y80,0
 Y80,1 Y80,2 Y80,3 Y80,4 Y81,0 Y81,1 Y81,2 Y81,3 Y81,4 Y82,0 Y82,1 Y82,2 Y82,3 Y82,4 Y83,0 Y83,1 Y83,2
 Y83,3 Y83,4 Y84,0 Y84,1 Y84,2 Y84,3 Y84,4 Y85,0 Y85,1 Y85,2 Y85,3 Y85,4 Y86,0 Y86,1 Y86,2 Y86,3 Y86,4
 Y87,0 Y87,1 Y87,2 Y87,3 Y87,4 Y88,0 Y88,1 Y88,2 Y88,3 Y88,4 Y89,0 Y89,1 Y89,2 Y89,3 Y89,4 Y90,0 Y90,1
 Y90,2 Y90,3 Y90,4 Y91,0 Y91,1 Y91,2 Y91,3 Y91,4 Y92,0 Y92,1 Y92,2 Y92,3 Y92,4 Y93,0 Y93,1 Y93,2 Y93,3
 Y93,4 Y94,0 Y94,1 Y94,2 Y94,3 Y94,4 Y95,0 Y95,1 Y95,2 Y95,3 Y95,4 Y96,0 Y96,1 Y96,2 Y96,3 Y96,4 Y97,0
 Y97,1 Y97,2 Y97,3 Y97,4 Y98,0 Y98,1 Y98,2 Y98,3 Y98,4 Y99,0 Y99,1 Y99,2 Y99,3 Y99,4 Y100,0 Y100,1 Y100,2
 Y100,3 Y100,4 Y101,0 Y101,1 Y101,2 Y101,3 Y101,4 Y102,0 Y102,1 Y102,2 Y102,3 Y102,4 Y103,0 Y103,1 Y103,2
 Y103,3 Y103,4 Y104,0 Y104,1 Y104,2 Y104,3 Y104,4 Y105,0 Y105,1 Y105,2 Y105,3 Y105,4 Y106,0 Y106,1 Y106,2
 Y106,3 Y106,4 Y107,0 Y107,1 Y107,2 Y107,3 Y107,4 Y108,0 Y108,1 Y108,2 Y108,3 Y108,4 Y109,0 Y109,1 Y109,2
 Y109,3 Y109,4 Y110,0 Y110,1 Y110,2 Y110,3 Y110,4 Y111,0 Y111,1 Y111,2 Y111,3 Y111,4 Y112,0 Y112,1 Y112,2
 Y112,3 Y112,4 Y113,0 Y113,1 Y113,2 Y113,3 Y113,4 Y114,0 Y114,1 Y114,2 Y114,3 Y114,4 Y115,0 Y115,1 Y115,2
 Y115,3 Y115,4 Y116,0 Y116,1 Y116,2 Y116,3 Y116,4 Y117,0 Y117,1 Y117,2 Y117,3 Y117,4 Y118,0 Y118,1 Y118,2
 Y118,3 Y118,4 Y119,0 Y119,1 Y119,2 Y119,3 Y119,4 Y120,0 Y120,1 Y120,2 Y120,3 Y120,4 Y121,0 Y121,1 Y121,2
 Y121,3 Y121,4 Y122,0 Y122,1 Y122,2 Y122,3 Y122,4 Y123,0 Y123,1 Y123,2 Y123,3 Y123,4 Y124,0 Y124,1 Y124,2
 Y124,3 Y124,4 Y125,0 Y125,1 Y125,2 Y125,3 Y125,4 Y126,0 Y126,1 Y126,2 Y126,3 Y126,4 Y127,0 Y127,1 Y127,2
 Y127,3 Y127,4 Y128,0 Y128,1 Y128,2 Y128,3 Y128,4 Y129,0 Y129,1 Y129,2 Y129,3 Y129,4 Y130,0 Y130,1 Y130,2
 Y130,3 Y130,4 Y131,0 Y131,1 Y131,2 Y131,3 Y131,4 Y132,0 Y132,1 Y132,2 Y132,3 Y132,4 Y133,0 Y133,1 Y133,2
 Y133,3 Y133,4 Y134,0 Y134,1 Y134,2 Y134,3 Y134,4 Y135,0 Y135,1 Y135,2 Y135,3 Y135,4 Y136,0 Y136,1 Y136,2
 Y136,3 Y136,4 Y137,0 Y137,1 Y137,2 Y137,3 Y137,4 Y138,0 Y138,1 Y138,2 Y138,3 Y138,4 Y139,0 Y139,1 Y139,2
 Y139,3 Y139,4 Y140,0 Y140,1 Y140,2 Y140,3 Y140,4
End
