\ SCIP STATISTICS
\   Problem name     : Scheduling
\   Variables        : 661 (660 binary, 0 integer, 0 implicit integer, 1 continuous)
\   Constraints      : 882
Minimize
 Obj: +1 Cmax
Subject to
 c1: +1 Y0,0 +1 Y0,1 +1 Y0,2 +1 Y0,3 +1 Y5,0 +1 Y5,1 +1 Y5,2 +1 Y5,3 +1 Y6,0 +1 Y6,1 +1 Y6,2 +1 Y6,3 +1 Y7,0
  +1 Y7,1 +1 Y7,2 +1 Y7,3 +1 Y8,0 +1 Y8,1 +1 Y8,2 +1 Y8,3 +1 Y15,0 +1 Y15,1 +1 Y15,2 +1 Y15,3 +1 Y16,0
  +1 Y16,1 +1 Y16,2 +1 Y16,3 +1 Y17,0 +1 Y17,1 +1 Y17,2 +1 Y17,3 +1 Y18,0 +1 Y18,1 +1 Y18,2 +1 Y18,3 +1 Y19,0
  +1 Y19,1 +1 Y19,2 +1 Y19,3 +1 Y20,0 +1 Y20,1 +1 Y20,2 +1 Y20,3 +1 Y25,0 +1 Y25,1 +1 Y25,2 +1 Y25,3 +1 Y26,0
  +1 Y26,1 +1 Y26,2 +1 Y26,3 +1 Y27,0 +1 Y27,1 +1 Y27,2 +1 Y27,3 +1 Y28,0 +1 Y28,1 +1 Y28,2 +1 Y28,3 +1 Y30,0
  +1 Y30,1 +1 Y30,2 +1 Y30,3 = +1
 c2: +1 Y31,0 +1 Y31,1 +1 Y31,2 +1 Y31,3 +1 Y38,0 +1 Y38,1 +1 Y38,2 +1 Y38,3 +1 Y39,0 +1 Y39,1 +1 Y39,2
  +1 Y39,3 +1 Y40,0 +1 Y40,1 +1 Y40,2 +1 Y40,3 +1 Y41,0 +1 Y41,1 +1 Y41,2 +1 Y41,3 +1 Y42,0 +1 Y42,1 +1 Y42,2
  +1 Y42,3 +1 Y43,0 +1 Y43,1 +1 Y43,2 +1 Y43,3 +1 Y59,0 +1 Y59,1 +1 Y59,2 +1 Y59,3 +1 Y60,0 +1 Y60,1 +1 Y60,2
  +1 Y60,3 +1 Y61,0 +1 Y61,1 +1 Y61,2 +1 Y61,3 +1 Y62,0 +1 Y62,1 +1 Y62,2 +1 Y62,3 +1 Y63,0 +1 Y63,1 +1 Y63,2
  +1 Y63,3 +1 Y64,0 +1 Y64,1 +1 Y64,2 +1 Y64,3 +1 Y65,0 +1 Y65,1 +1 Y65,2 +1 Y65,3 +1 Y66,0 +1 Y66,1 +1 Y66,2
  +1 Y66,3 +1 Y67,0 +1 Y67,1 +1 Y67,2 +1 Y67,3 +1 Y68,0 +1 Y68,1 +1 Y68,2 +1 Y68,3 +1 Y69,0 +1 Y69,1 +1 Y69,2
  +1 Y69,3 +1 Y70,0 +1 Y70,1 +1 Y70,2 +1 Y70,3 +1 Y71,0 +1 Y71,1 +1 Y71,2 +1 Y71,3 +1 Y72,0 +1 Y72,1 +1 Y72,2
  +1 Y72,3 +1 Y73,0 +1 Y73,1 +1 Y73,2 +1 Y73,3 +1 Y94,0 +1 Y94,1 +1 Y94,2 +1 Y94,3 +1 Y95,0 +1 Y95,1 +1 Y95,2
  +1 Y95,3 +1 Y96,0 +1 Y96,1 +1 Y96,2 +1 Y96,3 +1 Y97,0 +1 Y97,1 +1 Y97,2 +1 Y97,3 +1 Y98,0 +1 Y98,1 +1 Y98,2
  +1 Y98,3 +1 Y99,0 +1 Y99,1 +1 Y99,2 +1 Y99,3 +1 Y100,0 +1 Y100,1 +1 Y100,2 +1 Y100,3 +1 Y101,0 +1 Y101,1
  +1 Y101,2 +1 Y101,3 +1 Y102,0 +1 Y102,1 +1 Y102,2 +1 Y102,3 +1 Y103,0 +1 Y103,1 +1 Y103,2 +1 Y103,3
  +1 Y104,0 +1 Y104,1 +1 Y104,2 +1 Y104,3 +1 Y105,0 +1 Y105,1 +1 Y105,2 +1 Y105,3 +1 Y106,0 +1 Y106,1
  +1 Y106,2 +1 Y106,3 +1 Y107,0 +1 Y107,1 +1 Y107,2 +1 Y107,3 +1 Y108,0 +1 Y108,1 +1 Y108,2 +1 Y108,3
  +1 Y109,0 +1 Y109,1 +1 Y109,2 +1 Y109,3 +1 Y110,0 +1 Y110,1 +1 Y110,2 +1 Y110,3 +1 Y111,0 +1 Y111,1
  +1 Y111,2 +1 Y111,3 +1 Y112,0 +1 Y112,1 +1 Y112,2 +1 Y112,3 +1 Y113,0 +1 Y113,1 +1 Y113,2 +1 Y113,3
  +1 Y129,0 +1 Y129,1 +1 Y129,2 +1 Y129,3 +1 Y130,0 +1 Y130,1 +1 Y130,2 +1 Y130,3 +1 Y131,0 +1 Y131,1
  +1 Y131,2 +1 Y131,3 +1 Y132,0 +1 Y132,1 +1 Y132,2 +1 Y132,3 +1 Y133,0 +1 Y133,1 +1 Y133,2 +1 Y133,3
  +1 Y134,0 +1 Y134,1 +1 Y134,2 +1 Y134,3 +1 Y135,0 +1 Y135,1 +1 Y135,2 +1 Y135,3 +1 Y136,0 +1 Y136,1
  +1 Y136,2 +1 Y136,3 +1 Y137,0 +1 Y137,1 +1 Y137,2 +1 Y137,3 +1 Y138,0 +1 Y138,1 +1 Y138,2 +1 Y138,3
  +1 Y139,0 +1 Y139,1 +1 Y139,2 +1 Y139,3 +1 Y140,0 +1 Y140,1 +1 Y140,2 +1 Y140,3 +1 Y141,0 +1 Y141,1
  +1 Y141,2 +1 Y141,3 +1 Y142,0 +1 Y142,1 +1 Y142,2 +1 Y142,3 +1 Y143,0 +1 Y143,1 +1 Y143,2 +1 Y143,3
  +1 Y150,0 +1 Y150,1 +1 Y150,2 +1 Y150,3 +1 Y151,0 +1 Y151,1 +1 Y151,2 +1 Y151,3 +1 Y152,0 +1 Y152,1
  +1 Y152,2 +1 Y152,3 +1 Y153,0 +1 Y153,1 +1 Y153,2 +1 Y153,3 +1 Y154,0 +1 Y154,1 +1 Y154,2 +1 Y154,3
  +1 Y155,0 +1 Y155,1 +1 Y155,2 +1 Y155,3 +1 Y157,0 +1 Y157,1 +1 Y157,2 +1 Y157,3 = +1
 c3: +1 Y1,0 +1 Y1,1 +1 Y1,2 +1 Y1,3 +1 Y5,0 +1 Y5,1 +1 Y5,2 +1 Y5,3 +1 Y9,0 +1 Y9,1 +1 Y9,2 +1 Y9,3 +1 Y10,0
  +1 Y10,1 +1 Y10,2 +1 Y10,3 +1 Y11,0 +1 Y11,1 +1 Y11,2 +1 Y11,3 +1 Y15,0 +1 Y15,1 +1 Y15,2 +1 Y15,3 +1 Y16,0
  +1 Y16,1 +1 Y16,2 +1 Y16,3 +1 Y17,0 +1 Y17,1 +1 Y17,2 +1 Y17,3 +1 Y21,0 +1 Y21,1 +1 Y21,2 +1 Y21,3 +1 Y22,0
  +1 Y22,1 +1 Y22,2 +1 Y22,3 +1 Y23,0 +1 Y23,1 +1 Y23,2 +1 Y23,3 +1 Y25,0 +1 Y25,1 +1 Y25,2 +1 Y25,3 +1 Y26,0
  +1 Y26,1 +1 Y26,2 +1 Y26,3 +1 Y27,0 +1 Y27,1 +1 Y27,2 +1 Y27,3 +1 Y29,0 +1 Y29,1 +1 Y29,2 +1 Y29,3 +1 Y30,0
  +1 Y30,1 +1 Y30,2 +1 Y30,3 = +1
 c4: +1 Y158,0 +1 Y158,1 +1 Y158,2 +1 Y158,3 +1 Y161,0 +1 Y161,1 +1 Y161,2 +1 Y161,3 +1 Y162,0 +1 Y162,1
  +1 Y162,2 +1 Y162,3 +1 Y164,0 +1 Y164,1 +1 Y164,2 +1 Y164,3 = +1
 c5: +1 Y32,0 +1 Y32,1 +1 Y32,2 +1 Y32,3 +1 Y38,0 +1 Y38,1 +1 Y38,2 +1 Y38,3 +1 Y44,0 +1 Y44,1 +1 Y44,2
  +1 Y44,3 +1 Y45,0 +1 Y45,1 +1 Y45,2 +1 Y45,3 +1 Y46,0 +1 Y46,1 +1 Y46,2 +1 Y46,3 +1 Y47,0 +1 Y47,1 +1 Y47,2
  +1 Y47,3 +1 Y48,0 +1 Y48,1 +1 Y48,2 +1 Y48,3 +1 Y59,0 +1 Y59,1 +1 Y59,2 +1 Y59,3 +1 Y60,0 +1 Y60,1 +1 Y60,2
  +1 Y60,3 +1 Y61,0 +1 Y61,1 +1 Y61,2 +1 Y61,3 +1 Y62,0 +1 Y62,1 +1 Y62,2 +1 Y62,3 +1 Y63,0 +1 Y63,1 +1 Y63,2
  +1 Y63,3 +1 Y74,0 +1 Y74,1 +1 Y74,2 +1 Y74,3 +1 Y75,0 +1 Y75,1 +1 Y75,2 +1 Y75,3 +1 Y76,0 +1 Y76,1 +1 Y76,2
  +1 Y76,3 +1 Y77,0 +1 Y77,1 +1 Y77,2 +1 Y77,3 +1 Y78,0 +1 Y78,1 +1 Y78,2 +1 Y78,3 +1 Y79,0 +1 Y79,1 +1 Y79,2
  +1 Y79,3 +1 Y80,0 +1 Y80,1 +1 Y80,2 +1 Y80,3 +1 Y81,0 +1 Y81,1 +1 Y81,2 +1 Y81,3 +1 Y82,0 +1 Y82,1 +1 Y82,2
  +1 Y82,3 +1 Y83,0 +1 Y83,1 +1 Y83,2 +1 Y83,3 +1 Y94,0 +1 Y94,1 +1 Y94,2 +1 Y94,3 +1 Y95,0 +1 Y95,1 +1 Y95,2
  +1 Y95,3 +1 Y96,0 +1 Y96,1 +1 Y96,2 +1 Y96,3 +1 Y97,0 +1 Y97,1 +1 Y97,2 +1 Y97,3 +1 Y98,0 +1 Y98,1 +1 Y98,2
  +1 Y98,3 +1 Y99,0 +1 Y99,1 +1 Y99,2 +1 Y99,3 +1 Y100,0 +1 Y100,1 +1 Y100,2 +1 Y100,3 +1 Y101,0 +1 Y101,1
  +1 Y101,2 +1 Y101,3 +1 Y102,0 +1 Y102,1 +1 Y102,2 +1 Y102,3 +1 Y103,0 +1 Y103,1 +1 Y103,2 +1 Y103,3
  +1 Y114,0 +1 Y114,1 +1 Y114,2 +1 Y114,3 +1 Y115,0 +1 Y115,1 +1 Y115,2 +1 Y115,3 +1 Y116,0 +1 Y116,1
  +1 Y116,2 +1 Y116,3 +1 Y117,0 +1 Y117,1 +1 Y117,2 +1 Y117,3 +1 Y118,0 +1 Y118,1 +1 Y118,2 +1 Y118,3
  +1 Y119,0 +1 Y119,1 +1 Y119,2 +1 Y119,3 +1 Y120,0 +1 Y120,1 +1 Y120,2 +1 Y120,3 +1 Y121,0 +1 Y121,1
  +1 Y121,2 +1 Y121,3 +1 Y122,0 +1 Y122,1 +1 Y122,2 +1 Y122,3 +1 Y123,0 +1 Y123,1 +1 Y123,2 +1 Y123,3
  +1 Y129,0 +1 Y129,1 +1 Y129,2 +1 Y129,3 +1 Y130,0 +1 Y130,1 +1 Y130,2 +1 Y130,3 +1 Y131,0 +1 Y131,1
  +1 Y131,2 +1 Y131,3 +1 Y132,0 +1 Y132,1 +1 Y132,2 +1 Y132,3 +1 Y133,0 +1 Y133,1 +1 Y133,2 +1 Y133,3
  +1 Y134,0 +1 Y134,1 +1 Y134,2 +1 Y134,3 +1 Y135,0 +1 Y135,1 +1 Y135,2 +1 Y135,3 +1 Y136,0 +1 Y136,1
  +1 Y136,2 +1 Y136,3 +1 Y137,0 +1 Y137,1 +1 Y137,2 +1 Y137,3 +1 Y138,0 +1 Y138,1 +1 Y138,2 +1 Y138,3
  +1 Y144,0 +1 Y144,1 +1 Y144,2 +1 Y144,3 +1 Y145,0 +1 Y145,1 +1 Y145,2 +1 Y145,3 +1 Y146,0 +1 Y146,1
  +1 Y146,2 +1 Y146,3 +1 Y147,0 +1 Y147,1 +1 Y147,2 +1 Y147,3 +1 Y148,0 +1 Y148,1 +1 Y148,2 +1 Y148,3
  +1 Y150,0 +1 Y150,1 +1 Y150,2 +1 Y150,3 +1 Y151,0 +1 Y151,1 +1 Y151,2 +1 Y151,3 +1 Y152,0 +1 Y152,1
  +1 Y152,2 +1 Y152,3 +1 Y153,0 +1 Y153,1 +1 Y153,2 +1 Y153,3 +1 Y154,0 +1 Y154,1 +1 Y154,2 +1 Y154,3
  +1 Y156,0 +1 Y156,1 +1 Y156,2 +1 Y156,3 +1 Y157,0 +1 Y157,1 +1 Y157,2 +1 Y157,3 = +1
 c6: +1 Y2,0 +1 Y2,1 +1 Y2,2 +1 Y2,3 +1 Y6,0 +1 Y6,1 +1 Y6,2 +1 Y6,3 +1 Y9,0 +1 Y9,1 +1 Y9,2 +1 Y9,3 +1 Y12,0
  +1 Y12,1 +1 Y12,2 +1 Y12,3 +1 Y13,0 +1 Y13,1 +1 Y13,2 +1 Y13,3 +1 Y15,0 +1 Y15,1 +1 Y15,2 +1 Y15,3 +1 Y18,0
  +1 Y18,1 +1 Y18,2 +1 Y18,3 +1 Y19,0 +1 Y19,1 +1 Y19,2 +1 Y19,3 +1 Y21,0 +1 Y21,1 +1 Y21,2 +1 Y21,3 +1 Y22,0
  +1 Y22,1 +1 Y22,2 +1 Y22,3 +1 Y24,0 +1 Y24,1 +1 Y24,2 +1 Y24,3 +1 Y25,0 +1 Y25,1 +1 Y25,2 +1 Y25,3 +1 Y26,0
  +1 Y26,1 +1 Y26,2 +1 Y26,3 +1 Y28,0 +1 Y28,1 +1 Y28,2 +1 Y28,3 +1 Y29,0 +1 Y29,1 +1 Y29,2 +1 Y29,3 +1 Y30,0
  +1 Y30,1 +1 Y30,2 +1 Y30,3 = +1
 c7: +1 Y159,0 +1 Y159,1 +1 Y159,2 +1 Y159,3 +1 Y161,0 +1 Y161,1 +1 Y161,2 +1 Y161,3 +1 Y163,0 +1 Y163,1
  +1 Y163,2 +1 Y163,3 +1 Y164,0 +1 Y164,1 +1 Y164,2 +1 Y164,3 = +1
 c8: +1 Y33,0 +1 Y33,1 +1 Y33,2 +1 Y33,3 +1 Y39,0 +1 Y39,1 +1 Y39,2 +1 Y39,3 +1 Y44,0 +1 Y44,1 +1 Y44,2
  +1 Y44,3 +1 Y49,0 +1 Y49,1 +1 Y49,2 +1 Y49,3 +1 Y50,0 +1 Y50,1 +1 Y50,2 +1 Y50,3 +1 Y51,0 +1 Y51,1 +1 Y51,2
  +1 Y51,3 +1 Y52,0 +1 Y52,1 +1 Y52,2 +1 Y52,3 +1 Y59,0 +1 Y59,1 +1 Y59,2 +1 Y59,3 +1 Y64,0 +1 Y64,1 +1 Y64,2
  +1 Y64,3 +1 Y65,0 +1 Y65,1 +1 Y65,2 +1 Y65,3 +1 Y66,0 +1 Y66,1 +1 Y66,2 +1 Y66,3 +1 Y67,0 +1 Y67,1 +1 Y67,2
  +1 Y67,3 +1 Y74,0 +1 Y74,1 +1 Y74,2 +1 Y74,3 +1 Y75,0 +1 Y75,1 +1 Y75,2 +1 Y75,3 +1 Y76,0 +1 Y76,1 +1 Y76,2
  +1 Y76,3 +1 Y77,0 +1 Y77,1 +1 Y77,2 +1 Y77,3 +1 Y84,0 +1 Y84,1 +1 Y84,2 +1 Y84,3 +1 Y85,0 +1 Y85,1 +1 Y85,2
  +1 Y85,3 +1 Y86,0 +1 Y86,1 +1 Y86,2 +1 Y86,3 +1 Y87,0 +1 Y87,1 +1 Y87,2 +1 Y87,3 +1 Y88,0 +1 Y88,1 +1 Y88,2
  +1 Y88,3 +1 Y89,0 +1 Y89,1 +1 Y89,2 +1 Y89,3 +1 Y94,0 +1 Y94,1 +1 Y94,2 +1 Y94,3 +1 Y95,0 +1 Y95,1 +1 Y95,2
  +1 Y95,3 +1 Y96,0 +1 Y96,1 +1 Y96,2 +1 Y96,3 +1 Y97,0 +1 Y97,1 +1 Y97,2 +1 Y97,3 +1 Y104,0 +1 Y104,1
  +1 Y104,2 +1 Y104,3 +1 Y105,0 +1 Y105,1 +1 Y105,2 +1 Y105,3 +1 Y106,0 +1 Y106,1 +1 Y106,2 +1 Y106,3
  +1 Y107,0 +1 Y107,1 +1 Y107,2 +1 Y107,3 +1 Y108,0 +1 Y108,1 +1 Y108,2 +1 Y108,3 +1 Y109,0 +1 Y109,1
  +1 Y109,2 +1 Y109,3 +1 Y114,0 +1 Y114,1 +1 Y114,2 +1 Y114,3 +1 Y115,0 +1 Y115,1 +1 Y115,2 +1 Y115,3
  +1 Y116,0 +1 Y116,1 +1 Y116,2 +1 Y116,3 +1 Y117,0 +1 Y117,1 +1 Y117,2 +1 Y117,3 +1 Y118,0 +1 Y118,1
  +1 Y118,2 +1 Y118,3 +1 Y119,0 +1 Y119,1 +1 Y119,2 +1 Y119,3 +1 Y124,0 +1 Y124,1 +1 Y124,2 +1 Y124,3
  +1 Y125,0 +1 Y125,1 +1 Y125,2 +1 Y125,3 +1 Y126,0 +1 Y126,1 +1 Y126,2 +1 Y126,3 +1 Y127,0 +1 Y127,1
  +1 Y127,2 +1 Y127,3 +1 Y129,0 +1 Y129,1 +1 Y129,2 +1 Y129,3 +1 Y130,0 +1 Y130,1 +1 Y130,2 +1 Y130,3
  +1 Y131,0 +1 Y131,1 +1 Y131,2 +1 Y131,3 +1 Y132,0 +1 Y132,1 +1 Y132,2 +1 Y132,3 +1 Y133,0 +1 Y133,1
  +1 Y133,2 +1 Y133,3 +1 Y134,0 +1 Y134,1 +1 Y134,2 +1 Y134,3 +1 Y139,0 +1 Y139,1 +1 Y139,2 +1 Y139,3
  +1 Y140,0 +1 Y140,1 +1 Y140,2 +1 Y140,3 +1 Y141,0 +1 Y141,1 +1 Y141,2 +1 Y141,3 +1 Y142,0 +1 Y142,1
  +1 Y142,2 +1 Y142,3 +1 Y144,0 +1 Y144,1 +1 Y144,2 +1 Y144,3 +1 Y145,0 +1 Y145,1 +1 Y145,2 +1 Y145,3
  +1 Y146,0 +1 Y146,1 +1 Y146,2 +1 Y146,3 +1 Y147,0 +1 Y147,1 +1 Y147,2 +1 Y147,3 +1 Y149,0 +1 Y149,1
  +1 Y149,2 +1 Y149,3 +1 Y150,0 +1 Y150,1 +1 Y150,2 +1 Y150,3 +1 Y151,0 +1 Y151,1 +1 Y151,2 +1 Y151,3
  +1 Y152,0 +1 Y152,1 +1 Y152,2 +1 Y152,3 +1 Y153,0 +1 Y153,1 +1 Y153,2 +1 Y153,3 +1 Y155,0 +1 Y155,1
  +1 Y155,2 +1 Y155,3 +1 Y156,0 +1 Y156,1 +1 Y156,2 +1 Y156,3 +1 Y157,0 +1 Y157,1 +1 Y157,2 +1 Y157,3
  = +1
 c9: +1 Y3,0 +1 Y3,1 +1 Y3,2 +1 Y3,3 +1 Y7,0 +1 Y7,1 +1 Y7,2 +1 Y7,3 +1 Y10,0 +1 Y10,1 +1 Y10,2 +1 Y10,3
  +1 Y12,0 +1 Y12,1 +1 Y12,2 +1 Y12,3 +1 Y14,0 +1 Y14,1 +1 Y14,2 +1 Y14,3 +1 Y16,0 +1 Y16,1 +1 Y16,2 +1 Y16,3
  +1 Y18,0 +1 Y18,1 +1 Y18,2 +1 Y18,3 +1 Y20,0 +1 Y20,1 +1 Y20,2 +1 Y20,3 +1 Y21,0 +1 Y21,1 +1 Y21,2 +1 Y21,3
  +1 Y23,0 +1 Y23,1 +1 Y23,2 +1 Y23,3 +1 Y24,0 +1 Y24,1 +1 Y24,2 +1 Y24,3 +1 Y25,0 +1 Y25,1 +1 Y25,2 +1 Y25,3
  +1 Y27,0 +1 Y27,1 +1 Y27,2 +1 Y27,3 +1 Y28,0 +1 Y28,1 +1 Y28,2 +1 Y28,3 +1 Y29,0 +1 Y29,1 +1 Y29,2 +1 Y29,3
  +1 Y30,0 +1 Y30,1 +1 Y30,2 +1 Y30,3 = +1
 c10: +1 Y160,0 +1 Y160,1 +1 Y160,2 +1 Y160,3 +1 Y162,0 +1 Y162,1 +1 Y162,2 +1 Y162,3 +1 Y163,0 +1 Y163,1
  +1 Y163,2 +1 Y163,3 +1 Y164,0 +1 Y164,1 +1 Y164,2 +1 Y164,3 = +1
 c11: +1 Y34,0 +1 Y34,1 +1 Y34,2 +1 Y34,3 +1 Y40,0 +1 Y40,1 +1 Y40,2 +1 Y40,3 +1 Y45,0 +1 Y45,1 +1 Y45,2
  +1 Y45,3 +1 Y49,0 +1 Y49,1 +1 Y49,2 +1 Y49,3 +1 Y53,0 +1 Y53,1 +1 Y53,2 +1 Y53,3 +1 Y54,0 +1 Y54,1 +1 Y54,2
  +1 Y54,3 +1 Y55,0 +1 Y55,1 +1 Y55,2 +1 Y55,3 +1 Y60,0 +1 Y60,1 +1 Y60,2 +1 Y60,3 +1 Y64,0 +1 Y64,1 +1 Y64,2
  +1 Y64,3 +1 Y68,0 +1 Y68,1 +1 Y68,2 +1 Y68,3 +1 Y69,0 +1 Y69,1 +1 Y69,2 +1 Y69,3 +1 Y70,0 +1 Y70,1 +1 Y70,2
  +1 Y70,3 +1 Y74,0 +1 Y74,1 +1 Y74,2 +1 Y74,3 +1 Y78,0 +1 Y78,1 +1 Y78,2 +1 Y78,3 +1 Y79,0 +1 Y79,1 +1 Y79,2
  +1 Y79,3 +1 Y80,0 +1 Y80,1 +1 Y80,2 +1 Y80,3 +1 Y84,0 +1 Y84,1 +1 Y84,2 +1 Y84,3 +1 Y85,0 +1 Y85,1 +1 Y85,2
  +1 Y85,3 +1 Y86,0 +1 Y86,1 +1 Y86,2 +1 Y86,3 +1 Y90,0 +1 Y90,1 +1 Y90,2 +1 Y90,3 +1 Y91,0 +1 Y91,1 +1 Y91,2
  +1 Y91,3 +1 Y92,0 +1 Y92,1 +1 Y92,2 +1 Y92,3 +1 Y94,0 +1 Y94,1 +1 Y94,2 +1 Y94,3 +1 Y98,0 +1 Y98,1 +1 Y98,2
  +1 Y98,3 +1 Y99,0 +1 Y99,1 +1 Y99,2 +1 Y99,3 +1 Y100,0 +1 Y100,1 +1 Y100,2 +1 Y100,3 +1 Y104,0 +1 Y104,1
  +1 Y104,2 +1 Y104,3 +1 Y105,0 +1 Y105,1 +1 Y105,2 +1 Y105,3 +1 Y106,0 +1 Y106,1 +1 Y106,2 +1 Y106,3
  +1 Y110,0 +1 Y110,1 +1 Y110,2 +1 Y110,3 +1 Y111,0 +1 Y111,1 +1 Y111,2 +1 Y111,3 +1 Y112,0 +1 Y112,1
  +1 Y112,2 +1 Y112,3 +1 Y114,0 +1 Y114,1 +1 Y114,2 +1 Y114,3 +1 Y115,0 +1 Y115,1 +1 Y115,2 +1 Y115,3
  +1 Y116,0 +1 Y116,1 +1 Y116,2 +1 Y116,3 +1 Y120,0 +1 Y120,1 +1 Y120,2 +1 Y120,3 +1 Y121,0 +1 Y121,1
  +1 Y121,2 +1 Y121,3 +1 Y122,0 +1 Y122,1 +1 Y122,2 +1 Y122,3 +1 Y124,0 +1 Y124,1 +1 Y124,2 +1 Y124,3
  +1 Y125,0 +1 Y125,1 +1 Y125,2 +1 Y125,3 +1 Y126,0 +1 Y126,1 +1 Y126,2 +1 Y126,3 +1 Y128,0 +1 Y128,1
  +1 Y128,2 +1 Y128,3 +1 Y129,0 +1 Y129,1 +1 Y129,2 +1 Y129,3 +1 Y130,0 +1 Y130,1 +1 Y130,2 +1 Y130,3
  +1 Y131,0 +1 Y131,1 +1 Y131,2 +1 Y131,3 +1 Y135,0 +1 Y135,1 +1 Y135,2 +1 Y135,3 +1 Y136,0 +1 Y136,1
  +1 Y136,2 +1 Y136,3 +1 Y137,0 +1 Y137,1 +1 Y137,2 +1 Y137,3 +1 Y139,0 +1 Y139,1 +1 Y139,2 +1 Y139,3
  +1 Y140,0 +1 Y140,1 +1 Y140,2 +1 Y140,3 +1 Y141,0 +1 Y141,1 +1 Y141,2 +1 Y141,3 +1 Y143,0 +1 Y143,1
  +1 Y143,2 +1 Y143,3 +1 Y144,0 +1 Y144,1 +1 Y144,2 +1 Y144,3 +1 Y145,0 +1 Y145,1 +1 Y145,2 +1 Y145,3
  +1 Y146,0 +1 Y146,1 +1 Y146,2 +1 Y146,3 +1 Y148,0 +1 Y148,1 +1 Y148,2 +1 Y148,3 +1 Y149,0 +1 Y149,1
  +1 Y149,2 +1 Y149,3 +1 Y150,0 +1 Y150,1 +1 Y150,2 +1 Y150,3 +1 Y151,0 +1 Y151,1 +1 Y151,2 +1 Y151,3
  +1 Y152,0 +1 Y152,1 +1 Y152,2 +1 Y152,3 +1 Y154,0 +1 Y154,1 +1 Y154,2 +1 Y154,3 +1 Y155,0 +1 Y155,1
  +1 Y155,2 +1 Y155,3 +1 Y156,0 +1 Y156,1 +1 Y156,2 +1 Y156,3 +1 Y157,0 +1 Y157,1 +1 Y157,2 +1 Y157,3
  = +1
 c12: +1 Y35,0 +1 Y35,1 +1 Y35,2 +1 Y35,3 +1 Y41,0 +1 Y41,1 +1 Y41,2 +1 Y41,3 +1 Y46,0 +1 Y46,1 +1 Y46,2
  +1 Y46,3 +1 Y50,0 +1 Y50,1 +1 Y50,2 +1 Y50,3 +1 Y53,0 +1 Y53,1 +1 Y53,2 +1 Y53,3 +1 Y56,0 +1 Y56,1 +1 Y56,2
  +1 Y56,3 +1 Y57,0 +1 Y57,1 +1 Y57,2 +1 Y57,3 +1 Y61,0 +1 Y61,1 +1 Y61,2 +1 Y61,3 +1 Y65,0 +1 Y65,1 +1 Y65,2
  +1 Y65,3 +1 Y68,0 +1 Y68,1 +1 Y68,2 +1 Y68,3 +1 Y71,0 +1 Y71,1 +1 Y71,2 +1 Y71,3 +1 Y72,0 +1 Y72,1 +1 Y72,2
  +1 Y72,3 +1 Y75,0 +1 Y75,1 +1 Y75,2 +1 Y75,3 +1 Y78,0 +1 Y78,1 +1 Y78,2 +1 Y78,3 +1 Y81,0 +1 Y81,1 +1 Y81,2
  +1 Y81,3 +1 Y82,0 +1 Y82,1 +1 Y82,2 +1 Y82,3 +1 Y84,0 +1 Y84,1 +1 Y84,2 +1 Y84,3 +1 Y87,0 +1 Y87,1 +1 Y87,2
  +1 Y87,3 +1 Y88,0 +1 Y88,1 +1 Y88,2 +1 Y88,3 +1 Y90,0 +1 Y90,1 +1 Y90,2 +1 Y90,3 +1 Y91,0 +1 Y91,1 +1 Y91,2
  +1 Y91,3 +1 Y93,0 +1 Y93,1 +1 Y93,2 +1 Y93,3 +1 Y95,0 +1 Y95,1 +1 Y95,2 +1 Y95,3 +1 Y98,0 +1 Y98,1 +1 Y98,2
  +1 Y98,3 +1 Y101,0 +1 Y101,1 +1 Y101,2 +1 Y101,3 +1 Y102,0 +1 Y102,1 +1 Y102,2 +1 Y102,3 +1 Y104,0 +1 Y104,1
  +1 Y104,2 +1 Y104,3 +1 Y107,0 +1 Y107,1 +1 Y107,2 +1 Y107,3 +1 Y108,0 +1 Y108,1 +1 Y108,2 +1 Y108,3
  +1 Y110,0 +1 Y110,1 +1 Y110,2 +1 Y110,3 +1 Y111,0 +1 Y111,1 +1 Y111,2 +1 Y111,3 +1 Y113,0 +1 Y113,1
  +1 Y113,2 +1 Y113,3 +1 Y114,0 +1 Y114,1 +1 Y114,2 +1 Y114,3 +1 Y117,0 +1 Y117,1 +1 Y117,2 +1 Y117,3
  +1 Y118,0 +1 Y118,1 +1 Y118,2 +1 Y118,3 +1 Y120,0 +1 Y120,1 +1 Y120,2 +1 Y120,3 +1 Y121,0 +1 Y121,1
  +1 Y121,2 +1 Y121,3 +1 Y123,0 +1 Y123,1 +1 Y123,2 +1 Y123,3 +1 Y124,0 +1 Y124,1 +1 Y124,2 +1 Y124,3
  +1 Y125,0 +1 Y125,1 +1 Y125,2 +1 Y125,3 +1 Y127,0 +1 Y127,1 +1 Y127,2 +1 Y127,3 +1 Y128,0 +1 Y128,1
  +1 Y128,2 +1 Y128,3 +1 Y129,0 +1 Y129,1 +1 Y129,2 +1 Y129,3 +1 Y132,0 +1 Y132,1 +1 Y132,2 +1 Y132,3
  +1 Y133,0 +1 Y133,1 +1 Y133,2 +1 Y133,3 +1 Y135,0 +1 Y135,1 +1 Y135,2 +1 Y135,3 +1 Y136,0 +1 Y136,1
  +1 Y136,2 +1 Y136,3 +1 Y138,0 +1 Y138,1 +1 Y138,2 +1 Y138,3 +1 Y139,0 +1 Y139,1 +1 Y139,2 +1 Y139,3
  +1 Y140,0 +1 Y140,1 +1 Y140,2 +1 Y140,3 +1 Y142,0 +1 Y142,1 +1 Y142,2 +1 Y142,3 +1 Y143,0 +1 Y143,1
  +1 Y143,2 +1 Y143,3 +1 Y144,0 +1 Y144,1 +1 Y144,2 +1 Y144,3 +1 Y145,0 +1 Y145,1 +1 Y145,2 +1 Y145,3
  +1 Y147,0 +1 Y147,1 +1 Y147,2 +1 Y147,3 +1 Y148,0 +1 Y148,1 +1 Y148,2 +1 Y148,3 +1 Y149,0 +1 Y149,1
  +1 Y149,2 +1 Y149,3 +1 Y150,0 +1 Y150,1 +1 Y150,2 +1 Y150,3 +1 Y151,0 +1 Y151,1 +1 Y151,2 +1 Y151,3
  +1 Y153,0 +1 Y153,1 +1 Y153,2 +1 Y153,3 +1 Y154,0 +1 Y154,1 +1 Y154,2 +1 Y154,3 +1 Y155,0 +1 Y155,1
  +1 Y155,2 +1 Y155,3 +1 Y156,0 +1 Y156,1 +1 Y156,2 +1 Y156,3 +1 Y157,0 +1 Y157,1 +1 Y157,2 +1 Y157,3
  = +1
 c13: +1 Y4,0 +1 Y4,1 +1 Y4,2 +1 Y4,3 +1 Y8,0 +1 Y8,1 +1 Y8,2 +1 Y8,3 +1 Y11,0 +1 Y11,1 +1 Y11,2 +1 Y11,3
  +1 Y13,0 +1 Y13,1 +1 Y13,2 +1 Y13,3 +1 Y14,0 +1 Y14,1 +1 Y14,2 +1 Y14,3 +1 Y17,0 +1 Y17,1 +1 Y17,2 +1 Y17,3
  +1 Y19,0 +1 Y19,1 +1 Y19,2 +1 Y19,3 +1 Y20,0 +1 Y20,1 +1 Y20,2 +1 Y20,3 +1 Y22,0 +1 Y22,1 +1 Y22,2 +1 Y22,3
  +1 Y23,0 +1 Y23,1 +1 Y23,2 +1 Y23,3 +1 Y24,0 +1 Y24,1 +1 Y24,2 +1 Y24,3 +1 Y26,0 +1 Y26,1 +1 Y26,2 +1 Y26,3
  +1 Y27,0 +1 Y27,1 +1 Y27,2 +1 Y27,3 +1 Y28,0 +1 Y28,1 +1 Y28,2 +1 Y28,3 +1 Y29,0 +1 Y29,1 +1 Y29,2 +1 Y29,3
  +1 Y30,0 +1 Y30,1 +1 Y30,2 +1 Y30,3 = +1
 c14: +1 Y36,0 +1 Y36,1 +1 Y36,2 +1 Y36,3 +1 Y42,0 +1 Y42,1 +1 Y42,2 +1 Y42,3 +1 Y47,0 +1 Y47,1 +1 Y47,2
  +1 Y47,3 +1 Y51,0 +1 Y51,1 +1 Y51,2 +1 Y51,3 +1 Y54,0 +1 Y54,1 +1 Y54,2 +1 Y54,3 +1 Y56,0 +1 Y56,1 +1 Y56,2
  +1 Y56,3 +1 Y58,0 +1 Y58,1 +1 Y58,2 +1 Y58,3 +1 Y62,0 +1 Y62,1 +1 Y62,2 +1 Y62,3 +1 Y66,0 +1 Y66,1 +1 Y66,2
  +1 Y66,3 +1 Y69,0 +1 Y69,1 +1 Y69,2 +1 Y69,3 +1 Y71,0 +1 Y71,1 +1 Y71,2 +1 Y71,3 +1 Y73,0 +1 Y73,1 +1 Y73,2
  +1 Y73,3 +1 Y76,0 +1 Y76,1 +1 Y76,2 +1 Y76,3 +1 Y79,0 +1 Y79,1 +1 Y79,2 +1 Y79,3 +1 Y81,0 +1 Y81,1 +1 Y81,2
  +1 Y81,3 +1 Y83,0 +1 Y83,1 +1 Y83,2 +1 Y83,3 +1 Y85,0 +1 Y85,1 +1 Y85,2 +1 Y85,3 +1 Y87,0 +1 Y87,1 +1 Y87,2
  +1 Y87,3 +1 Y89,0 +1 Y89,1 +1 Y89,2 +1 Y89,3 +1 Y90,0 +1 Y90,1 +1 Y90,2 +1 Y90,3 +1 Y92,0 +1 Y92,1 +1 Y92,2
  +1 Y92,3 +1 Y93,0 +1 Y93,1 +1 Y93,2 +1 Y93,3 +1 Y96,0 +1 Y96,1 +1 Y96,2 +1 Y96,3 +1 Y99,0 +1 Y99,1 +1 Y99,2
  +1 Y99,3 +1 Y101,0 +1 Y101,1 +1 Y101,2 +1 Y101,3 +1 Y103,0 +1 Y103,1 +1 Y103,2 +1 Y103,3 +1 Y105,0 +1 Y105,1
  +1 Y105,2 +1 Y105,3 +1 Y107,0 +1 Y107,1 +1 Y107,2 +1 Y107,3 +1 Y109,0 +1 Y109,1 +1 Y109,2 +1 Y109,3
  +1 Y110,0 +1 Y110,1 +1 Y110,2 +1 Y110,3 +1 Y112,0 +1 Y112,1 +1 Y112,2 +1 Y112,3 +1 Y113,0 +1 Y113,1
  +1 Y113,2 +1 Y113,3 +1 Y115,0 +1 Y115,1 +1 Y115,2 +1 Y115,3 +1 Y117,0 +1 Y117,1 +1 Y117,2 +1 Y117,3
  +1 Y119,0 +1 Y119,1 +1 Y119,2 +1 Y119,3 +1 Y120,0 +1 Y120,1 +1 Y120,2 +1 Y120,3 +1 Y122,0 +1 Y122,1
  +1 Y122,2 +1 Y122,3 +1 Y123,0 +1 Y123,1 +1 Y123,2 +1 Y123,3 +1 Y124,0 +1 Y124,1 +1 Y124,2 +1 Y124,3
  +1 Y126,0 +1 Y126,1 +1 Y126,2 +1 Y126,3 +1 Y127,0 +1 Y127,1 +1 Y127,2 +1 Y127,3 +1 Y128,0 +1 Y128,1
  +1 Y128,2 +1 Y128,3 +1 Y130,0 +1 Y130,1 +1 Y130,2 +1 Y130,3 +1 Y132,0 +1 Y132,1 +1 Y132,2 +1 Y132,3
  +1 Y134,0 +1 Y134,1 +1 Y134,2 +1 Y134,3 +1 Y135,0 +1 Y135,1 +1 Y135,2 +1 Y135,3 +1 Y137,0 +1 Y137,1
  +1 Y137,2 +1 Y137,3 +1 Y138,0 +1 Y138,1 +1 Y138,2 +1 Y138,3 +1 Y139,0 +1 Y139,1 +1 Y139,2 +1 Y139,3
  +1 Y141,0 +1 Y141,1 +1 Y141,2 +1 Y141,3 +1 Y142,0 +1 Y142,1 +1 Y142,2 +1 Y142,3 +1 Y143,0 +1 Y143,1
  +1 Y143,2 +1 Y143,3 +1 Y144,0 +1 Y144,1 +1 Y144,2 +1 Y144,3 +1 Y146,0 +1 Y146,1 +1 Y146,2 +1 Y146,3
  +1 Y147,0 +1 Y147,1 +1 Y147,2 +1 Y147,3 +1 Y148,0 +1 Y148,1 +1 Y148,2 +1 Y148,3 +1 Y149,0 +1 Y149,1
  +1 Y149,2 +1 Y149,3 +1 Y150,0 +1 Y150,1 +1 Y150,2 +1 Y150,3 +1 Y152,0 +1 Y152,1 +1 Y152,2 +1 Y152,3
  +1 Y153,0 +1 Y153,1 +1 Y153,2 +1 Y153,3 +1 Y154,0 +1 Y154,1 +1 Y154,2 +1 Y154,3 +1 Y155,0 +1 Y155,1
  +1 Y155,2 +1 Y155,3 +1 Y156,0 +1 Y156,1 +1 Y156,2 +1 Y156,3 +1 Y157,0 +1 Y157,1 +1 Y157,2 +1 Y157,3
  = +1
 c15: +1 Y37,0 +1 Y37,1 +1 Y37,2 +1 Y37,3 +1 Y43,0 +1 Y43,1 +1 Y43,2 +1 Y43,3 +1 Y48,0 +1 Y48,1 +1 Y48,2
  +1 Y48,3 +1 Y52,0 +1 Y52,1 +1 Y52,2 +1 Y52,3 +1 Y55,0 +1 Y55,1 +1 Y55,2 +1 Y55,3 +1 Y57,0 +1 Y57,1 +1 Y57,2
  +1 Y57,3 +1 Y58,0 +1 Y58,1 +1 Y58,2 +1 Y58,3 +1 Y63,0 +1 Y63,1 +1 Y63,2 +1 Y63,3 +1 Y67,0 +1 Y67,1 +1 Y67,2
  +1 Y67,3 +1 Y70,0 +1 Y70,1 +1 Y70,2 +1 Y70,3 +1 Y72,0 +1 Y72,1 +1 Y72,2 +1 Y72,3 +1 Y73,0 +1 Y73,1 +1 Y73,2
  +1 Y73,3 +1 Y77,0 +1 Y77,1 +1 Y77,2 +1 Y77,3 +1 Y80,0 +1 Y80,1 +1 Y80,2 +1 Y80,3 +1 Y82,0 +1 Y82,1 +1 Y82,2
  +1 Y82,3 +1 Y83,0 +1 Y83,1 +1 Y83,2 +1 Y83,3 +1 Y86,0 +1 Y86,1 +1 Y86,2 +1 Y86,3 +1 Y88,0 +1 Y88,1 +1 Y88,2
  +1 Y88,3 +1 Y89,0 +1 Y89,1 +1 Y89,2 +1 Y89,3 +1 Y91,0 +1 Y91,1 +1 Y91,2 +1 Y91,3 +1 Y92,0 +1 Y92,1 +1 Y92,2
  +1 Y92,3 +1 Y93,0 +1 Y93,1 +1 Y93,2 +1 Y93,3 +1 Y97,0 +1 Y97,1 +1 Y97,2 +1 Y97,3 +1 Y100,0 +1 Y100,1
  +1 Y100,2 +1 Y100,3 +1 Y102,0 +1 Y102,1 +1 Y102,2 +1 Y102,3 +1 Y103,0 +1 Y103,1 +1 Y103,2 +1 Y103,3
  +1 Y106,0 +1 Y106,1 +1 Y106,2 +1 Y106,3 +1 Y108,0 +1 Y108,1 +1 Y108,2 +1 Y108,3 +1 Y109,0 +1 Y109,1
  +1 Y109,2 +1 Y109,3 +1 Y111,0 +1 Y111,1 +1 Y111,2 +1 Y111,3 +1 Y112,0 +1 Y112,1 +1 Y112,2 +1 Y112,3
  +1 Y113,0 +1 Y113,1 +1 Y113,2 +1 Y113,3 +1 Y116,0 +1 Y116,1 +1 Y116,2 +1 Y116,3 +1 Y118,0 +1 Y118,1
  +1 Y118,2 +1 Y118,3 +1 Y119,0 +1 Y119,1 +1 Y119,2 +1 Y119,3 +1 Y121,0 +1 Y121,1 +1 Y121,2 +1 Y121,3
  +1 Y122,0 +1 Y122,1 +1 Y122,2 +1 Y122,3 +1 Y123,0 +1 Y123,1 +1 Y123,2 +1 Y123,3 +1 Y125,0 +1 Y125,1
  +1 Y125,2 +1 Y125,3 +1 Y126,0 +1 Y126,1 +1 Y126,2 +1 Y126,3 +1 Y127,0 +1 Y127,1 +1 Y127,2 +1 Y127,3
  +1 Y128,0 +1 Y128,1 +1 Y128,2 +1 Y128,3 +1 Y131,0 +1 Y131,1 +1 Y131,2 +1 Y131,3 +1 Y133,0 +1 Y133,1
  +1 Y133,2 +1 Y133,3 +1 Y134,0 +1 Y134,1 +1 Y134,2 +1 Y134,3 +1 Y136,0 +1 Y136,1 +1 Y136,2 +1 Y136,3
  +1 Y137,0 +1 Y137,1 +1 Y137,2 +1 Y137,3 +1 Y138,0 +1 Y138,1 +1 Y138,2 +1 Y138,3 +1 Y140,0 +1 Y140,1
  +1 Y140,2 +1 Y140,3 +1 Y141,0 +1 Y141,1 +1 Y141,2 +1 Y141,3 +1 Y142,0 +1 Y142,1 +1 Y142,2 +1 Y142,3
  +1 Y143,0 +1 Y143,1 +1 Y143,2 +1 Y143,3 +1 Y145,0 +1 Y145,1 +1 Y145,2 +1 Y145,3 +1 Y146,0 +1 Y146,1
  +1 Y146,2 +1 Y146,3 +1 Y147,0 +1 Y147,1 +1 Y147,2 +1 Y147,3 +1 Y148,0 +1 Y148,1 +1 Y148,2 +1 Y148,3
  +1 Y149,0 +1 Y149,1 +1 Y149,2 +1 Y149,3 +1 Y151,0 +1 Y151,1 +1 Y151,2 +1 Y151,3 +1 Y152,0 +1 Y152,1
  +1 Y152,2 +1 Y152,3 +1 Y153,0 +1 Y153,1 +1 Y153,2 +1 Y153,3 +1 Y154,0 +1 Y154,1 +1 Y154,2 +1 Y154,3
  +1 Y155,0 +1 Y155,1 +1 Y155,2 +1 Y155,3 +1 Y156,0 +1 Y156,1 +1 Y156,2 +1 Y156,3 +1 Y157,0 +1 Y157,1
  +1 Y157,2 +1 Y157,3 = +1
 c16: +1 Y0,1 = +0
 c17: +1 Y0,2 = +0
 c18: +1 Y1,1 = +0
 c19: +1 Y1,2 = +0
 c20: +1 Y2,1 = +0
 c21: +1 Y2,2 = +0
 c22: +1 Y3,1 = +0
 c23: +1 Y3,2 = +0
 c24: +1 Y4,1 = +0
 c25: +1 Y4,2 = +0
 c26: +1 Y5,1 = +0
 c27: +1 Y5,2 = +0
 c28: +1 Y6,1 = +0
 c29: +1 Y6,2 = +0
 c30: +1 Y7,1 = +0
 c31: +1 Y7,2 = +0
 c32: +1 Y8,1 = +0
 c33: +1 Y8,2 = +0
 c34: +1 Y9,1 = +0
 c35: +1 Y9,2 = +0
 c36: +1 Y10,1 = +0
 c37: +1 Y10,2 = +0
 c38: +1 Y11,1 = +0
 c39: +1 Y11,2 = +0
 c40: +1 Y12,1 = +0
 c41: +1 Y12,2 = +0
 c42: +1 Y13,1 = +0
 c43: +1 Y13,2 = +0
 c44: +1 Y14,1 = +0
 c45: +1 Y14,2 = +0
 c46: +1 Y15,1 = +0
 c47: +1 Y15,2 = +0
 c48: +1 Y16,1 = +0
 c49: +1 Y16,2 = +0
 c50: +1 Y17,1 = +0
 c51: +1 Y17,2 = +0
 c52: +1 Y18,1 = +0
 c53: +1 Y18,2 = +0
 c54: +1 Y19,1 = +0
 c55: +1 Y19,2 = +0
 c56: +1 Y20,1 = +0
 c57: +1 Y20,2 = +0
 c58: +1 Y21,1 = +0
 c59: +1 Y21,2 = +0
 c60: +1 Y22,1 = +0
 c61: +1 Y22,2 = +0
 c62: +1 Y23,1 = +0
 c63: +1 Y23,2 = +0
 c64: +1 Y24,1 = +0
 c65: +1 Y24,2 = +0
 c66: +1 Y25,1 = +0
 c67: +1 Y25,2 = +0
 c68: +1 Y26,1 = +0
 c69: +1 Y26,2 = +0
 c70: +1 Y27,1 = +0
 c71: +1 Y27,2 = +0
 c72: +1 Y28,1 = +0
 c73: +1 Y28,2 = +0
 c74: +1 Y29,1 = +0
 c75: +1 Y29,2 = +0
 c76: +1 Y30,1 = +0
 c77: +1 Y30,2 = +0
 c78: +1 Y31,2 = +0
 c79: +1 Y32,2 = +0
 c80: +1 Y33,2 = +0
 c81: +1 Y34,2 = +0
 c82: +1 Y35,2 = +0
 c83: +1 Y36,2 = +0
 c84: +1 Y37,2 = +0
 c85: +1 Y38,2 = +0
 c86: +1 Y39,2 = +0
 c87: +1 Y40,2 = +0
 c88: +1 Y41,2 = +0
 c89: +1 Y42,2 = +0
 c90: +1 Y43,2 = +0
 c91: +1 Y44,2 = +0
 c92: +1 Y45,2 = +0
 c93: +1 Y46,2 = +0
 c94: +1 Y47,2 = +0
 c95: +1 Y48,2 = +0
 c96: +1 Y49,2 = +0
 c97: +1 Y50,2 = +0
 c98: +1 Y51,2 = +0
 c99: +1 Y52,2 = +0
 c100: +1 Y53,2 = +0
 c101: +1 Y54,2 = +0
 c102: +1 Y55,2 = +0
 c103: +1 Y56,2 = +0
 c104: +1 Y57,2 = +0
 c105: +1 Y58,2 = +0
 c106: +1 Y59,2 = +0
 c107: +1 Y60,2 = +0
 c108: +1 Y61,2 = +0
 c109: +1 Y62,2 = +0
 c110: +1 Y63,2 = +0
 c111: +1 Y64,2 = +0
 c112: +1 Y65,2 = +0
 c113: +1 Y66,2 = +0
 c114: +1 Y67,2 = +0
 c115: +1 Y68,2 = +0
 c116: +1 Y69,2 = +0
 c117: +1 Y70,2 = +0
 c118: +1 Y71,2 = +0
 c119: +1 Y72,2 = +0
 c120: +1 Y73,2 = +0
 c121: +1 Y74,2 = +0
 c122: +1 Y75,2 = +0
 c123: +1 Y76,2 = +0
 c124: +1 Y77,2 = +0
 c125: +1 Y78,2 = +0
 c126: +1 Y79,2 = +0
 c127: +1 Y80,2 = +0
 c128: +1 Y81,2 = +0
 c129: +1 Y82,2 = +0
 c130: +1 Y83,2 = +0
 c131: +1 Y84,2 = +0
 c132: +1 Y85,2 = +0
 c133: +1 Y86,2 = +0
 c134: +1 Y87,2 = +0
 c135: +1 Y88,2 = +0
 c136: +1 Y89,2 = +0
 c137: +1 Y90,2 = +0
 c138: +1 Y91,2 = +0
 c139: +1 Y92,2 = +0
 c140: +1 Y93,2 = +0
 c141: +1 Y94,2 = +0
 c142: +1 Y95,2 = +0
 c143: +1 Y96,2 = +0
 c144: +1 Y97,2 = +0
 c145: +1 Y98,2 = +0
 c146: +1 Y99,2 = +0
 c147: +1 Y100,2 = +0
 c148: +1 Y101,2 = +0
 c149: +1 Y102,2 = +0
 c150: +1 Y103,2 = +0
 c151: +1 Y104,2 = +0
 c152: +1 Y105,2 = +0
 c153: +1 Y106,2 = +0
 c154: +1 Y107,2 = +0
 c155: +1 Y108,2 = +0
 c156: +1 Y109,2 = +0
 c157: +1 Y110,2 = +0
 c158: +1 Y111,2 = +0
 c159: +1 Y112,2 = +0
 c160: +1 Y113,2 = +0
 c161: +1 Y114,2 = +0
 c162: +1 Y115,2 = +0
 c163: +1 Y116,2 = +0
 c164: +1 Y117,2 = +0
 c165: +1 Y118,2 = +0
 c166: +1 Y119,2 = +0
 c167: +1 Y120,2 = +0
 c168: +1 Y121,2 = +0
 c169: +1 Y122,2 = +0
 c170: +1 Y123,2 = +0
 c171: +1 Y124,2 = +0
 c172: +1 Y125,2 = +0
 c173: +1 Y126,2 = +0
 c174: +1 Y127,2 = +0
 c175: +1 Y128,2 = +0
 c176: +1 Y129,2 = +0
 c177: +1 Y130,2 = +0
 c178: +1 Y131,2 = +0
 c179: +1 Y132,2 = +0
 c180: +1 Y133,2 = +0
 c181: +1 Y134,2 = +0
 c182: +1 Y135,2 = +0
 c183: +1 Y136,2 = +0
 c184: +1 Y137,2 = +0
 c185: +1 Y138,2 = +0
 c186: +1 Y139,2 = +0
 c187: +1 Y140,2 = +0
 c188: +1 Y141,2 = +0
 c189: +1 Y142,2 = +0
 c190: +1 Y143,2 = +0
 c191: +1 Y144,2 = +0
 c192: +1 Y145,2 = +0
 c193: +1 Y146,2 = +0
 c194: +1 Y147,2 = +0
 c195: +1 Y148,2 = +0
 c196: +1 Y149,2 = +0
 c197: +1 Y150,2 = +0
 c198: +1 Y151,2 = +0
 c199: +1 Y152,2 = +0
 c200: +1 Y153,2 = +0
 c201: +1 Y154,2 = +0
 c202: +1 Y155,2 = +0
 c203: +1 Y156,2 = +0
 c204: +1 Y157,2 = +0
 c205: +1 Y158,0 = +0
 c206: +1 Y158,1 = +0
 c207: +1 Y159,0 = +0
 c208: +1 Y159,1 = +0
 c209: +1 Y160,0 = +0
 c210: +1 Y160,1 = +0
 c211: +1 Y161,0 = +0
 c212: +1 Y161,1 = +0
 c213: +1 Y162,0 = +0
 c214: +1 Y162,1 = +0
 c215: +1 Y163,0 = +0
 c216: +1 Y163,1 = +0
 c217: +1 Y164,0 = +0
 c218: +1 Y164,1 = +0
 c219: +1 Cmax -60 Y0,0 -60 Y1,0 -60 Y2,0 -60 Y3,0 -60 Y4,0 -60 Y5,0 -60 Y6,0 -60 Y7,0 -60 Y8,0 -60 Y9,0
  -60 Y10,0 -60 Y11,0 -60 Y12,0 -60 Y13,0 -60 Y14,0 -60 Y15,0 -60 Y16,0 -60 Y17,0 -60 Y18,0 -60 Y19,0
  -60 Y20,0 -60 Y21,0 -60 Y22,0 -60 Y23,0 -60 Y24,0 -60 Y25,0 -60 Y26,0 -60 Y27,0 -60 Y28,0 -60 Y29,0
  -60 Y30,0 -45 Y31,0 -45 Y32,0 -45 Y33,0 -45 Y34,0 -45 Y35,0 -45 Y36,0 -45 Y37,0 -45 Y38,0 -45 Y39,0
  -45 Y40,0 -45 Y41,0 -45 Y42,0 -45 Y43,0 -45 Y44,0 -45 Y45,0 -45 Y46,0 -45 Y47,0 -45 Y48,0 -45 Y49,0
  -45 Y50,0 -45 Y51,0 -45 Y52,0 -45 Y53,0 -45 Y54,0 -45 Y55,0 -45 Y56,0 -45 Y57,0 -45 Y58,0 -45 Y59,0
  -45 Y60,0 -45 Y61,0 -45 Y62,0 -45 Y63,0 -45 Y64,0 -45 Y65,0 -45 Y66,0 -45 Y67,0 -45 Y68,0 -45 Y69,0
  -45 Y70,0 -45 Y71,0 -45 Y72,0 -45 Y73,0 -45 Y74,0 -45 Y75,0 -45 Y76,0 -45 Y77,0 -45 Y78,0 -45 Y79,0
  -45 Y80,0 -45 Y81,0 -45 Y82,0 -45 Y83,0 -45 Y84,0 -45 Y85,0 -45 Y86,0 -45 Y87,0 -45 Y88,0 -45 Y89,0
  -45 Y90,0 -45 Y91,0 -45 Y92,0 -45 Y93,0 -45 Y94,0 -45 Y95,0 -45 Y96,0 -45 Y97,0 -45 Y98,0 -45 Y99,0
  -45 Y100,0 -45 Y101,0 -45 Y102,0 -45 Y103,0 -45 Y104,0 -45 Y105,0 -45 Y106,0 -45 Y107,0 -45 Y108,0 -45 Y109,0
  -45 Y110,0 -45 Y111,0 -45 Y112,0 -45 Y113,0 -45 Y114,0 -45 Y115,0 -45 Y116,0 -45 Y117,0 -45 Y118,0 -45 Y119,0
  -45 Y120,0 -45 Y121,0 -45 Y122,0 -45 Y123,0 -45 Y124,0 -45 Y125,0 -45 Y126,0 -45 Y127,0 -45 Y128,0 -45 Y129,0
  -45 Y130,0 -45 Y131,0 -45 Y132,0 -45 Y133,0 -45 Y134,0 -45 Y135,0 -45 Y136,0 -45 Y137,0 -45 Y138,0 -45 Y139,0
  -45 Y140,0 -45 Y141,0 -45 Y142,0 -45 Y143,0 -45 Y144,0 -45 Y145,0 -45 Y146,0 -45 Y147,0 -45 Y148,0 -45 Y149,0
  -45 Y150,0 -45 Y151,0 -45 Y152,0 -45 Y153,0 -45 Y154,0 -45 Y155,0 -45 Y156,0 -45 Y157,0 -30 Y158,0 -30 Y159,0
  -30 Y160,0 -30 Y161,0 -30 Y162,0 -30 Y163,0 -30 Y164,0 >= +0
 c220: +1 Cmax -60 Y0,1 -60 Y1,1 -60 Y2,1 -60 Y3,1 -60 Y4,1 -60 Y5,1 -60 Y6,1 -60 Y7,1 -60 Y8,1 -60 Y9,1
  -60 Y10,1 -60 Y11,1 -60 Y12,1 -60 Y13,1 -60 Y14,1 -60 Y15,1 -60 Y16,1 -60 Y17,1 -60 Y18,1 -60 Y19,1
  -60 Y20,1 -60 Y21,1 -60 Y22,1 -60 Y23,1 -60 Y24,1 -60 Y25,1 -60 Y26,1 -60 Y27,1 -60 Y28,1 -60 Y29,1
  -60 Y30,1 -45 Y31,1 -45 Y32,1 -45 Y33,1 -45 Y34,1 -45 Y35,1 -45 Y36,1 -45 Y37,1 -45 Y38,1 -45 Y39,1
  -45 Y40,1 -45 Y41,1 -45 Y42,1 -45 Y43,1 -45 Y44,1 -45 Y45,1 -45 Y46,1 -45 Y47,1 -45 Y48,1 -45 Y49,1
  -45 Y50,1 -45 Y51,1 -45 Y52,1 -45 Y53,1 -45 Y54,1 -45 Y55,1 -45 Y56,1 -45 Y57,1 -45 Y58,1 -45 Y59,1
  -45 Y60,1 -45 Y61,1 -45 Y62,1 -45 Y63,1 -45 Y64,1 -45 Y65,1 -45 Y66,1 -45 Y67,1 -45 Y68,1 -45 Y69,1
  -45 Y70,1 -45 Y71,1 -45 Y72,1 -45 Y73,1 -45 Y74,1 -45 Y75,1 -45 Y76,1 -45 Y77,1 -45 Y78,1 -45 Y79,1
  -45 Y80,1 -45 Y81,1 -45 Y82,1 -45 Y83,1 -45 Y84,1 -45 Y85,1 -45 Y86,1 -45 Y87,1 -45 Y88,1 -45 Y89,1
  -45 Y90,1 -45 Y91,1 -45 Y92,1 -45 Y93,1 -45 Y94,1 -45 Y95,1 -45 Y96,1 -45 Y97,1 -45 Y98,1 -45 Y99,1
  -45 Y100,1 -45 Y101,1 -45 Y102,1 -45 Y103,1 -45 Y104,1 -45 Y105,1 -45 Y106,1 -45 Y107,1 -45 Y108,1 -45 Y109,1
  -45 Y110,1 -45 Y111,1 -45 Y112,1 -45 Y113,1 -45 Y114,1 -45 Y115,1 -45 Y116,1 -45 Y117,1 -45 Y118,1 -45 Y119,1
  -45 Y120,1 -45 Y121,1 -45 Y122,1 -45 Y123,1 -45 Y124,1 -45 Y125,1 -45 Y126,1 -45 Y127,1 -45 Y128,1 -45 Y129,1
  -45 Y130,1 -45 Y131,1 -45 Y132,1 -45 Y133,1 -45 Y134,1 -45 Y135,1 -45 Y136,1 -45 Y137,1 -45 Y138,1 -45 Y139,1
  -45 Y140,1 -45 Y141,1 -45 Y142,1 -45 Y143,1 -45 Y144,1 -45 Y145,1 -45 Y146,1 -45 Y147,1 -45 Y148,1 -45 Y149,1
  -45 Y150,1 -45 Y151,1 -45 Y152,1 -45 Y153,1 -45 Y154,1 -45 Y155,1 -45 Y156,1 -45 Y157,1 -30 Y158,1 -30 Y159,1
  -30 Y160,1 -30 Y161,1 -30 Y162,1 -30 Y163,1 -30 Y164,1 >= +0
 c221: +1 Cmax -60 Y0,2 -60 Y1,2 -60 Y2,2 -60 Y3,2 -60 Y4,2 -60 Y5,2 -60 Y6,2 -60 Y7,2 -60 Y8,2 -60 Y9,2
  -60 Y10,2 -60 Y11,2 -60 Y12,2 -60 Y13,2 -60 Y14,2 -60 Y15,2 -60 Y16,2 -60 Y17,2 -60 Y18,2 -60 Y19,2
  -60 Y20,2 -60 Y21,2 -60 Y22,2 -60 Y23,2 -60 Y24,2 -60 Y25,2 -60 Y26,2 -60 Y27,2 -60 Y28,2 -60 Y29,2
  -60 Y30,2 -45 Y31,2 -45 Y32,2 -45 Y33,2 -45 Y34,2 -45 Y35,2 -45 Y36,2 -45 Y37,2 -45 Y38,2 -45 Y39,2
  -45 Y40,2 -45 Y41,2 -45 Y42,2 -45 Y43,2 -45 Y44,2 -45 Y45,2 -45 Y46,2 -45 Y47,2 -45 Y48,2 -45 Y49,2
  -45 Y50,2 -45 Y51,2 -45 Y52,2 -45 Y53,2 -45 Y54,2 -45 Y55,2 -45 Y56,2 -45 Y57,2 -45 Y58,2 -45 Y59,2
  -45 Y60,2 -45 Y61,2 -45 Y62,2 -45 Y63,2 -45 Y64,2 -45 Y65,2 -45 Y66,2 -45 Y67,2 -45 Y68,2 -45 Y69,2
  -45 Y70,2 -45 Y71,2 -45 Y72,2 -45 Y73,2 -45 Y74,2 -45 Y75,2 -45 Y76,2 -45 Y77,2 -45 Y78,2 -45 Y79,2
  -45 Y80,2 -45 Y81,2 -45 Y82,2 -45 Y83,2 -45 Y84,2 -45 Y85,2 -45 Y86,2 -45 Y87,2 -45 Y88,2 -45 Y89,2
  -45 Y90,2 -45 Y91,2 -45 Y92,2 -45 Y93,2 -45 Y94,2 -45 Y95,2 -45 Y96,2 -45 Y97,2 -45 Y98,2 -45 Y99,2
  -45 Y100,2 -45 Y101,2 -45 Y102,2 -45 Y103,2 -45 Y104,2 -45 Y105,2 -45 Y106,2 -45 Y107,2 -45 Y108,2 -45 Y109,2
  -45 Y110,2 -45 Y111,2 -45 Y112,2 -45 Y113,2 -45 Y114,2 -45 Y115,2 -45 Y116,2 -45 Y117,2 -45 Y118,2 -45 Y119,2
  -45 Y120,2 -45 Y121,2 -45 Y122,2 -45 Y123,2 -45 Y124,2 -45 Y125,2 -45 Y126,2 -45 Y127,2 -45 Y128,2 -45 Y129,2
  -45 Y130,2 -45 Y131,2 -45 Y132,2 -45 Y133,2 -45 Y134,2 -45 Y135,2 -45 Y136,2 -45 Y137,2 -45 Y138,2 -45 Y139,2
  -45 Y140,2 -45 Y141,2 -45 Y142,2 -45 Y143,2 -45 Y144,2 -45 Y145,2 -45 Y146,2 -45 Y147,2 -45 Y148,2 -45 Y149,2
  -45 Y150,2 -45 Y151,2 -45 Y152,2 -45 Y153,2 -45 Y154,2 -45 Y155,2 -45 Y156,2 -45 Y157,2 -30 Y158,2 -30 Y159,2
  -30 Y160,2 -30 Y161,2 -30 Y162,2 -30 Y163,2 -30 Y164,2 >= +0
 c222: +1 Cmax -60 Y0,3 -60 Y1,3 -60 Y2,3 -60 Y3,3 -60 Y4,3 -60 Y5,3 -60 Y6,3 -60 Y7,3 -60 Y8,3 -60 Y9,3
  -60 Y10,3 -60 Y11,3 -60 Y12,3 -60 Y13,3 -60 Y14,3 -60 Y15,3 -60 Y16,3 -60 Y17,3 -60 Y18,3 -60 Y19,3
  -60 Y20,3 -60 Y21,3 -60 Y22,3 -60 Y23,3 -60 Y24,3 -60 Y25,3 -60 Y26,3 -60 Y27,3 -60 Y28,3 -60 Y29,3
  -60 Y30,3 -45 Y31,3 -45 Y32,3 -45 Y33,3 -45 Y34,3 -45 Y35,3 -45 Y36,3 -45 Y37,3 -45 Y38,3 -45 Y39,3
  -45 Y40,3 -45 Y41,3 -45 Y42,3 -45 Y43,3 -45 Y44,3 -45 Y45,3 -45 Y46,3 -45 Y47,3 -45 Y48,3 -45 Y49,3
  -45 Y50,3 -45 Y51,3 -45 Y52,3 -45 Y53,3 -45 Y54,3 -45 Y55,3 -45 Y56,3 -45 Y57,3 -45 Y58,3 -45 Y59,3
  -45 Y60,3 -45 Y61,3 -45 Y62,3 -45 Y63,3 -45 Y64,3 -45 Y65,3 -45 Y66,3 -45 Y67,3 -45 Y68,3 -45 Y69,3
  -45 Y70,3 -45 Y71,3 -45 Y72,3 -45 Y73,3 -45 Y74,3 -45 Y75,3 -45 Y76,3 -45 Y77,3 -45 Y78,3 -45 Y79,3
  -45 Y80,3 -45 Y81,3 -45 Y82,3 -45 Y83,3 -45 Y84,3 -45 Y85,3 -45 Y86,3 -45 Y87,3 -45 Y88,3 -45 Y89,3
  -45 Y90,3 -45 Y91,3 -45 Y92,3 -45 Y93,3 -45 Y94,3 -45 Y95,3 -45 Y96,3 -45 Y97,3 -45 Y98,3 -45 Y99,3
  -45 Y100,3 -45 Y101,3 -45 Y102,3 -45 Y103,3 -45 Y104,3 -45 Y105,3 -45 Y106,3 -45 Y107,3 -45 Y108,3 -45 Y109,3
  -45 Y110,3 -45 Y111,3 -45 Y112,3 -45 Y113,3 -45 Y114,3 -45 Y115,3 -45 Y116,3 -45 Y117,3 -45 Y118,3 -45 Y119,3
  -45 Y120,3 -45 Y121,3 -45 Y122,3 -45 Y123,3 -45 Y124,3 -45 Y125,3 -45 Y126,3 -45 Y127,3 -45 Y128,3 -45 Y129,3
  -45 Y130,3 -45 Y131,3 -45 Y132,3 -45 Y133,3 -45 Y134,3 -45 Y135,3 -45 Y136,3 -45 Y137,3 -45 Y138,3 -45 Y139,3
  -45 Y140,3 -45 Y141,3 -45 Y142,3 -45 Y143,3 -45 Y144,3 -45 Y145,3 -45 Y146,3 -45 Y147,3 -45 Y148,3 -45 Y149,3
  -45 Y150,3 -45 Y151,3 -45 Y152,3 -45 Y153,3 -45 Y154,3 -45 Y155,3 -45 Y156,3 -45 Y157,3 -30 Y158,3 -30 Y159,3
  -30 Y160,3 -30 Y161,3 -30 Y162,3 -30 Y163,3 -30 Y164,3 >= +0
 c223: +2.5 Y0,0 <= +30
 c224: +2.5 Y0,1 <= +25
 c225: +2.5 Y0,2 <= +20
 c226: +2.5 Y0,3 <= +50
 c227: +1.2 Y1,0 <= +30
 c228: +1.2 Y1,1 <= +25
 c229: +1.2 Y1,2 <= +20
 c230: +1.2 Y1,3 <= +50
 c231: +0.8 Y2,0 <= +30
 c232: +0.8 Y2,1 <= +25
 c233: +0.8 Y2,2 <= +20
 c234: +0.8 Y2,3 <= +50
 c235: +6 Y3,0 <= +30
 c236: +6 Y3,1 <= +25
 c237: +6 Y3,2 <= +20
 c238: +6 Y3,3 <= +50
 c239: +1.8 Y4,0 <= +30
 c240: +1.8 Y4,1 <= +25
 c241: +1.8 Y4,2 <= +20
 c242: +1.8 Y4,3 <= +50
 c243: +3.7 Y5,0 <= +30
 c244: +3.7 Y5,1 <= +25
 c245: +3.7 Y5,2 <= +20
 c246: +3.7 Y5,3 <= +50
 c247: +3.3 Y6,0 <= +30
 c248: +3.3 Y6,1 <= +25
 c249: +3.3 Y6,2 <= +20
 c250: +3.3 Y6,3 <= +50
 c251: +8.5 Y7,0 <= +30
 c252: +8.5 Y7,1 <= +25
 c253: +8.5 Y7,2 <= +20
 c254: +8.5 Y7,3 <= +50
 c255: +4.3 Y8,0 <= +30
 c256: +4.3 Y8,1 <= +25
 c257: +4.3 Y8,2 <= +20
 c258: +4.3 Y8,3 <= +50
 c259: +2 Y9,0 <= +30
 c260: +2 Y9,1 <= +25
 c261: +2 Y9,2 <= +20
 c262: +2 Y9,3 <= +50
 c263: +7.2 Y10,0 <= +30
 c264: +7.2 Y10,1 <= +25
 c265: +7.2 Y10,2 <= +20
 c266: +7.2 Y10,3 <= +50
 c267: +3 Y11,0 <= +30
 c268: +3 Y11,1 <= +25
 c269: +3 Y11,2 <= +20
 c270: +3 Y11,3 <= +50
 c271: +6.8 Y12,0 <= +30
 c272: +6.8 Y12,1 <= +25
 c273: +6.8 Y12,2 <= +20
 c274: +6.8 Y12,3 <= +50
 c275: +2.6 Y13,0 <= +30
 c276: +2.6 Y13,1 <= +25
 c277: +2.6 Y13,2 <= +20
 c278: +2.6 Y13,3 <= +50
 c279: +7.8 Y14,0 <= +30
 c280: +7.8 Y14,1 <= +25
 c281: +7.8 Y14,2 <= +20
 c282: +7.8 Y14,3 <= +50
 c283: +4.5 Y15,0 <= +30
 c284: +4.5 Y15,1 <= +25
 c285: +4.5 Y15,2 <= +20
 c286: +4.5 Y15,3 <= +50
 c287: +9.7 Y16,0 <= +30
 c288: +9.7 Y16,1 <= +25
 c289: +9.7 Y16,2 <= +20
 c290: +9.7 Y16,3 <= +50
 c291: +5.5 Y17,0 <= +30
 c292: +5.5 Y17,1 <= +25
 c293: +5.5 Y17,2 <= +20
 c294: +5.5 Y17,3 <= +50
 c295: +9.3 Y18,0 <= +30
 c296: +9.3 Y18,1 <= +25
 c297: +9.3 Y18,2 <= +20
 c298: +9.3 Y18,3 <= +50
 c299: +5.1 Y19,0 <= +30
 c300: +5.1 Y19,1 <= +25
 c301: +5.1 Y19,2 <= +20
 c302: +5.1 Y19,3 <= +50
 c303: +10.3 Y20,0 <= +30
 c304: +10.3 Y20,1 <= +25
 c305: +10.3 Y20,2 <= +20
 c306: +10.3 Y20,3 <= +50
 c307: +8 Y21,0 <= +30
 c308: +8 Y21,1 <= +25
 c309: +8 Y21,2 <= +20
 c310: +8 Y21,3 <= +50
 c311: +3.8 Y22,0 <= +30
 c312: +3.8 Y22,1 <= +25
 c313: +3.8 Y22,2 <= +20
 c314: +3.8 Y22,3 <= +50
 c315: +9 Y23,0 <= +30
 c316: +9 Y23,1 <= +25
 c317: +9 Y23,2 <= +20
 c318: +9 Y23,3 <= +50
 c319: +8.6 Y24,0 <= +30
 c320: +8.6 Y24,1 <= +25
 c321: +8.6 Y24,2 <= +20
 c322: +8.6 Y24,3 <= +50
 c323: +10.5 Y25,0 <= +30
 c324: +10.5 Y25,1 <= +25
 c325: +10.5 Y25,2 <= +20
 c326: +10.5 Y25,3 <= +50
 c327: +6.3 Y26,0 <= +30
 c328: +6.3 Y26,1 <= +25
 c329: +6.3 Y26,2 <= +20
 c330: +6.3 Y26,3 <= +50
 c331: +11.5 Y27,0 <= +30
 c332: +11.5 Y27,1 <= +25
 c333: +11.5 Y27,2 <= +20
 c334: +11.5 Y27,3 <= +50
 c335: +11.1 Y28,0 <= +30
 c336: +11.1 Y28,1 <= +25
 c337: +11.1 Y28,2 <= +20
 c338: +11.1 Y28,3 <= +50
 c339: +9.8 Y29,0 <= +30
 c340: +9.8 Y29,1 <= +25
 c341: +9.8 Y29,2 <= +20
 c342: +9.8 Y29,3 <= +50
 c343: +12.3 Y30,0 <= +30
 c344: +12.3 Y30,1 <= +25
 c345: +12.3 Y30,2 <= +20
 c346: +12.3 Y30,3 <= +50
 c347: +7 Y31,0 <= +30
 c348: +7 Y31,1 <= +25
 c349: +7 Y31,2 <= +20
 c350: +7 Y31,3 <= +50
 c351: +4.5 Y32,0 <= +30
 c352: +4.5 Y32,1 <= +25
 c353: +4.5 Y32,2 <= +20
 c354: +4.5 Y32,3 <= +50
 c355: +3 Y33,0 <= +30
 c356: +3 Y33,1 <= +25
 c357: +3 Y33,2 <= +20
 c358: +3 Y33,3 <= +50
 c359: +2 Y34,0 <= +30
 c360: +2 Y34,1 <= +25
 c361: +2 Y34,2 <= +20
 c362: +2 Y34,3 <= +50
 c363: +9 Y35,0 <= +30
 c364: +9 Y35,1 <= +25
 c365: +9 Y35,2 <= +20
 c366: +9 Y35,3 <= +50
 c367: +8 Y36,0 <= +30
 c368: +8 Y36,1 <= +25
 c369: +8 Y36,2 <= +20
 c370: +8 Y36,3 <= +50
 c371: +0.6 Y37,0 <= +30
 c372: +0.6 Y37,1 <= +25
 c373: +0.6 Y37,2 <= +20
 c374: +0.6 Y37,3 <= +50
 c375: +11.5 Y38,0 <= +30
 c376: +11.5 Y38,1 <= +25
 c377: +11.5 Y38,2 <= +20
 c378: +11.5 Y38,3 <= +50
 c379: +10 Y39,0 <= +30
 c380: +10 Y39,1 <= +25
 c381: +10 Y39,2 <= +20
 c382: +10 Y39,3 <= +50
 c383: +9 Y40,0 <= +30
 c384: +9 Y40,1 <= +25
 c385: +9 Y40,2 <= +20
 c386: +9 Y40,3 <= +50
 c387: +16 Y41,0 <= +30
 c388: +16 Y41,1 <= +25
 c389: +16 Y41,2 <= +20
 c390: +16 Y41,3 <= +50
 c391: +15 Y42,0 <= +30
 c392: +15 Y42,1 <= +25
 c393: +15 Y42,2 <= +20
 c394: +15 Y42,3 <= +50
 c395: +7.6 Y43,0 <= +30
 c396: +7.6 Y43,1 <= +25
 c397: +7.6 Y43,2 <= +20
 c398: +7.6 Y43,3 <= +50
 c399: +7.5 Y44,0 <= +30
 c400: +7.5 Y44,1 <= +25
 c401: +7.5 Y44,2 <= +20
 c402: +7.5 Y44,3 <= +50
 c403: +6.5 Y45,0 <= +30
 c404: +6.5 Y45,1 <= +25
 c405: +6.5 Y45,2 <= +20
 c406: +6.5 Y45,3 <= +50
 c407: +13.5 Y46,0 <= +30
 c408: +13.5 Y46,1 <= +25
 c409: +13.5 Y46,2 <= +20
 c410: +13.5 Y46,3 <= +50
 c411: +12.5 Y47,0 <= +30
 c412: +12.5 Y47,1 <= +25
 c413: +12.5 Y47,2 <= +20
 c414: +12.5 Y47,3 <= +50
 c415: +5.1 Y48,0 <= +30
 c416: +5.1 Y48,1 <= +25
 c417: +5.1 Y48,2 <= +20
 c418: +5.1 Y48,3 <= +50
 c419: +5 Y49,0 <= +30
 c420: +5 Y49,1 <= +25
 c421: +5 Y49,2 <= +20
 c422: +5 Y49,3 <= +50
 c423: +12 Y50,0 <= +30
 c424: +12 Y50,1 <= +25
 c425: +12 Y50,2 <= +20
 c426: +12 Y50,3 <= +50
 c427: +11 Y51,0 <= +30
 c428: +11 Y51,1 <= +25
 c429: +11 Y51,2 <= +20
 c430: +11 Y51,3 <= +50
 c431: +3.6 Y52,0 <= +30
 c432: +3.6 Y52,1 <= +25
 c433: +3.6 Y52,2 <= +20
 c434: +3.6 Y52,3 <= +50
 c435: +11 Y53,0 <= +30
 c436: +11 Y53,1 <= +25
 c437: +11 Y53,2 <= +20
 c438: +11 Y53,3 <= +50
 c439: +10 Y54,0 <= +30
 c440: +10 Y54,1 <= +25
 c441: +10 Y54,2 <= +20
 c442: +10 Y54,3 <= +50
 c443: +2.6 Y55,0 <= +30
 c444: +2.6 Y55,1 <= +25
 c445: +2.6 Y55,2 <= +20
 c446: +2.6 Y55,3 <= +50
 c447: +17 Y56,0 <= +30
 c448: +17 Y56,1 <= +25
 c449: +17 Y56,2 <= +20
 c450: +17 Y56,3 <= +50
 c451: +9.6 Y57,0 <= +30
 c452: +9.6 Y57,1 <= +25
 c453: +9.6 Y57,2 <= +20
 c454: +9.6 Y57,3 <= +50
 c455: +8.6 Y58,0 <= +30
 c456: +8.6 Y58,1 <= +25
 c457: +8.6 Y58,2 <= +20
 c458: +8.6 Y58,3 <= +50
 c459: +14.5 Y59,0 <= +30
 c460: +14.5 Y59,1 <= +25
 c461: +14.5 Y59,2 <= +20
 c462: +14.5 Y59,3 <= +50
 c463: +13.5 Y60,0 <= +30
 c464: +13.5 Y60,1 <= +25
 c465: +13.5 Y60,2 <= +20
 c466: +13.5 Y60,3 <= +50
 c467: +20.5 Y61,0 <= +30
 c468: +20.5 Y61,1 <= +25
 c469: +20.5 Y61,2 <= +20
 c470: +20.5 Y61,3 <= +50
 c471: +19.5 Y62,0 <= +30
 c472: +19.5 Y62,1 <= +25
 c473: +19.5 Y62,2 <= +20
 c474: +19.5 Y62,3 <= +50
 c475: +12.1 Y63,0 <= +30
 c476: +12.1 Y63,1 <= +25
 c477: +12.1 Y63,2 <= +20
 c478: +12.1 Y63,3 <= +50
 c479: +12 Y64,0 <= +30
 c480: +12 Y64,1 <= +25
 c481: +12 Y64,2 <= +20
 c482: +12 Y64,3 <= +50
 c483: +19 Y65,0 <= +30
 c484: +19 Y65,1 <= +25
 c485: +19 Y65,2 <= +20
 c486: +19 Y65,3 <= +50
 c487: +18 Y66,0 <= +30
 c488: +18 Y66,1 <= +25
 c489: +18 Y66,2 <= +20
 c490: +18 Y66,3 <= +50
 c491: +10.6 Y67,0 <= +30
 c492: +10.6 Y67,1 <= +25
 c493: +10.6 Y67,2 <= +20
 c494: +10.6 Y67,3 <= +50
 c495: +18 Y68,0 <= +30
 c496: +18 Y68,1 <= +25
 c497: +18 Y68,2 <= +20
 c498: +18 Y68,3 <= +50
 c499: +17 Y69,0 <= +30
 c500: +17 Y69,1 <= +25
 c501: +17 Y69,2 <= +20
 c502: +17 Y69,3 <= +50
 c503: +9.6 Y70,0 <= +30
 c504: +9.6 Y70,1 <= +25
 c505: +9.6 Y70,2 <= +20
 c506: +9.6 Y70,3 <= +50
 c507: +24 Y71,0 <= +30
 c508: +24 Y71,1 <= +25
 c509: +24 Y71,2 <= +20
 c510: +24 Y71,3 <= +50
 c511: +16.6 Y72,0 <= +30
 c512: +16.6 Y72,1 <= +25
 c513: +16.6 Y72,2 <= +20
 c514: +16.6 Y72,3 <= +50
 c515: +15.6 Y73,0 <= +30
 c516: +15.6 Y73,1 <= +25
 c517: +15.6 Y73,2 <= +20
 c518: +15.6 Y73,3 <= +50
 c519: +9.5 Y74,0 <= +30
 c520: +9.5 Y74,1 <= +25
 c521: +9.5 Y74,2 <= +20
 c522: +9.5 Y74,3 <= +50
 c523: +16.5 Y75,0 <= +30
 c524: +16.5 Y75,1 <= +25
 c525: +16.5 Y75,2 <= +20
 c526: +16.5 Y75,3 <= +50
 c527: +15.5 Y76,0 <= +30
 c528: +15.5 Y76,1 <= +25
 c529: +15.5 Y76,2 <= +20
 c530: +15.5 Y76,3 <= +50
 c531: +8.1 Y77,0 <= +30
 c532: +8.1 Y77,1 <= +25
 c533: +8.1 Y77,2 <= +20
 c534: +8.1 Y77,3 <= +50
 c535: +15.5 Y78,0 <= +30
 c536: +15.5 Y78,1 <= +25
 c537: +15.5 Y78,2 <= +20
 c538: +15.5 Y78,3 <= +50
 c539: +14.5 Y79,0 <= +30
 c540: +14.5 Y79,1 <= +25
 c541: +14.5 Y79,2 <= +20
 c542: +14.5 Y79,3 <= +50
 c543: +7.1 Y80,0 <= +30
 c544: +7.1 Y80,1 <= +25
 c545: +7.1 Y80,2 <= +20
 c546: +7.1 Y80,3 <= +50
 c547: +21.5 Y81,0 <= +30
 c548: +21.5 Y81,1 <= +25
 c549: +21.5 Y81,2 <= +20
 c550: +21.5 Y81,3 <= +50
 c551: +14.1 Y82,0 <= +30
 c552: +14.1 Y82,1 <= +25
 c553: +14.1 Y82,2 <= +20
 c554: +14.1 Y82,3 <= +50
 c555: +13.1 Y83,0 <= +30
 c556: +13.1 Y83,1 <= +25
 c557: +13.1 Y83,2 <= +20
 c558: +13.1 Y83,3 <= +50
 c559: +14 Y84,0 <= +30
 c560: +14 Y84,1 <= +25
 c561: +14 Y84,2 <= +20
 c562: +14 Y84,3 <= +50
 c563: +13 Y85,0 <= +30
 c564: +13 Y85,1 <= +25
 c565: +13 Y85,2 <= +20
 c566: +13 Y85,3 <= +50
 c567: +5.6 Y86,0 <= +30
 c568: +5.6 Y86,1 <= +25
 c569: +5.6 Y86,2 <= +20
 c570: +5.6 Y86,3 <= +50
 c571: +20 Y87,0 <= +30
 c572: +20 Y87,1 <= +25
 c573: +20 Y87,2 <= +20
 c574: +20 Y87,3 <= +50
 c575: +12.6 Y88,0 <= +30
 c576: +12.6 Y88,1 <= +25
 c577: +12.6 Y88,2 <= +20
 c578: +12.6 Y88,3 <= +50
 c579: +11.6 Y89,0 <= +30
 c580: +11.6 Y89,1 <= +25
 c581: +11.6 Y89,2 <= +20
 c582: +11.6 Y89,3 <= +50
 c583: +19 Y90,0 <= +30
 c584: +19 Y90,1 <= +25
 c585: +19 Y90,2 <= +20
 c586: +19 Y90,3 <= +50
 c587: +11.6 Y91,0 <= +30
 c588: +11.6 Y91,1 <= +25
 c589: +11.6 Y91,2 <= +20
 c590: +11.6 Y91,3 <= +50
 c591: +10.6 Y92,0 <= +30
 c592: +10.6 Y92,1 <= +25
 c593: +10.6 Y92,2 <= +20
 c594: +10.6 Y92,3 <= +50
 c595: +17.6 Y93,0 <= +30
 c596: +17.6 Y93,1 <= +25
 c597: +17.6 Y93,2 <= +20
 c598: +17.6 Y93,3 <= +50
 c599: +16.5 Y94,0 <= +30
 c600: +16.5 Y94,1 <= +25
 c601: +16.5 Y94,2 <= +20
 c602: +16.5 Y94,3 <= +50
 c603: +23.5 Y95,0 <= +30
 c604: +23.5 Y95,1 <= +25
 c605: +23.5 Y95,2 <= +20
 c606: +23.5 Y95,3 <= +50
 c607: +22.5 Y96,0 <= +30
 c608: +22.5 Y96,1 <= +25
 c609: +22.5 Y96,2 <= +20
 c610: +22.5 Y96,3 <= +50
 c611: +15.1 Y97,0 <= +30
 c612: +15.1 Y97,1 <= +25
 c613: +15.1 Y97,2 <= +20
 c614: +15.1 Y97,3 <= +50
 c615: +22.5 Y98,0 <= +30
 c616: +22.5 Y98,1 <= +25
 c617: +22.5 Y98,2 <= +20
 c618: +22.5 Y98,3 <= +50
 c619: +21.5 Y99,0 <= +30
 c620: +21.5 Y99,1 <= +25
 c621: +21.5 Y99,2 <= +20
 c622: +21.5 Y99,3 <= +50
 c623: +14.1 Y100,0 <= +30
 c624: +14.1 Y100,1 <= +25
 c625: +14.1 Y100,2 <= +20
 c626: +14.1 Y100,3 <= +50
 c627: +28.5 Y101,0 <= +30
 c628: +28.5 Y101,1 <= +25
 c629: +28.5 Y101,2 <= +20
 c630: +28.5 Y101,3 <= +50
 c631: +21.1 Y102,0 <= +30
 c632: +21.1 Y102,1 <= +25
 c633: +21.1 Y102,2 <= +20
 c634: +21.1 Y102,3 <= +50
 c635: +20.1 Y103,0 <= +30
 c636: +20.1 Y103,1 <= +25
 c637: +20.1 Y103,2 <= +20
 c638: +20.1 Y103,3 <= +50
 c639: +21 Y104,0 <= +30
 c640: +21 Y104,1 <= +25
 c641: +21 Y104,2 <= +20
 c642: +21 Y104,3 <= +50
 c643: +20 Y105,0 <= +30
 c644: +20 Y105,1 <= +25
 c645: +20 Y105,2 <= +20
 c646: +20 Y105,3 <= +50
 c647: +12.6 Y106,0 <= +30
 c648: +12.6 Y106,1 <= +25
 c649: +12.6 Y106,2 <= +20
 c650: +12.6 Y106,3 <= +50
 c651: +27 Y107,0 <= +30
 c652: +27 Y107,1 <= +25
 c653: +27 Y107,2 <= +20
 c654: +27 Y107,3 <= +50
 c655: +19.6 Y108,0 <= +30
 c656: +19.6 Y108,1 <= +25
 c657: +19.6 Y108,2 <= +20
 c658: +19.6 Y108,3 <= +50
 c659: +18.6 Y109,0 <= +30
 c660: +18.6 Y109,1 <= +25
 c661: +18.6 Y109,2 <= +20
 c662: +18.6 Y109,3 <= +50
 c663: +26 Y110,0 <= +30
 c664: +26 Y110,1 <= +25
 c665: +26 Y110,2 <= +20
 c666: +26 Y110,3 <= +50
 c667: +18.6 Y111,0 <= +30
 c668: +18.6 Y111,1 <= +25
 c669: +18.6 Y111,2 <= +20
 c670: +18.6 Y111,3 <= +50
 c671: +17.6 Y112,0 <= +30
 c672: +17.6 Y112,1 <= +25
 c673: +17.6 Y112,2 <= +20
 c674: +17.6 Y112,3 <= +50
 c675: +24.6 Y113,0 <= +30
 c676: +24.6 Y113,1 <= +25
 c677: +24.6 Y113,2 <= +20
 c678: +24.6 Y113,3 <= +50
 c679: +18.5 Y114,0 <= +30
 c680: +18.5 Y114,1 <= +25
 c681: +18.5 Y114,2 <= +20
 c682: +18.5 Y114,3 <= +50
 c683: +17.5 Y115,0 <= +30
 c684: +17.5 Y115,1 <= +25
 c685: +17.5 Y115,2 <= +20
 c686: +17.5 Y115,3 <= +50
 c687: +10.1 Y116,0 <= +30
 c688: +10.1 Y116,1 <= +25
 c689: +10.1 Y116,2 <= +20
 c690: +10.1 Y116,3 <= +50
 c691: +24.5 Y117,0 <= +30
 c692: +24.5 Y117,1 <= +25
 c693: +24.5 Y117,2 <= +20
 c694: +24.5 Y117,3 <= +50
 c695: +17.1 Y118,0 <= +30
 c696: +17.1 Y118,1 <= +25
 c697: +17.1 Y118,2 <= +20
 c698: +17.1 Y118,3 <= +50
 c699: +16.1 Y119,0 <= +30
 c700: +16.1 Y119,1 <= +25
 c701: +16.1 Y119,2 <= +20
 c702: +16.1 Y119,3 <= +50
 c703: +23.5 Y120,0 <= +30
 c704: +23.5 Y120,1 <= +25
 c705: +23.5 Y120,2 <= +20
 c706: +23.5 Y120,3 <= +50
 c707: +16.1 Y121,0 <= +30
 c708: +16.1 Y121,1 <= +25
 c709: +16.1 Y121,2 <= +20
 c710: +16.1 Y121,3 <= +50
 c711: +15.1 Y122,0 <= +30
 c712: +15.1 Y122,1 <= +25
 c713: +15.1 Y122,2 <= +20
 c714: +15.1 Y122,3 <= +50
 c715: +22.1 Y123,0 <= +30
 c716: +22.1 Y123,1 <= +25
 c717: +22.1 Y123,2 <= +20
 c718: +22.1 Y123,3 <= +50
 c719: +22 Y124,0 <= +30
 c720: +22 Y124,1 <= +25
 c721: +22 Y124,2 <= +20
 c722: +22 Y124,3 <= +50
 c723: +14.6 Y125,0 <= +30
 c724: +14.6 Y125,1 <= +25
 c725: +14.6 Y125,2 <= +20
 c726: +14.6 Y125,3 <= +50
 c727: +13.6 Y126,0 <= +30
 c728: +13.6 Y126,1 <= +25
 c729: +13.6 Y126,2 <= +20
 c730: +13.6 Y126,3 <= +50
 c731: +20.6 Y127,0 <= +30
 c732: +20.6 Y127,1 <= +25
 c733: +20.6 Y127,2 <= +20
 c734: +20.6 Y127,3 <= +50
 c735: +19.6 Y128,0 <= +30
 c736: +19.6 Y128,1 <= +25
 c737: +19.6 Y128,2 <= +20
 c738: +19.6 Y128,3 <= +50
 c739: +25.5 Y129,0 <= +30
 c740: +25.5 Y129,1 <= +25
 c741: +25.5 Y129,2 <= +20
 c742: +25.5 Y129,3 <= +50
 c743: +24.5 Y130,0 <= +30
 c744: +24.5 Y130,1 <= +25
 c745: +24.5 Y130,2 <= +20
 c746: +24.5 Y130,3 <= +50
 c747: +17.1 Y131,0 <= +30
 c748: +17.1 Y131,1 <= +25
 c749: +17.1 Y131,2 <= +20
 c750: +17.1 Y131,3 <= +50
 c751: +31.5 Y132,0 <= +30
 c752: +31.5 Y132,1 <= +25
 c753: +31.5 Y132,2 <= +20
 c754: +31.5 Y132,3 <= +50
 c755: +24.1 Y133,0 <= +30
 c756: +24.1 Y133,1 <= +25
 c757: +24.1 Y133,2 <= +20
 c758: +24.1 Y133,3 <= +50
 c759: +23.1 Y134,0 <= +30
 c760: +23.1 Y134,1 <= +25
 c761: +23.1 Y134,2 <= +20
 c762: +23.1 Y134,3 <= +50
 c763: +30.5 Y135,0 <= +30
 c764: +30.5 Y135,1 <= +25
 c765: +30.5 Y135,2 <= +20
 c766: +30.5 Y135,3 <= +50
 c767: +23.1 Y136,0 <= +30
 c768: +23.1 Y136,1 <= +25
 c769: +23.1 Y136,2 <= +20
 c770: +23.1 Y136,3 <= +50
 c771: +22.1 Y137,0 <= +30
 c772: +22.1 Y137,1 <= +25
 c773: +22.1 Y137,2 <= +20
 c774: +22.1 Y137,3 <= +50
 c775: +29.1 Y138,0 <= +30
 c776: +29.1 Y138,1 <= +25
 c777: +29.1 Y138,2 <= +20
 c778: +29.1 Y138,3 <= +50
 c779: +29 Y139,0 <= +30
 c780: +29 Y139,1 <= +25
 c781: +29 Y139,2 <= +20
 c782: +29 Y139,3 <= +50
 c783: +21.6 Y140,0 <= +30
 c784: +21.6 Y140,1 <= +25
 c785: +21.6 Y140,2 <= +20
 c786: +21.6 Y140,3 <= +50
 c787: +20.6 Y141,0 <= +30
 c788: +20.6 Y141,1 <= +25
 c789: +20.6 Y141,2 <= +20
 c790: +20.6 Y141,3 <= +50
 c791: +27.6 Y142,0 <= +30
 c792: +27.6 Y142,1 <= +25
 c793: +27.6 Y142,2 <= +20
 c794: +27.6 Y142,3 <= +50
 c795: +26.6 Y143,0 <= +30
 c796: +26.6 Y143,1 <= +25
 c797: +26.6 Y143,2 <= +20
 c798: +26.6 Y143,3 <= +50
 c799: +26.5 Y144,0 <= +30
 c800: +26.5 Y144,1 <= +25
 c801: +26.5 Y144,2 <= +20
 c802: +26.5 Y144,3 <= +50
 c803: +19.1 Y145,0 <= +30
 c804: +19.1 Y145,1 <= +25
 c805: +19.1 Y145,2 <= +20
 c806: +19.1 Y145,3 <= +50
 c807: +18.1 Y146,0 <= +30
 c808: +18.1 Y146,1 <= +25
 c809: +18.1 Y146,2 <= +20
 c810: +18.1 Y146,3 <= +50
 c811: +25.1 Y147,0 <= +30
 c812: +25.1 Y147,1 <= +25
 c813: +25.1 Y147,2 <= +20
 c814: +25.1 Y147,3 <= +50
 c815: +24.1 Y148,0 <= +30
 c816: +24.1 Y148,1 <= +25
 c817: +24.1 Y148,2 <= +20
 c818: +24.1 Y148,3 <= +50
 c819: +22.6 Y149,0 <= +30
 c820: +22.6 Y149,1 <= +25
 c821: +22.6 Y149,2 <= +20
 c822: +22.6 Y149,3 <= +50
 c823: +33.5 Y150,0 <= +30
 c824: +33.5 Y150,1 <= +25
 c825: +33.5 Y150,2 <= +20
 c826: +33.5 Y150,3 <= +50
 c827: +26.1 Y151,0 <= +30
 c828: +26.1 Y151,1 <= +25
 c829: +26.1 Y151,2 <= +20
 c830: +26.1 Y151,3 <= +50
 c831: +25.1 Y152,0 <= +30
 c832: +25.1 Y152,1 <= +25
 c833: +25.1 Y152,2 <= +20
 c834: +25.1 Y152,3 <= +50
 c835: +32.1 Y153,0 <= +30
 c836: +32.1 Y153,1 <= +25
 c837: +32.1 Y153,2 <= +20
 c838: +32.1 Y153,3 <= +50
 c839: +31.1 Y154,0 <= +30
 c840: +31.1 Y154,1 <= +25
 c841: +31.1 Y154,2 <= +20
 c842: +31.1 Y154,3 <= +50
 c843: +29.6 Y155,0 <= +30
 c844: +29.6 Y155,1 <= +25
 c845: +29.6 Y155,2 <= +20
 c846: +29.6 Y155,3 <= +50
 c847: +27.1 Y156,0 <= +30
 c848: +27.1 Y156,1 <= +25
 c849: +27.1 Y156,2 <= +20
 c850: +27.1 Y156,3 <= +50
 c851: +34.1 Y157,0 <= +30
 c852: +34.1 Y157,1 <= +25
 c853: +34.1 Y157,2 <= +20
 c854: +34.1 Y157,3 <= +50
 c855: +10 Y158,0 <= +30
 c856: +10 Y158,1 <= +25
 c857: +10 Y158,2 <= +20
 c858: +10 Y158,3 <= +50
 c859: +12 Y159,0 <= +30
 c860: +12 Y159,1 <= +25
 c861: +12 Y159,2 <= +20
 c862: +12 Y159,3 <= +50
 c863: +5.5 Y160,0 <= +30
 c864: +5.5 Y160,1 <= +25
 c865: +5.5 Y160,2 <= +20
 c866: +5.5 Y160,3 <= +50
 c867: +22 Y161,0 <= +30
 c868: +22 Y161,1 <= +25
 c869: +22 Y161,2 <= +20
 c870: +22 Y161,3 <= +50
 c871: +15.5 Y162,0 <= +30
 c872: +15.5 Y162,1 <= +25
 c873: +15.5 Y162,2 <= +20
 c874: +15.5 Y162,3 <= +50
 c875: +17.5 Y163,0 <= +30
 c876: +17.5 Y163,1 <= +25
 c877: +17.5 Y163,2 <= +20
 c878: +17.5 Y163,3 <= +50
 c879: +27.5 Y164,0 <= +30
 c880: +27.5 Y164,1 <= +25
 c881: +27.5 Y164,2 <= +20
 c882: +27.5 Y164,3 <= +50
Bounds
 0 <= Y0,0 <= 1
 0 <= Y0,1 <= 1
 0 <= Y0,2 <= 1
 0 <= Y0,3 <= 1
 0 <= Y1,0 <= 1
 0 <= Y1,1 <= 1
 0 <= Y1,2 <= 1
 0 <= Y1,3 <= 1
 0 <= Y2,0 <= 1
 0 <= Y2,1 <= 1
 0 <= Y2,2 <= 1
 0 <= Y2,3 <= 1
 0 <= Y3,0 <= 1
 0 <= Y3,1 <= 1
 0 <= Y3,2 <= 1
 0 <= Y3,3 <= 1
 0 <= Y4,0 <= 1
 0 <= Y4,1 <= 1
 0 <= Y4,2 <= 1
 0 <= Y4,3 <= 1
 0 <= Y5,0 <= 1
 0 <= Y5,1 <= 1
 0 <= Y5,2 <= 1
 0 <= Y5,3 <= 1
 0 <= Y6,0 <= 1
 0 <= Y6,1 <= 1
 0 <= Y6,2 <= 1
 0 <= Y6,3 <= 1
 0 <= Y7,0 <= 1
 0 <= Y7,1 <= 1
 0 <= Y7,2 <= 1
 0 <= Y7,3 <= 1
 0 <= Y8,0 <= 1
 0 <= Y8,1 <= 1
 0 <= Y8,2 <= 1
 0 <= Y8,3 <= 1
 0 <= Y9,0 <= 1
 0 <= Y9,1 <= 1
 0 <= Y9,2 <= 1
 0 <= Y9,3 <= 1
 0 <= Y10,0 <= 1
 0 <= Y10,1 <= 1
 0 <= Y10,2 <= 1
 0 <= Y10,3 <= 1
 0 <= Y11,0 <= 1
 0 <= Y11,1 <= 1
 0 <= Y11,2 <= 1
 0 <= Y11,3 <= 1
 0 <= Y12,0 <= 1
 0 <= Y12,1 <= 1
 0 <= Y12,2 <= 1
 0 <= Y12,3 <= 1
 0 <= Y13,0 <= 1
 0 <= Y13,1 <= 1
 0 <= Y13,2 <= 1
 0 <= Y13,3 <= 1
 0 <= Y14,0 <= 1
 0 <= Y14,1 <= 1
 0 <= Y14,2 <= 1
 0 <= Y14,3 <= 1
 0 <= Y15,0 <= 1
 0 <= Y15,1 <= 1
 0 <= Y15,2 <= 1
 0 <= Y15,3 <= 1
 0 <= Y16,0 <= 1
 0 <= Y16,1 <= 1
 0 <= Y16,2 <= 1
 0 <= Y16,3 <= 1
 0 <= Y17,0 <= 1
 0 <= Y17,1 <= 1
 0 <= Y17,2 <= 1
 0 <= Y17,3 <= 1
 0 <= Y18,0 <= 1
 0 <= Y18,1 <= 1
 0 <= Y18,2 <= 1
 0 <= Y18,3 <= 1
 0 <= Y19,0 <= 1
 0 <= Y19,1 <= 1
 0 <= Y19,2 <= 1
 0 <= Y19,3 <= 1
 0 <= Y20,0 <= 1
 0 <= Y20,1 <= 1
 0 <= Y20,2 <= 1
 0 <= Y20,3 <= 1
 0 <= Y21,0 <= 1
 0 <= Y21,1 <= 1
 0 <= Y21,2 <= 1
 0 <= Y21,3 <= 1
 0 <= Y22,0 <= 1
 0 <= Y22,1 <= 1
 0 <= Y22,2 <= 1
 0 <= Y22,3 <= 1
 0 <= Y23,0 <= 1
 0 <= Y23,1 <= 1
 0 <= Y23,2 <= 1
 0 <= Y23,3 <= 1
 0 <= Y24,0 <= 1
 0 <= Y24,1 <= 1
 0 <= Y24,2 <= 1
 0 <= Y24,3 <= 1
 0 <= Y25,0 <= 1
 0 <= Y25,1 <= 1
 0 <= Y25,2 <= 1
 0 <= Y25,3 <= 1
 0 <= Y26,0 <= 1
 0 <= Y26,1 <= 1
 0 <= Y26,2 <= 1
 0 <= Y26,3 <= 1
 0 <= Y27,0 <= 1
 0 <= Y27,1 <= 1
 0 <= Y27,2 <= 1
 0 <= Y27,3 <= 1
 0 <= Y28,0 <= 1
 0 <= Y28,1 <= 1
 0 <= Y28,2 <= 1
 0 <= Y28,3 <= 1
 0 <= Y29,0 <= 1
 0 <= Y29,1 <= 1
 0 <= Y29,2 <= 1
 0 <= Y29,3 <= 1
 0 <= Y30,0 <= 1
 0 <= Y30,1 <= 1
 0 <= Y30,2 <= 1
 0 <= Y30,3 <= 1
 0 <= Y31,0 <= 1
 0 <= Y31,1 <= 1
 0 <= Y31,2 <= 1
 0 <= Y31,3 <= 1
 0 <= Y32,0 <= 1
 0 <= Y32,1 <= 1
 0 <= Y32,2 <= 1
 0 <= Y32,3 <= 1
 0 <= Y33,0 <= 1
 0 <= Y33,1 <= 1
 0 <= Y33,2 <= 1
 0 <= Y33,3 <= 1
 0 <= Y34,0 <= 1
 0 <= Y34,1 <= 1
 0 <= Y34,2 <= 1
 0 <= Y34,3 <= 1
 0 <= Y35,0 <= 1
 0 <= Y35,1 <= 1
 0 <= Y35,2 <= 1
 0 <= Y35,3 <= 1
 0 <= Y36,0 <= 1
 0 <= Y36,1 <= 1
 0 <= Y36,2 <= 1
 0 <= Y36,3 <= 1
 0 <= Y37,0 <= 1
 0 <= Y37,1 <= 1
 0 <= Y37,2 <= 1
 0 <= Y37,3 <= 1
 0 <= Y38,0 <= 1
 0 <= Y38,1 <= 1
 0 <= Y38,2 <= 1
 0 <= Y38,3 <= 1
 0 <= Y39,0 <= 1
 0 <= Y39,1 <= 1
 0 <= Y39,2 <= 1
 0 <= Y39,3 <= 1
 0 <= Y40,0 <= 1
 0 <= Y40,1 <= 1
 0 <= Y40,2 <= 1
 0 <= Y40,3 <= 1
 0 <= Y41,0 <= 1
 0 <= Y41,1 <= 1
 0 <= Y41,2 <= 1
 0 <= Y41,3 <= 1
 0 <= Y42,0 <= 1
 0 <= Y42,1 <= 1
 0 <= Y42,2 <= 1
 0 <= Y42,3 <= 1
 0 <= Y43,0 <= 1
 0 <= Y43,1 <= 1
 0 <= Y43,2 <= 1
 0 <= Y43,3 <= 1
 0 <= Y44,0 <= 1
 0 <= Y44,1 <= 1
 0 <= Y44,2 <= 1
 0 <= Y44,3 <= 1
 0 <= Y45,0 <= 1
 0 <= Y45,1 <= 1
 0 <= Y45,2 <= 1
 0 <= Y45,3 <= 1
 0 <= Y46,0 <= 1
 0 <= Y46,1 <= 1
 0 <= Y46,2 <= 1
 0 <= Y46,3 <= 1
 0 <= Y47,0 <= 1
 0 <= Y47,1 <= 1
 0 <= Y47,2 <= 1
 0 <= Y47,3 <= 1
 0 <= Y48,0 <= 1
 0 <= Y48,1 <= 1
 0 <= Y48,2 <= 1
 0 <= Y48,3 <= 1
 0 <= Y49,0 <= 1
 0 <= Y49,1 <= 1
 0 <= Y49,2 <= 1
 0 <= Y49,3 <= 1
 0 <= Y50,0 <= 1
 0 <= Y50,1 <= 1
 0 <= Y50,2 <= 1
 0 <= Y50,3 <= 1
 0 <= Y51,0 <= 1
 0 <= Y51,1 <= 1
 0 <= Y51,2 <= 1
 0 <= Y51,3 <= 1
 0 <= Y52,0 <= 1
 0 <= Y52,1 <= 1
 0 <= Y52,2 <= 1
 0 <= Y52,3 <= 1
 0 <= Y53,0 <= 1
 0 <= Y53,1 <= 1
 0 <= Y53,2 <= 1
 0 <= Y53,3 <= 1
 0 <= Y54,0 <= 1
 0 <= Y54,1 <= 1
 0 <= Y54,2 <= 1
 0 <= Y54,3 <= 1
 0 <= Y55,0 <= 1
 0 <= Y55,1 <= 1
 0 <= Y55,2 <= 1
 0 <= Y55,3 <= 1
 0 <= Y56,0 <= 1
 0 <= Y56,1 <= 1
 0 <= Y56,2 <= 1
 0 <= Y56,3 <= 1
 0 <= Y57,0 <= 1
 0 <= Y57,1 <= 1
 0 <= Y57,2 <= 1
 0 <= Y57,3 <= 1
 0 <= Y58,0 <= 1
 0 <= Y58,1 <= 1
 0 <= Y58,2 <= 1
 0 <= Y58,3 <= 1
 0 <= Y59,0 <= 1
 0 <= Y59,1 <= 1
 0 <= Y59,2 <= 1
 0 <= Y59,3 <= 1
 0 <= Y60,0 <= 1
 0 <= Y60,1 <= 1
 0 <= Y60,2 <= 1
 0 <= Y60,3 <= 1
 0 <= Y61,0 <= 1
 0 <= Y61,1 <= 1
 0 <= Y61,2 <= 1
 0 <= Y61,3 <= 1
 0 <= Y62,0 <= 1
 0 <= Y62,1 <= 1
 0 <= Y62,2 <= 1
 0 <= Y62,3 <= 1
 0 <= Y63,0 <= 1
 0 <= Y63,1 <= 1
 0 <= Y63,2 <= 1
 0 <= Y63,3 <= 1
 0 <= Y64,0 <= 1
 0 <= Y64,1 <= 1
 0 <= Y64,2 <= 1
 0 <= Y64,3 <= 1
 0 <= Y65,0 <= 1
 0 <= Y65,1 <= 1
 0 <= Y65,2 <= 1
 0 <= Y65,3 <= 1
 0 <= Y66,0 <= 1
 0 <= Y66,1 <= 1
 0 <= Y66,2 <= 1
 0 <= Y66,3 <= 1
 0 <= Y67,0 <= 1
 0 <= Y67,1 <= 1
 0 <= Y67,2 <= 1
 0 <= Y67,3 <= 1
 0 <= Y68,0 <= 1
 0 <= Y68,1 <= 1
 0 <= Y68,2 <= 1
 0 <= Y68,3 <= 1
 0 <= Y69,0 <= 1
 0 <= Y69,1 <= 1
 0 <= Y69,2 <= 1
 0 <= Y69,3 <= 1
 0 <= Y70,0 <= 1
 0 <= Y70,1 <= 1
 0 <= Y70,2 <= 1
 0 <= Y70,3 <= 1
 0 <= Y71,0 <= 1
 0 <= Y71,1 <= 1
 0 <= Y71,2 <= 1
 0 <= Y71,3 <= 1
 0 <= Y72,0 <= 1
 0 <= Y72,1 <= 1
 0 <= Y72,2 <= 1
 0 <= Y72,3 <= 1
 0 <= Y73,0 <= 1
 0 <= Y73,1 <= 1
 0 <= Y73,2 <= 1
 0 <= Y73,3 <= 1
 0 <= Y74,0 <= 1
 0 <= Y74,1 <= 1
 0 <= Y74,2 <= 1
 0 <= Y74,3 <= 1
 0 <= Y75,0 <= 1
 0 <= Y75,1 <= 1
 0 <= Y75,2 <= 1
 0 <= Y75,3 <= 1
 0 <= Y76,0 <= 1
 0 <= Y76,1 <= 1
 0 <= Y76,2 <= 1
 0 <= Y76,3 <= 1
 0 <= Y77,0 <= 1
 0 <= Y77,1 <= 1
 0 <= Y77,2 <= 1
 0 <= Y77,3 <= 1
 0 <= Y78,0 <= 1
 0 <= Y78,1 <= 1
 0 <= Y78,2 <= 1
 0 <= Y78,3 <= 1
 0 <= Y79,0 <= 1
 0 <= Y79,1 <= 1
 0 <= Y79,2 <= 1
 0 <= Y79,3 <= 1
 0 <= Y80,0 <= 1
 0 <= Y80,1 <= 1
 0 <= Y80,2 <= 1
 0 <= Y80,3 <= 1
 0 <= Y81,0 <= 1
 0 <= Y81,1 <= 1
 0 <= Y81,2 <= 1
 0 <= Y81,3 <= 1
 0 <= Y82,0 <= 1
 0 <= Y82,1 <= 1
 0 <= Y82,2 <= 1
 0 <= Y82,3 <= 1
 0 <= Y83,0 <= 1
 0 <= Y83,1 <= 1
 0 <= Y83,2 <= 1
 0 <= Y83,3 <= 1
 0 <= Y84,0 <= 1
 0 <= Y84,1 <= 1
 0 <= Y84,2 <= 1
 0 <= Y84,3 <= 1
 0 <= Y85,0 <= 1
 0 <= Y85,1 <= 1
 0 <= Y85,2 <= 1
 0 <= Y85,3 <= 1
 0 <= Y86,0 <= 1
 0 <= Y86,1 <= 1
 0 <= Y86,2 <= 1
 0 <= Y86,3 <= 1
 0 <= Y87,0 <= 1
 0 <= Y87,1 <= 1
 0 <= Y87,2 <= 1
 0 <= Y87,3 <= 1
 0 <= Y88,0 <= 1
 0 <= Y88,1 <= 1
 0 <= Y88,2 <= 1
 0 <= Y88,3 <= 1
 0 <= Y89,0 <= 1
 0 <= Y89,1 <= 1
 0 <= Y89,2 <= 1
 0 <= Y89,3 <= 1
 0 <= Y90,0 <= 1
 0 <= Y90,1 <= 1
 0 <= Y90,2 <= 1
 0 <= Y90,3 <= 1
 0 <= Y91,0 <= 1
 0 <= Y91,1 <= 1
 0 <= Y91,2 <= 1
 0 <= Y91,3 <= 1
 0 <= Y92,0 <= 1
 0 <= Y92,1 <= 1
 0 <= Y92,2 <= 1
 0 <= Y92,3 <= 1
 0 <= Y93,0 <= 1
 0 <= Y93,1 <= 1
 0 <= Y93,2 <= 1
 0 <= Y93,3 <= 1
 0 <= Y94,0 <= 1
 0 <= Y94,1 <= 1
 0 <= Y94,2 <= 1
 0 <= Y94,3 <= 1
 0 <= Y95,0 <= 1
 0 <= Y95,1 <= 1
 0 <= Y95,2 <= 1
 0 <= Y95,3 <= 1
 0 <= Y96,0 <= 1
 0 <= Y96,1 <= 1
 0 <= Y96,2 <= 1
 0 <= Y96,3 <= 1
 0 <= Y97,0 <= 1
 0 <= Y97,1 <= 1
 0 <= Y97,2 <= 1
 0 <= Y97,3 <= 1
 0 <= Y98,0 <= 1
 0 <= Y98,1 <= 1
 0 <= Y98,2 <= 1
 0 <= Y98,3 <= 1
 0 <= Y99,0 <= 1
 0 <= Y99,1 <= 1
 0 <= Y99,2 <= 1
 0 <= Y99,3 <= 1
 0 <= Y100,0 <= 1
 0 <= Y100,1 <= 1
 0 <= Y100,2 <= 1
 0 <= Y100,3 <= 1
 0 <= Y101,0 <= 1
 0 <= Y101,1 <= 1
 0 <= Y101,2 <= 1
 0 <= Y101,3 <= 1
 0 <= Y102,0 <= 1
 0 <= Y102,1 <= 1
 0 <= Y102,2 <= 1
 0 <= Y102,3 <= 1
 0 <= Y103,0 <= 1
 0 <= Y103,1 <= 1
 0 <= Y103,2 <= 1
 0 <= Y103,3 <= 1
 0 <= Y104,0 <= 1
 0 <= Y104,1 <= 1
 0 <= Y104,2 <= 1
 0 <= Y104,3 <= 1
 0 <= Y105,0 <= 1
 0 <= Y105,1 <= 1
 0 <= Y105,2 <= 1
 0 <= Y105,3 <= 1
 0 <= Y106,0 <= 1
 0 <= Y106,1 <= 1
 0 <= Y106,2 <= 1
 0 <= Y106,3 <= 1
 0 <= Y107,0 <= 1
 0 <= Y107,1 <= 1
 0 <= Y107,2 <= 1
 0 <= Y107,3 <= 1
 0 <= Y108,0 <= 1
 0 <= Y108,1 <= 1
 0 <= Y108,2 <= 1
 0 <= Y108,3 <= 1
 0 <= Y109,0 <= 1
 0 <= Y109,1 <= 1
 0 <= Y109,2 <= 1
 0 <= Y109,3 <= 1
 0 <= Y110,0 <= 1
 0 <= Y110,1 <= 1
 0 <= Y110,2 <= 1
 0 <= Y110,3 <= 1
 0 <= Y111,0 <= 1
 0 <= Y111,1 <= 1
 0 <= Y111,2 <= 1
 0 <= Y111,3 <= 1
 0 <= Y112,0 <= 1
 0 <= Y112,1 <= 1
 0 <= Y112,2 <= 1
 0 <= Y112,3 <= 1
 0 <= Y113,0 <= 1
 0 <= Y113,1 <= 1
 0 <= Y113,2 <= 1
 0 <= Y113,3 <= 1
 0 <= Y114,0 <= 1
 0 <= Y114,1 <= 1
 0 <= Y114,2 <= 1
 0 <= Y114,3 <= 1
 0 <= Y115,0 <= 1
 0 <= Y115,1 <= 1
 0 <= Y115,2 <= 1
 0 <= Y115,3 <= 1
 0 <= Y116,0 <= 1
 0 <= Y116,1 <= 1
 0 <= Y116,2 <= 1
 0 <= Y116,3 <= 1
 0 <= Y117,0 <= 1
 0 <= Y117,1 <= 1
 0 <= Y117,2 <= 1
 0 <= Y117,3 <= 1
 0 <= Y118,0 <= 1
 0 <= Y118,1 <= 1
 0 <= Y118,2 <= 1
 0 <= Y118,3 <= 1
 0 <= Y119,0 <= 1
 0 <= Y119,1 <= 1
 0 <= Y119,2 <= 1
 0 <= Y119,3 <= 1
 0 <= Y120,0 <= 1
 0 <= Y120,1 <= 1
 0 <= Y120,2 <= 1
 0 <= Y120,3 <= 1
 0 <= Y121,0 <= 1
 0 <= Y121,1 <= 1
 0 <= Y121,2 <= 1
 0 <= Y121,3 <= 1
 0 <= Y122,0 <= 1
 0 <= Y122,1 <= 1
 0 <= Y122,2 <= 1
 0 <= Y122,3 <= 1
 0 <= Y123,0 <= 1
 0 <= Y123,1 <= 1
 0 <= Y123,2 <= 1
 0 <= Y123,3 <= 1
 0 <= Y124,0 <= 1
 0 <= Y124,1 <= 1
 0 <= Y124,2 <= 1
 0 <= Y124,3 <= 1
 0 <= Y125,0 <= 1
 0 <= Y125,1 <= 1
 0 <= Y125,2 <= 1
 0 <= Y125,3 <= 1
 0 <= Y126,0 <= 1
 0 <= Y126,1 <= 1
 0 <= Y126,2 <= 1
 0 <= Y126,3 <= 1
 0 <= Y127,0 <= 1
 0 <= Y127,1 <= 1
 0 <= Y127,2 <= 1
 0 <= Y127,3 <= 1
 0 <= Y128,0 <= 1
 0 <= Y128,1 <= 1
 0 <= Y128,2 <= 1
 0 <= Y128,3 <= 1
 0 <= Y129,0 <= 1
 0 <= Y129,1 <= 1
 0 <= Y129,2 <= 1
 0 <= Y129,3 <= 1
 0 <= Y130,0 <= 1
 0 <= Y130,1 <= 1
 0 <= Y130,2 <= 1
 0 <= Y130,3 <= 1
 0 <= Y131,0 <= 1
 0 <= Y131,1 <= 1
 0 <= Y131,2 <= 1
 0 <= Y131,3 <= 1
 0 <= Y132,0 <= 1
 0 <= Y132,1 <= 1
 0 <= Y132,2 <= 1
 0 <= Y132,3 <= 1
 0 <= Y133,0 <= 1
 0 <= Y133,1 <= 1
 0 <= Y133,2 <= 1
 0 <= Y133,3 <= 1
 0 <= Y134,0 <= 1
 0 <= Y134,1 <= 1
 0 <= Y134,2 <= 1
 0 <= Y134,3 <= 1
 0 <= Y135,0 <= 1
 0 <= Y135,1 <= 1
 0 <= Y135,2 <= 1
 0 <= Y135,3 <= 1
 0 <= Y136,0 <= 1
 0 <= Y136,1 <= 1
 0 <= Y136,2 <= 1
 0 <= Y136,3 <= 1
 0 <= Y137,0 <= 1
 0 <= Y137,1 <= 1
 0 <= Y137,2 <= 1
 0 <= Y137,3 <= 1
 0 <= Y138,0 <= 1
 0 <= Y138,1 <= 1
 0 <= Y138,2 <= 1
 0 <= Y138,3 <= 1
 0 <= Y139,0 <= 1
 0 <= Y139,1 <= 1
 0 <= Y139,2 <= 1
 0 <= Y139,3 <= 1
 0 <= Y140,0 <= 1
 0 <= Y140,1 <= 1
 0 <= Y140,2 <= 1
 0 <= Y140,3 <= 1
 0 <= Y141,0 <= 1
 0 <= Y141,1 <= 1
 0 <= Y141,2 <= 1
 0 <= Y141,3 <= 1
 0 <= Y142,0 <= 1
 0 <= Y142,1 <= 1
 0 <= Y142,2 <= 1
 0 <= Y142,3 <= 1
 0 <= Y143,0 <= 1
 0 <= Y143,1 <= 1
 0 <= Y143,2 <= 1
 0 <= Y143,3 <= 1
 0 <= Y144,0 <= 1
 0 <= Y144,1 <= 1
 0 <= Y144,2 <= 1
 0 <= Y144,3 <= 1
 0 <= Y145,0 <= 1
 0 <= Y145,1 <= 1
 0 <= Y145,2 <= 1
 0 <= Y145,3 <= 1
 0 <= Y146,0 <= 1
 0 <= Y146,1 <= 1
 0 <= Y146,2 <= 1
 0 <= Y146,3 <= 1
 0 <= Y147,0 <= 1
 0 <= Y147,1 <= 1
 0 <= Y147,2 <= 1
 0 <= Y147,3 <= 1
 0 <= Y148,0 <= 1
 0 <= Y148,1 <= 1
 0 <= Y148,2 <= 1
 0 <= Y148,3 <= 1
 0 <= Y149,0 <= 1
 0 <= Y149,1 <= 1
 0 <= Y149,2 <= 1
 0 <= Y149,3 <= 1
 0 <= Y150,0 <= 1
 0 <= Y150,1 <= 1
 0 <= Y150,2 <= 1
 0 <= Y150,3 <= 1
 0 <= Y151,0 <= 1
 0 <= Y151,1 <= 1
 0 <= Y151,2 <= 1
 0 <= Y151,3 <= 1
 0 <= Y152,0 <= 1
 0 <= Y152,1 <= 1
 0 <= Y152,2 <= 1
 0 <= Y152,3 <= 1
 0 <= Y153,0 <= 1
 0 <= Y153,1 <= 1
 0 <= Y153,2 <= 1
 0 <= Y153,3 <= 1
 0 <= Y154,0 <= 1
 0 <= Y154,1 <= 1
 0 <= Y154,2 <= 1
 0 <= Y154,3 <= 1
 0 <= Y155,0 <= 1
 0 <= Y155,1 <= 1
 0 <= Y155,2 <= 1
 0 <= Y155,3 <= 1
 0 <= Y156,0 <= 1
 0 <= Y156,1 <= 1
 0 <= Y156,2 <= 1
 0 <= Y156,3 <= 1
 0 <= Y157,0 <= 1
 0 <= Y157,1 <= 1
 0 <= Y157,2 <= 1
 0 <= Y157,3 <= 1
 0 <= Y158,0 <= 1
 0 <= Y158,1 <= 1
 0 <= Y158,2 <= 1
 0 <= Y158,3 <= 1
 0 <= Y159,0 <= 1
 0 <= Y159,1 <= 1
 0 <= Y159,2 <= 1
 0 <= Y159,3 <= 1
 0 <= Y160,0 <= 1
 0 <= Y160,1 <= 1
 0 <= Y160,2 <= 1
 0 <= Y160,3 <= 1
 0 <= Y161,0 <= 1
 0 <= Y161,1 <= 1
 0 <= Y161,2 <= 1
 0 <= Y161,3 <= 1
 0 <= Y162,0 <= 1
 0 <= Y162,1 <= 1
 0 <= Y162,2 <= 1
 0 <= Y162,3 <= 1
 0 <= Y163,0 <= 1
 0 <= Y163,1 <= 1
 0 <= Y163,2 <= 1
 0 <= Y163,3 <= 1
 0 <= Y164,0 <= 1
 0 <= Y164,1 <= 1
 0 <= Y164,2 <= 1
 0 <= Y164,3 <= 1
Binaries
 Y0,0 Y0,1 Y0,2 Y0,3 Y1,0 Y1,1 Y1,2 Y1,3 Y2,0 Y2,1 Y2,2 Y2,3 Y3,0 Y3,1 Y3,2 Y3,3 Y4,0 Y4,1 Y4,2 Y4,3 Y5,0
 Y5,1 Y5,2 Y5,3 Y6,0 Y6,1 Y6,2 Y6,3 Y7,0 Y7,1 Y7,2 Y7,3 Y8,0 Y8,1 Y8,2 Y8,3 Y9,0 Y9,1 Y9,2 Y9,3 Y10,0
 Y10,1 Y10,2 Y10,3 Y11,0 Y11,1 Y11,2 Y11,3 Y12,0 Y12,1 Y12,2 Y12,3 Y13,0 Y13,1 Y13,2 Y13,3 Y14,0 Y14,1
 Y14,2 Y14,3 Y15,0 Y15,1 Y15,2 Y15,3 Y16,0 Y16,1 Y16,2 Y16,3 Y17,0 Y17,1 Y17,2 Y17,3 Y18,0 Y18,1 Y18,2
 Y18,3 Y19,0 Y19,1 Y19,2 Y19,3 Y20,0 Y20,1 Y20,2 Y20,3 Y21,0 Y21,1 Y21,2 Y21,3 Y22,0 Y22,1 Y22,2 Y22,3
 Y23,0 Y23,1 Y23,2 Y23,3 Y24,0 Y24,1 Y24,2 Y24,3 Y25,0 Y25,1 Y25,2 Y25,3 Y26,0 Y26,1 Y26,2 Y26,3 Y27,0
 Y27,1 Y27,2 Y27,3 Y28,0 Y28,1 Y28,2 Y28,3 Y29,0 Y29,1 Y29,2 Y29,3 Y30,0 Y30,1 Y30,2 Y30,3 Y31,0 Y31,1
 Y31,2 Y31,3 Y32,0 Y32,1 Y32,2 Y32,3 Y33,0 Y33,1 Y33,2 Y33,3 Y34,0 Y34,1 Y34,2 Y34,3 Y35,0 Y35,1 Y35,2
 Y35,3 Y36,0 Y36,1 Y36,2 Y36,3 Y37,0 Y37,1 Y37,2 Y37,3 Y38,0 Y38,1 Y38,2 Y38,3 Y39,0 Y39,1 Y39,2 Y39,3
 Y40,0 Y40,1 Y40,2 Y40,3 Y41,0 Y41,1 Y41,2 Y41,3 Y42,0 Y42,1 Y42,2 Y42,3 Y43,0 Y43,1 Y43,2 Y43,3 Y44,0
 Y44,1 Y44,2 Y44,3 Y45,0 Y45,1 Y45,2 Y45,3 Y46,0 Y46,1 Y46,2 Y46,3 Y47,0 Y47,1 Y47,2 Y47,3 Y48,0 Y48,1
 Y48,2 Y48,3 Y49,0 Y49,1 Y49,2 Y49,3 Y50,0 Y50,1 Y50,2 Y50,3 Y51,0 Y51,1 Y51,2 Y51,3 Y52,0 Y52,1 Y52,2
 Y52,3 Y53,0 Y53,1 Y53,2 Y53,3 Y54,0 Y54,1 Y54,2 Y54,3 Y55,0 Y55,1 Y55,2 Y55,3 Y56,0 Y56,1 Y56,2 Y56,3
 Y57,0 Y57,1 Y57,2 Y57,3 Y58,0 Y58,1 Y58,2 Y58,3 Y59,0 Y59,1 Y59,2 Y59,3 Y60,0 Y60,1 Y60,2 Y60,3 Y61,0
 Y61,1 Y61,2 Y61,3 Y62,0 Y62,1 Y62,2 Y62,3 Y63,0 Y63,1 Y63,2 Y63,3 Y64,0 Y64,1 Y64,2 Y64,3 Y65,0 Y65,1
 Y65,2 Y65,3 Y66,0 Y66,1 Y66,2 Y66,3 Y67,0 Y67,1 Y67,2 Y67,3 Y68,0 Y68,1 Y68,2 Y68,3 Y69,0 Y69,1 Y69,2
 Y69,3 Y70,0 Y70,1 Y70,2 Y70,3 Y71,0 Y71,1 Y71,2 Y71,3 Y72,0 Y72,1 Y72,2 Y72,3 Y73,0 Y73,1 Y73,2 Y73,3
 Y74,0 Y74,1 Y74,2 Y74,3 Y75,0 Y75,1 Y75,2 Y75,3 Y76,0 Y76,1 Y76,2 Y76,3 Y77,0 Y77,1 Y77,2 Y77,3 Y78,0
 Y78,1 Y78,2 Y78,3 Y79,0 Y79,1 Y79,2 Y79,3 Y80,0 Y80,1 Y80,2 Y80,3 Y81,0 Y81,1 Y81,2 Y81,3 Y82,0 Y82,1
 Y82,2 Y82,3 Y83,0 Y83,1 Y83,2 Y83,3 Y84,0 Y84,1 Y84,2 Y84,3 Y85,0 Y85,1 Y85,2 Y85,3 Y86,0 Y86,1 Y86,2
 Y86,3 Y87,0 Y87,1 Y87,2 Y87,3 Y88,0 Y88,1 Y88,2 Y88,3 Y89,0 Y89,1 Y89,2 Y89,3 Y90,0 Y90,1 Y90,2 Y90,3
 Y91,0 Y91,1 Y91,2 Y91,3 Y92,0 Y92,1 Y92,2 Y92,3 Y93,0 Y93,1 Y93,2 Y93,3 Y94,0 Y94,1 Y94,2 Y94,3 Y95,0
 Y95,1 Y95,2 Y95,3 Y96,0 Y96,1 Y96,2 Y96,3 Y97,0 Y97,1 Y97,2 Y97,3 Y98,0 Y98,1 Y98,2 Y98,3 Y99,0 Y99,1
 Y99,2 Y99,3 Y100,0 Y100,1 Y100,2 Y100,3 Y101,0 Y101,1 Y101,2 Y101,3 Y102,0 Y102,1 Y102,2 Y102,3 Y103,0
 Y103,1 Y103,2 Y103,3 Y104,0 Y104,1 Y104,2 Y104,3 Y105,0 Y105,1 Y105,2 Y105,3 Y106,0 Y106,1 Y106,2 Y106,3
 Y107,0 Y107,1 Y107,2 Y107,3 Y108,0 Y108,1 Y108,2 Y108,3 Y109,0 Y109,1 Y109,2 Y109,3 Y110,0 Y110,1 Y110,2
 Y110,3 Y111,0 Y111,1 Y111,2 Y111,3 Y112,0 Y112,1 Y112,2 Y112,3 Y113,0 Y113,1 Y113,2 Y113,3 Y114,0 Y114,1
 Y114,2 Y114,3 Y115,0 Y115,1 Y115,2 Y115,3 Y116,0 Y116,1 Y116,2 Y116,3 Y117,0 Y117,1 Y117,2 Y117,3 Y118,0
 Y118,1 Y118,2 Y118,3 Y119,0 Y119,1 Y119,2 Y119,3 Y120,0 Y120,1 Y120,2 Y120,3 Y121,0 Y121,1 Y121,2 Y121,3
 Y122,0 Y122,1 Y122,2 Y122,3 Y123,0 Y123,1 Y123,2 Y123,3 Y124,0 Y124,1 Y124,2 Y124,3 Y125,0 Y125,1 Y125,2
 Y125,3 Y126,0 Y126,1 Y126,2 Y126,3 Y127,0 Y127,1 Y127,2 Y127,3 Y128,0 Y128,1 Y128,2 Y128,3 Y129,0 Y129,1
 Y129,2 Y129,3 Y130,0 Y130,1 Y130,2 Y130,3 Y131,0 Y131,1 Y131,2 Y131,3 Y132,0 Y132,1 Y132,2 Y132,3 Y133,0
 Y133,1 Y133,2 Y133,3 Y134,0 Y134,1 Y134,2 Y134,3 Y135,0 Y135,1 Y135,2 Y135,3 Y136,0 Y136,1 Y136,2 Y136,3
 Y137,0 Y137,1 Y137,2 Y137,3 Y138,0 Y138,1 Y138,2 Y138,3 Y139,0 Y139,1 Y139,2 Y139,3 Y140,0 Y140,1 Y140,2
 Y140,3 Y141,0 Y141,1 Y141,2 Y141,3 Y142,0 Y142,1 Y142,2 Y142,3 Y143,0 Y143,1 Y143,2 Y143,3 Y144,0 Y144,1
 Y144,2 Y144,3 Y145,0 Y145,1 Y145,2 Y145,3 Y146,0 Y146,1 Y146,2 Y146,3 Y147,0 Y147,1 Y147,2 Y147,3 Y148,0
 Y148,1 Y148,2 Y148,3 Y149,0 Y149,1 Y149,2 Y149,3 Y150,0 Y150,1 Y150,2 Y150,3 Y151,0 Y151,1 Y151,2 Y151,3
 Y152,0 Y152,1 Y152,2 Y152,3 Y153,0 Y153,1 Y153,2 Y153,3 Y154,0 Y154,1 Y154,2 Y154,3 Y155,0 Y155,1 Y155,2
 Y155,3 Y156,0 Y156,1 Y156,2 Y156,3 Y157,0 Y157,1 Y157,2 Y157,3 Y158,0 Y158,1 Y158,2 Y158,3 Y159,0 Y159,1
 Y159,2 Y159,3 Y160,0 Y160,1 Y160,2 Y160,3 Y161,0 Y161,1 Y161,2 Y161,3 Y162,0 Y162,1 Y162,2 Y162,3 Y163,0
 Y163,1 Y163,2 Y163,3 Y164,0 Y164,1 Y164,2 Y164,3
End
