\ SCIP STATISTICS
\   Problem name     : Scheduling
\   Variables        : 6224 (6223 binary, 0 integer, 0 implicit integer, 1 continuous)
\   Constraints      : 10073
Minimize
 Obj: +1 Cmax
Subject to
 c1: +1 Y0,0 +1 Y0,1 +1 Y0,2 +1 Y0,3 +1 Y0,4 +1 Y0,5 +1 Y0,6 +1 Y10,0 +1 Y10,1 +1 Y10,2 +1 Y10,3 +1 Y10,4
  +1 Y10,5 +1 Y10,6 +1 Y11,0 +1 Y11,1 +1 Y11,2 +1 Y11,3 +1 Y11,4 +1 Y11,5 +1 Y11,6 +1 Y12,0 +1 Y12,1 +1 Y12,2
  +1 Y12,3 +1 Y12,4 +1 Y12,5 +1 Y12,6 +1 Y13,0 +1 Y13,1 +1 Y13,2 +1 Y13,3 +1 Y13,4 +1 Y13,5 +1 Y13,6 +1 Y14,0
  +1 Y14,1 +1 Y14,2 +1 Y14,3 +1 Y14,4 +1 Y14,5 +1 Y14,6 +1 Y15,0 +1 Y15,1 +1 Y15,2 +1 Y15,3 +1 Y15,4 +1 Y15,5
  +1 Y15,6 +1 Y16,0 +1 Y16,1 +1 Y16,2 +1 Y16,3 +1 Y16,4 +1 Y16,5 +1 Y16,6 +1 Y17,0 +1 Y17,1 +1 Y17,2 +1 Y17,3
  +1 Y17,4 +1 Y17,5 +1 Y17,6 +1 Y18,0 +1 Y18,1 +1 Y18,2 +1 Y18,3 +1 Y18,4 +1 Y18,5 +1 Y18,6 +1 Y55,0 +1 Y55,1
  +1 Y55,2 +1 Y55,3 +1 Y55,4 +1 Y55,5 +1 Y55,6 +1 Y56,0 +1 Y56,1 +1 Y56,2 +1 Y56,3 +1 Y56,4 +1 Y56,5 +1 Y56,6
  +1 Y57,0 +1 Y57,1 +1 Y57,2 +1 Y57,3 +1 Y57,4 +1 Y57,5 +1 Y57,6 +1 Y58,0 +1 Y58,1 +1 Y58,2 +1 Y58,3 +1 Y58,4
  +1 Y58,5 +1 Y58,6 +1 Y59,0 +1 Y59,1 +1 Y59,2 +1 Y59,3 +1 Y59,4 +1 Y59,5 +1 Y59,6 +1 Y60,0 +1 Y60,1 +1 Y60,2
  +1 Y60,3 +1 Y60,4 +1 Y60,5 +1 Y60,6 +1 Y61,0 +1 Y61,1 +1 Y61,2 +1 Y61,3 +1 Y61,4 +1 Y61,5 +1 Y61,6 +1 Y62,0
  +1 Y62,1 +1 Y62,2 +1 Y62,3 +1 Y62,4 +1 Y62,5 +1 Y62,6 +1 Y63,0 +1 Y63,1 +1 Y63,2 +1 Y63,3 +1 Y63,4 +1 Y63,5
  +1 Y63,6 +1 Y64,0 +1 Y64,1 +1 Y64,2 +1 Y64,3 +1 Y64,4 +1 Y64,5 +1 Y64,6 +1 Y65,0 +1 Y65,1 +1 Y65,2 +1 Y65,3
  +1 Y65,4 +1 Y65,5 +1 Y65,6 +1 Y66,0 +1 Y66,1 +1 Y66,2 +1 Y66,3 +1 Y66,4 +1 Y66,5 +1 Y66,6 +1 Y67,0 +1 Y67,1
  +1 Y67,2 +1 Y67,3 +1 Y67,4 +1 Y67,5 +1 Y67,6 +1 Y68,0 +1 Y68,1 +1 Y68,2 +1 Y68,3 +1 Y68,4 +1 Y68,5 +1 Y68,6
  +1 Y69,0 +1 Y69,1 +1 Y69,2 +1 Y69,3 +1 Y69,4 +1 Y69,5 +1 Y69,6 +1 Y70,0 +1 Y70,1 +1 Y70,2 +1 Y70,3 +1 Y70,4
  +1 Y70,5 +1 Y70,6 +1 Y71,0 +1 Y71,1 +1 Y71,2 +1 Y71,3 +1 Y71,4 +1 Y71,5 +1 Y71,6 +1 Y72,0 +1 Y72,1 +1 Y72,2
  +1 Y72,3 +1 Y72,4 +1 Y72,5 +1 Y72,6 +1 Y73,0 +1 Y73,1 +1 Y73,2 +1 Y73,3 +1 Y73,4 +1 Y73,5 +1 Y73,6 +1 Y74,0
  +1 Y74,1 +1 Y74,2 +1 Y74,3 +1 Y74,4 +1 Y74,5 +1 Y74,6 +1 Y75,0 +1 Y75,1 +1 Y75,2 +1 Y75,3 +1 Y75,4 +1 Y75,5
  +1 Y75,6 +1 Y76,0 +1 Y76,1 +1 Y76,2 +1 Y76,3 +1 Y76,4 +1 Y76,5 +1 Y76,6 +1 Y77,0 +1 Y77,1 +1 Y77,2 +1 Y77,3
  +1 Y77,4 +1 Y77,5 +1 Y77,6 +1 Y78,0 +1 Y78,1 +1 Y78,2 +1 Y78,3 +1 Y78,4 +1 Y78,5 +1 Y78,6 +1 Y79,0 +1 Y79,1
  +1 Y79,2 +1 Y79,3 +1 Y79,4 +1 Y79,5 +1 Y79,6 +1 Y80,0 +1 Y80,1 +1 Y80,2 +1 Y80,3 +1 Y80,4 +1 Y80,5 +1 Y80,6
  +1 Y81,0 +1 Y81,1 +1 Y81,2 +1 Y81,3 +1 Y81,4 +1 Y81,5 +1 Y81,6 +1 Y82,0 +1 Y82,1 +1 Y82,2 +1 Y82,3 +1 Y82,4
  +1 Y82,5 +1 Y82,6 +1 Y83,0 +1 Y83,1 +1 Y83,2 +1 Y83,3 +1 Y83,4 +1 Y83,5 +1 Y83,6 +1 Y84,0 +1 Y84,1 +1 Y84,2
  +1 Y84,3 +1 Y84,4 +1 Y84,5 +1 Y84,6 +1 Y85,0 +1 Y85,1 +1 Y85,2 +1 Y85,3 +1 Y85,4 +1 Y85,5 +1 Y85,6 +1 Y86,0
  +1 Y86,1 +1 Y86,2 +1 Y86,3 +1 Y86,4 +1 Y86,5 +1 Y86,6 +1 Y87,0 +1 Y87,1 +1 Y87,2 +1 Y87,3 +1 Y87,4 +1 Y87,5
  +1 Y87,6 +1 Y88,0 +1 Y88,1 +1 Y88,2 +1 Y88,3 +1 Y88,4 +1 Y88,5 +1 Y88,6 +1 Y89,0 +1 Y89,1 +1 Y89,2 +1 Y89,3
  +1 Y89,4 +1 Y89,5 +1 Y89,6 +1 Y90,0 +1 Y90,1 +1 Y90,2 +1 Y90,3 +1 Y90,4 +1 Y90,5 +1 Y90,6 +1 Y175,0
  +1 Y175,1 +1 Y175,2 +1 Y175,3 +1 Y175,4 +1 Y175,5 +1 Y175,6 +1 Y176,0 +1 Y176,1 +1 Y176,2 +1 Y176,3
  +1 Y176,4 +1 Y176,5 +1 Y176,6 +1 Y177,0 +1 Y177,1 +1 Y177,2 +1 Y177,3 +1 Y177,4 +1 Y177,5 +1 Y177,6
  +1 Y178,0 +1 Y178,1 +1 Y178,2 +1 Y178,3 +1 Y178,4 +1 Y178,5 +1 Y178,6 +1 Y179,0 +1 Y179,1 +1 Y179,2
  +1 Y179,3 +1 Y179,4 +1 Y179,5 +1 Y179,6 +1 Y180,0 +1 Y180,1 +1 Y180,2 +1 Y180,3 +1 Y180,4 +1 Y180,5
  +1 Y180,6 +1 Y181,0 +1 Y181,1 +1 Y181,2 +1 Y181,3 +1 Y181,4 +1 Y181,5 +1 Y181,6 +1 Y182,0 +1 Y182,1
  +1 Y182,2 +1 Y182,3 +1 Y182,4 +1 Y182,5 +1 Y182,6 +1 Y183,0 +1 Y183,1 +1 Y183,2 +1 Y183,3 +1 Y183,4
  +1 Y183,5 +1 Y183,6 +1 Y184,0 +1 Y184,1 +1 Y184,2 +1 Y184,3 +1 Y184,4 +1 Y184,5 +1 Y184,6 +1 Y185,0
  +1 Y185,1 +1 Y185,2 +1 Y185,3 +1 Y185,4 +1 Y185,5 +1 Y185,6 +1 Y186,0 +1 Y186,1 +1 Y186,2 +1 Y186,3
  +1 Y186,4 +1 Y186,5 +1 Y186,6 +1 Y187,0 +1 Y187,1 +1 Y187,2 +1 Y187,3 +1 Y187,4 +1 Y187,5 +1 Y187,6
  +1 Y188,0 +1 Y188,1 +1 Y188,2 +1 Y188,3 +1 Y188,4 +1 Y188,5 +1 Y188,6 +1 Y189,0 +1 Y189,1 +1 Y189,2
  +1 Y189,3 +1 Y189,4 +1 Y189,5 +1 Y189,6 +1 Y190,0 +1 Y190,1 +1 Y190,2 +1 Y190,3 +1 Y190,4 +1 Y190,5
  +1 Y190,6 +1 Y191,0 +1 Y191,1 +1 Y191,2 +1 Y191,3 +1 Y191,4 +1 Y191,5 +1 Y191,6 +1 Y192,0 +1 Y192,1
  +1 Y192,2 +1 Y192,3 +1 Y192,4 +1 Y192,5 +1 Y192,6 +1 Y193,0 +1 Y193,1 +1 Y193,2 +1 Y193,3 +1 Y193,4
  +1 Y193,5 +1 Y193,6 +1 Y194,0 +1 Y194,1 +1 Y194,2 +1 Y194,3 +1 Y194,4 +1 Y194,5 +1 Y194,6 +1 Y195,0
  +1 Y195,1 +1 Y195,2 +1 Y195,3 +1 Y195,4 +1 Y195,5 +1 Y195,6 +1 Y196,0 +1 Y196,1 +1 Y196,2 +1 Y196,3
  +1 Y196,4 +1 Y196,5 +1 Y196,6 +1 Y197,0 +1 Y197,1 +1 Y197,2 +1 Y197,3 +1 Y197,4 +1 Y197,5 +1 Y197,6
  +1 Y198,0 +1 Y198,1 +1 Y198,2 +1 Y198,3 +1 Y198,4 +1 Y198,5 +1 Y198,6 +1 Y199,0 +1 Y199,1 +1 Y199,2
  +1 Y199,3 +1 Y199,4 +1 Y199,5 +1 Y199,6 +1 Y200,0 +1 Y200,1 +1 Y200,2 +1 Y200,3 +1 Y200,4 +1 Y200,5
  +1 Y200,6 +1 Y201,0 +1 Y201,1 +1 Y201,2 +1 Y201,3 +1 Y201,4 +1 Y201,5 +1 Y201,6 +1 Y202,0 +1 Y202,1
  +1 Y202,2 +1 Y202,3 +1 Y202,4 +1 Y202,5 +1 Y202,6 +1 Y203,0 +1 Y203,1 +1 Y203,2 +1 Y203,3 +1 Y203,4
  +1 Y203,5 +1 Y203,6 +1 Y204,0 +1 Y204,1 +1 Y204,2 +1 Y204,3 +1 Y204,4 +1 Y204,5 +1 Y204,6 +1 Y205,0
  +1 Y205,1 +1 Y205,2 +1 Y205,3 +1 Y205,4 +1 Y205,5 +1 Y205,6 +1 Y206,0 +1 Y206,1 +1 Y206,2 +1 Y206,3
  +1 Y206,4 +1 Y206,5 +1 Y206,6 +1 Y207,0 +1 Y207,1 +1 Y207,2 +1 Y207,3 +1 Y207,4 +1 Y207,5 +1 Y207,6
  +1 Y208,0 +1 Y208,1 +1 Y208,2 +1 Y208,3 +1 Y208,4 +1 Y208,5 +1 Y208,6 +1 Y209,0 +1 Y209,1 +1 Y209,2
  +1 Y209,3 +1 Y209,4 +1 Y209,5 +1 Y209,6 +1 Y210,0 +1 Y210,1 +1 Y210,2 +1 Y210,3 +1 Y210,4 +1 Y210,5
  +1 Y210,6 +1 Y211,0 +1 Y211,1 +1 Y211,2 +1 Y211,3 +1 Y211,4 +1 Y211,5 +1 Y211,6 +1 Y212,0 +1 Y212,1
  +1 Y212,2 +1 Y212,3 +1 Y212,4 +1 Y212,5 +1 Y212,6 +1 Y213,0 +1 Y213,1 +1 Y213,2 +1 Y213,3 +1 Y213,4
  +1 Y213,5 +1 Y213,6 +1 Y214,0 +1 Y214,1 +1 Y214,2 +1 Y214,3 +1 Y214,4 +1 Y214,5 +1 Y214,6 +1 Y215,0
  +1 Y215,1 +1 Y215,2 +1 Y215,3 +1 Y215,4 +1 Y215,5 +1 Y215,6 +1 Y216,0 +1 Y216,1 +1 Y216,2 +1 Y216,3
  +1 Y216,4 +1 Y216,5 +1 Y216,6 +1 Y217,0 +1 Y217,1 +1 Y217,2 +1 Y217,3 +1 Y217,4 +1 Y217,5 +1 Y217,6
  +1 Y218,0 +1 Y218,1 +1 Y218,2 +1 Y218,3 +1 Y218,4 +1 Y218,5 +1 Y218,6 +1 Y219,0 +1 Y219,1 +1 Y219,2
  +1 Y219,3 +1 Y219,4 +1 Y219,5 +1 Y219,6 +1 Y220,0 +1 Y220,1 +1 Y220,2 +1 Y220,3 +1 Y220,4 +1 Y220,5
  +1 Y220,6 +1 Y221,0 +1 Y221,1 +1 Y221,2 +1 Y221,3 +1 Y221,4 +1 Y221,5 +1 Y221,6 +1 Y222,0 +1 Y222,1
  +1 Y222,2 +1 Y222,3 +1 Y222,4 +1 Y222,5 +1 Y222,6 +1 Y223,0 +1 Y223,1 +1 Y223,2 +1 Y223,3 +1 Y223,4
  +1 Y223,5 +1 Y223,6 +1 Y224,0 +1 Y224,1 +1 Y224,2 +1 Y224,3 +1 Y224,4 +1 Y224,5 +1 Y224,6 +1 Y225,0
  +1 Y225,1 +1 Y225,2 +1 Y225,3 +1 Y225,4 +1 Y225,5 +1 Y225,6 +1 Y226,0 +1 Y226,1 +1 Y226,2 +1 Y226,3
  +1 Y226,4 +1 Y226,5 +1 Y226,6 +1 Y227,0 +1 Y227,1 +1 Y227,2 +1 Y227,3 +1 Y227,4 +1 Y227,5 +1 Y227,6
  +1 Y228,0 +1 Y228,1 +1 Y228,2 +1 Y228,3 +1 Y228,4 +1 Y228,5 +1 Y228,6 +1 Y229,0 +1 Y229,1 +1 Y229,2
  +1 Y229,3 +1 Y229,4 +1 Y229,5 +1 Y229,6 +1 Y230,0 +1 Y230,1 +1 Y230,2 +1 Y230,3 +1 Y230,4 +1 Y230,5
  +1 Y230,6 +1 Y231,0 +1 Y231,1 +1 Y231,2 +1 Y231,3 +1 Y231,4 +1 Y231,5 +1 Y231,6 +1 Y232,0 +1 Y232,1
  +1 Y232,2 +1 Y232,3 +1 Y232,4 +1 Y232,5 +1 Y232,6 +1 Y233,0 +1 Y233,1 +1 Y233,2 +1 Y233,3 +1 Y233,4
  +1 Y233,5 +1 Y233,6 +1 Y234,0 +1 Y234,1 +1 Y234,2 +1 Y234,3 +1 Y234,4 +1 Y234,5 +1 Y234,6 +1 Y235,0
  +1 Y235,1 +1 Y235,2 +1 Y235,3 +1 Y235,4 +1 Y235,5 +1 Y235,6 +1 Y236,0 +1 Y236,1 +1 Y236,2 +1 Y236,3
  +1 Y236,4 +1 Y236,5 +1 Y236,6 +1 Y237,0 +1 Y237,1 +1 Y237,2 +1 Y237,3 +1 Y237,4 +1 Y237,5 +1 Y237,6
  +1 Y238,0 +1 Y238,1 +1 Y238,2 +1 Y238,3 +1 Y238,4 +1 Y238,5 +1 Y238,6 +1 Y239,0 +1 Y239,1 +1 Y239,2
  +1 Y239,3 +1 Y239,4 +1 Y239,5 +1 Y239,6 +1 Y240,0 +1 Y240,1 +1 Y240,2 +1 Y240,3 +1 Y240,4 +1 Y240,5
  +1 Y240,6 +1 Y241,0 +1 Y241,1 +1 Y241,2 +1 Y241,3 +1 Y241,4 +1 Y241,5 +1 Y241,6 +1 Y242,0 +1 Y242,1
  +1 Y242,2 +1 Y242,3 +1 Y242,4 +1 Y242,5 +1 Y242,6 +1 Y243,0 +1 Y243,1 +1 Y243,2 +1 Y243,3 +1 Y243,4
  +1 Y243,5 +1 Y243,6 +1 Y244,0 +1 Y244,1 +1 Y244,2 +1 Y244,3 +1 Y244,4 +1 Y244,5 +1 Y244,6 +1 Y245,0
  +1 Y245,1 +1 Y245,2 +1 Y245,3 +1 Y245,4 +1 Y245,5 +1 Y245,6 +1 Y246,0 +1 Y246,1 +1 Y246,2 +1 Y246,3
  +1 Y246,4 +1 Y246,5 +1 Y246,6 +1 Y247,0 +1 Y247,1 +1 Y247,2 +1 Y247,3 +1 Y247,4 +1 Y247,5 +1 Y247,6
  +1 Y248,0 +1 Y248,1 +1 Y248,2 +1 Y248,3 +1 Y248,4 +1 Y248,5 +1 Y248,6 +1 Y249,0 +1 Y249,1 +1 Y249,2
  +1 Y249,3 +1 Y249,4 +1 Y249,5 +1 Y249,6 +1 Y250,0 +1 Y250,1 +1 Y250,2 +1 Y250,3 +1 Y250,4 +1 Y250,5
  +1 Y250,6 +1 Y251,0 +1 Y251,1 +1 Y251,2 +1 Y251,3 +1 Y251,4 +1 Y251,5 +1 Y251,6 +1 Y252,0 +1 Y252,1
  +1 Y252,2 +1 Y252,3 +1 Y252,4 +1 Y252,5 +1 Y252,6 +1 Y253,0 +1 Y253,1 +1 Y253,2 +1 Y253,3 +1 Y253,4
  +1 Y253,5 +1 Y253,6 +1 Y254,0 +1 Y254,1 +1 Y254,2 +1 Y254,3 +1 Y254,4 +1 Y254,5 +1 Y254,6 +1 Y377,0
  +1 Y377,1 +1 Y377,2 +1 Y377,3 +1 Y377,4 +1 Y377,5 +1 Y377,6 +1 Y378,0 +1 Y378,1 +1 Y378,2 +1 Y378,3
  +1 Y378,4 +1 Y378,5 +1 Y378,6 +1 Y379,0 +1 Y379,1 +1 Y379,2 +1 Y379,3 +1 Y379,4 +1 Y379,5 +1 Y379,6
  +1 Y380,0 +1 Y380,1 +1 Y380,2 +1 Y380,3 +1 Y380,4 +1 Y380,5 +1 Y380,6 +1 Y381,0 +1 Y381,1 +1 Y381,2
  +1 Y381,3 +1 Y381,4 +1 Y381,5 +1 Y381,6 +1 Y382,0 +1 Y382,1 +1 Y382,2 +1 Y382,3 +1 Y382,4 +1 Y382,5
  +1 Y382,6 +1 Y383,0 +1 Y383,1 +1 Y383,2 +1 Y383,3 +1 Y383,4 +1 Y383,5 +1 Y383,6 +1 Y384,0 +1 Y384,1
  +1 Y384,2 +1 Y384,3 +1 Y384,4 +1 Y384,5 +1 Y384,6 +1 Y385,0 +1 Y385,1 +1 Y385,2 +1 Y385,3 +1 Y385,4
  +1 Y385,5 +1 Y385,6 +1 Y386,0 +1 Y386,1 +1 Y386,2 +1 Y386,3 +1 Y386,4 +1 Y386,5 +1 Y386,6 +1 Y387,0
  +1 Y387,1 +1 Y387,2 +1 Y387,3 +1 Y387,4 +1 Y387,5 +1 Y387,6 +1 Y388,0 +1 Y388,1 +1 Y388,2 +1 Y388,3
  +1 Y388,4 +1 Y388,5 +1 Y388,6 +1 Y389,0 +1 Y389,1 +1 Y389,2 +1 Y389,3 +1 Y389,4 +1 Y389,5 +1 Y389,6
  +1 Y390,0 +1 Y390,1 +1 Y390,2 +1 Y390,3 +1 Y390,4 +1 Y390,5 +1 Y390,6 +1 Y391,0 +1 Y391,1 +1 Y391,2
  +1 Y391,3 +1 Y391,4 +1 Y391,5 +1 Y391,6 +1 Y392,0 +1 Y392,1 +1 Y392,2 +1 Y392,3 +1 Y392,4 +1 Y392,5
  +1 Y392,6 +1 Y393,0 +1 Y393,1 +1 Y393,2 +1 Y393,3 +1 Y393,4 +1 Y393,5 +1 Y393,6 +1 Y394,0 +1 Y394,1
  +1 Y394,2 +1 Y394,3 +1 Y394,4 +1 Y394,5 +1 Y394,6 +1 Y395,0 +1 Y395,1 +1 Y395,2 +1 Y395,3 +1 Y395,4
  +1 Y395,5 +1 Y395,6 +1 Y396,0 +1 Y396,1 +1 Y396,2 +1 Y396,3 +1 Y396,4 +1 Y396,5 +1 Y396,6 +1 Y397,0
  +1 Y397,1 +1 Y397,2 +1 Y397,3 +1 Y397,4 +1 Y397,5 +1 Y397,6 +1 Y398,0 +1 Y398,1 +1 Y398,2 +1 Y398,3
  +1 Y398,4 +1 Y398,5 +1 Y398,6 +1 Y399,0 +1 Y399,1 +1 Y399,2 +1 Y399,3 +1 Y399,4 +1 Y399,5 +1 Y399,6
  +1 Y400,0 +1 Y400,1 +1 Y400,2 +1 Y400,3 +1 Y400,4 +1 Y400,5 +1 Y400,6 +1 Y401,0 +1 Y401,1 +1 Y401,2
  +1 Y401,3 +1 Y401,4 +1 Y401,5 +1 Y401,6 +1 Y402,0 +1 Y402,1 +1 Y402,2 +1 Y402,3 +1 Y402,4 +1 Y402,5
  +1 Y402,6 +1 Y403,0 +1 Y403,1 +1 Y403,2 +1 Y403,3 +1 Y403,4 +1 Y403,5 +1 Y403,6 +1 Y404,0 +1 Y404,1
  +1 Y404,2 +1 Y404,3 +1 Y404,4 +1 Y404,5 +1 Y404,6 +1 Y405,0 +1 Y405,1 +1 Y405,2 +1 Y405,3 +1 Y405,4
  +1 Y405,5 +1 Y405,6 +1 Y406,0 +1 Y406,1 +1 Y406,2 +1 Y406,3 +1 Y406,4 +1 Y406,5 +1 Y406,6 +1 Y407,0
  +1 Y407,1 +1 Y407,2 +1 Y407,3 +1 Y407,4 +1 Y407,5 +1 Y407,6 +1 Y408,0 +1 Y408,1 +1 Y408,2 +1 Y408,3
  +1 Y408,4 +1 Y408,5 +1 Y408,6 +1 Y409,0 +1 Y409,1 +1 Y409,2 +1 Y409,3 +1 Y409,4 +1 Y409,5 +1 Y409,6
  +1 Y410,0 +1 Y410,1 +1 Y410,2 +1 Y410,3 +1 Y410,4 +1 Y410,5 +1 Y410,6 +1 Y411,0 +1 Y411,1 +1 Y411,2
  +1 Y411,3 +1 Y411,4 +1 Y411,5 +1 Y411,6 +1 Y412,0 +1 Y412,1 +1 Y412,2 +1 Y412,3 +1 Y412,4 +1 Y412,5
  +1 Y412,6 +1 Y413,0 +1 Y413,1 +1 Y413,2 +1 Y413,3 +1 Y413,4 +1 Y413,5 +1 Y413,6 +1 Y414,0 +1 Y414,1
  +1 Y414,2 +1 Y414,3 +1 Y414,4 +1 Y414,5 +1 Y414,6 +1 Y415,0 +1 Y415,1 +1 Y415,2 +1 Y415,3 +1 Y415,4
  +1 Y415,5 +1 Y415,6 +1 Y416,0 +1 Y416,1 +1 Y416,2 +1 Y416,3 +1 Y416,4 +1 Y416,5 +1 Y416,6 +1 Y417,0
  +1 Y417,1 +1 Y417,2 +1 Y417,3 +1 Y417,4 +1 Y417,5 +1 Y417,6 +1 Y418,0 +1 Y418,1 +1 Y418,2 +1 Y418,3
  +1 Y418,4 +1 Y418,5 +1 Y418,6 +1 Y419,0 +1 Y419,1 +1 Y419,2 +1 Y419,3 +1 Y419,4 +1 Y419,5 +1 Y419,6
  +1 Y420,0 +1 Y420,1 +1 Y420,2 +1 Y420,3 +1 Y420,4 +1 Y420,5 +1 Y420,6 +1 Y421,0 +1 Y421,1 +1 Y421,2
  +1 Y421,3 +1 Y421,4 +1 Y421,5 +1 Y421,6 +1 Y422,0 +1 Y422,1 +1 Y422,2 +1 Y422,3 +1 Y422,4 +1 Y422,5
  +1 Y422,6 +1 Y423,0 +1 Y423,1 +1 Y423,2 +1 Y423,3 +1 Y423,4 +1 Y423,5 +1 Y423,6 +1 Y424,0 +1 Y424,1
  +1 Y424,2 +1 Y424,3 +1 Y424,4 +1 Y424,5 +1 Y424,6 +1 Y425,0 +1 Y425,1 +1 Y425,2 +1 Y425,3 +1 Y425,4
  +1 Y425,5 +1 Y425,6 +1 Y507,0 +1 Y507,1 +1 Y507,2 +1 Y507,3 +1 Y507,4 +1 Y507,5 +1 Y507,6 +1 Y508,0
  +1 Y508,1 +1 Y508,2 +1 Y508,3 +1 Y508,4 +1 Y508,5 +1 Y508,6 +1 Y509,0 +1 Y509,1 +1 Y509,2 +1 Y509,3
  +1 Y509,4 +1 Y509,5 +1 Y509,6 +1 Y510,0 +1 Y510,1 +1 Y510,2 +1 Y510,3 +1 Y510,4 +1 Y510,5 +1 Y510,6
  +1 Y511,0 +1 Y511,1 +1 Y511,2 +1 Y511,3 +1 Y511,4 +1 Y511,5 +1 Y511,6 +1 Y512,0 +1 Y512,1 +1 Y512,2
  +1 Y512,3 +1 Y512,4 +1 Y512,5 +1 Y512,6 +1 Y513,0 +1 Y513,1 +1 Y513,2 +1 Y513,3 +1 Y513,4 +1 Y513,5
  +1 Y513,6 +1 Y514,0 +1 Y514,1 +1 Y514,2 +1 Y514,3 +1 Y514,4 +1 Y514,5 +1 Y514,6 +1 Y515,0 +1 Y515,1
  +1 Y515,2 +1 Y515,3 +1 Y515,4 +1 Y515,5 +1 Y515,6 +1 Y516,0 +1 Y516,1 +1 Y516,2 +1 Y516,3 +1 Y516,4
  +1 Y516,5 +1 Y516,6 +1 Y517,0 +1 Y517,1 +1 Y517,2 +1 Y517,3 +1 Y517,4 +1 Y517,5 +1 Y517,6 +1 Y518,0
  +1 Y518,1 +1 Y518,2 +1 Y518,3 +1 Y518,4 +1 Y518,5 +1 Y518,6 +1 Y519,0 +1 Y519,1 +1 Y519,2 +1 Y519,3
  +1 Y519,4 +1 Y519,5 +1 Y519,6 +1 Y520,0 +1 Y520,1 +1 Y520,2 +1 Y520,3 +1 Y520,4 +1 Y520,5 +1 Y520,6
  +1 Y521,0 +1 Y521,1 +1 Y521,2 +1 Y521,3 +1 Y521,4 +1 Y521,5 +1 Y521,6 +1 Y522,0 +1 Y522,1 +1 Y522,2
  +1 Y522,3 +1 Y522,4 +1 Y522,5 +1 Y522,6 +1 Y523,0 +1 Y523,1 +1 Y523,2 +1 Y523,3 +1 Y523,4 +1 Y523,5
  +1 Y523,6 = +1
 c2: +1 Y541,0 +1 Y541,1 +1 Y541,2 +1 Y541,3 +1 Y541,4 +1 Y541,5 +1 Y541,6 +1 Y544,0 +1 Y544,1 +1 Y544,2
  +1 Y544,3 +1 Y544,4 +1 Y544,5 +1 Y544,6 +1 Y545,0 +1 Y545,1 +1 Y545,2 +1 Y545,3 +1 Y545,4 +1 Y545,5
  +1 Y545,6 +1 Y547,0 +1 Y547,1 +1 Y547,2 +1 Y547,3 +1 Y547,4 +1 Y547,5 +1 Y547,6 = +1
 c3: +1 Y548,0 +1 Y548,1 +1 Y548,2 +1 Y548,3 +1 Y548,4 +1 Y548,5 +1 Y548,6 +1 Y553,0 +1 Y553,1 +1 Y553,2
  +1 Y553,3 +1 Y553,4 +1 Y553,5 +1 Y553,6 +1 Y554,0 +1 Y554,1 +1 Y554,2 +1 Y554,3 +1 Y554,4 +1 Y554,5
  +1 Y554,6 +1 Y555,0 +1 Y555,1 +1 Y555,2 +1 Y555,3 +1 Y555,4 +1 Y555,5 +1 Y555,6 +1 Y556,0 +1 Y556,1
  +1 Y556,2 +1 Y556,3 +1 Y556,4 +1 Y556,5 +1 Y556,6 +1 Y563,0 +1 Y563,1 +1 Y563,2 +1 Y563,3 +1 Y563,4
  +1 Y563,5 +1 Y563,6 +1 Y564,0 +1 Y564,1 +1 Y564,2 +1 Y564,3 +1 Y564,4 +1 Y564,5 +1 Y564,6 +1 Y565,0
  +1 Y565,1 +1 Y565,2 +1 Y565,3 +1 Y565,4 +1 Y565,5 +1 Y565,6 +1 Y566,0 +1 Y566,1 +1 Y566,2 +1 Y566,3
  +1 Y566,4 +1 Y566,5 +1 Y566,6 +1 Y567,0 +1 Y567,1 +1 Y567,2 +1 Y567,3 +1 Y567,4 +1 Y567,5 +1 Y567,6
  +1 Y568,0 +1 Y568,1 +1 Y568,2 +1 Y568,3 +1 Y568,4 +1 Y568,5 +1 Y568,6 +1 Y573,0 +1 Y573,1 +1 Y573,2
  +1 Y573,3 +1 Y573,4 +1 Y573,5 +1 Y573,6 +1 Y574,0 +1 Y574,1 +1 Y574,2 +1 Y574,3 +1 Y574,4 +1 Y574,5
  +1 Y574,6 +1 Y575,0 +1 Y575,1 +1 Y575,2 +1 Y575,3 +1 Y575,4 +1 Y575,5 +1 Y575,6 +1 Y576,0 +1 Y576,1
  +1 Y576,2 +1 Y576,3 +1 Y576,4 +1 Y576,5 +1 Y576,6 +1 Y578,0 +1 Y578,1 +1 Y578,2 +1 Y578,3 +1 Y578,4
  +1 Y578,5 +1 Y578,6 = +1
 c4: +1 Y579,0 +1 Y579,1 +1 Y579,2 +1 Y579,3 +1 Y579,4 +1 Y579,5 +1 Y579,6 +1 Y586,0 +1 Y586,1 +1 Y586,2
  +1 Y586,3 +1 Y586,4 +1 Y586,5 +1 Y586,6 +1 Y587,0 +1 Y587,1 +1 Y587,2 +1 Y587,3 +1 Y587,4 +1 Y587,5
  +1 Y587,6 +1 Y588,0 +1 Y588,1 +1 Y588,2 +1 Y588,3 +1 Y588,4 +1 Y588,5 +1 Y588,6 +1 Y589,0 +1 Y589,1
  +1 Y589,2 +1 Y589,3 +1 Y589,4 +1 Y589,5 +1 Y589,6 +1 Y590,0 +1 Y590,1 +1 Y590,2 +1 Y590,3 +1 Y590,4
  +1 Y590,5 +1 Y590,6 +1 Y591,0 +1 Y591,1 +1 Y591,2 +1 Y591,3 +1 Y591,4 +1 Y591,5 +1 Y591,6 +1 Y607,0
  +1 Y607,1 +1 Y607,2 +1 Y607,3 +1 Y607,4 +1 Y607,5 +1 Y607,6 +1 Y608,0 +1 Y608,1 +1 Y608,2 +1 Y608,3
  +1 Y608,4 +1 Y608,5 +1 Y608,6 +1 Y609,0 +1 Y609,1 +1 Y609,2 +1 Y609,3 +1 Y609,4 +1 Y609,5 +1 Y609,6
  +1 Y610,0 +1 Y610,1 +1 Y610,2 +1 Y610,3 +1 Y610,4 +1 Y610,5 +1 Y610,6 +1 Y611,0 +1 Y611,1 +1 Y611,2
  +1 Y611,3 +1 Y611,4 +1 Y611,5 +1 Y611,6 +1 Y612,0 +1 Y612,1 +1 Y612,2 +1 Y612,3 +1 Y612,4 +1 Y612,5
  +1 Y612,6 +1 Y613,0 +1 Y613,1 +1 Y613,2 +1 Y613,3 +1 Y613,4 +1 Y613,5 +1 Y613,6 +1 Y614,0 +1 Y614,1
  +1 Y614,2 +1 Y614,3 +1 Y614,4 +1 Y614,5 +1 Y614,6 +1 Y615,0 +1 Y615,1 +1 Y615,2 +1 Y615,3 +1 Y615,4
  +1 Y615,5 +1 Y615,6 +1 Y616,0 +1 Y616,1 +1 Y616,2 +1 Y616,3 +1 Y616,4 +1 Y616,5 +1 Y616,6 +1 Y617,0
  +1 Y617,1 +1 Y617,2 +1 Y617,3 +1 Y617,4 +1 Y617,5 +1 Y617,6 +1 Y618,0 +1 Y618,1 +1 Y618,2 +1 Y618,3
  +1 Y618,4 +1 Y618,5 +1 Y618,6 +1 Y619,0 +1 Y619,1 +1 Y619,2 +1 Y619,3 +1 Y619,4 +1 Y619,5 +1 Y619,6
  +1 Y620,0 +1 Y620,1 +1 Y620,2 +1 Y620,3 +1 Y620,4 +1 Y620,5 +1 Y620,6 +1 Y621,0 +1 Y621,1 +1 Y621,2
  +1 Y621,3 +1 Y621,4 +1 Y621,5 +1 Y621,6 +1 Y642,0 +1 Y642,1 +1 Y642,2 +1 Y642,3 +1 Y642,4 +1 Y642,5
  +1 Y642,6 +1 Y643,0 +1 Y643,1 +1 Y643,2 +1 Y643,3 +1 Y643,4 +1 Y643,5 +1 Y643,6 +1 Y644,0 +1 Y644,1
  +1 Y644,2 +1 Y644,3 +1 Y644,4 +1 Y644,5 +1 Y644,6 +1 Y645,0 +1 Y645,1 +1 Y645,2 +1 Y645,3 +1 Y645,4
  +1 Y645,5 +1 Y645,6 +1 Y646,0 +1 Y646,1 +1 Y646,2 +1 Y646,3 +1 Y646,4 +1 Y646,5 +1 Y646,6 +1 Y647,0
  +1 Y647,1 +1 Y647,2 +1 Y647,3 +1 Y647,4 +1 Y647,5 +1 Y647,6 +1 Y648,0 +1 Y648,1 +1 Y648,2 +1 Y648,3
  +1 Y648,4 +1 Y648,5 +1 Y648,6 +1 Y649,0 +1 Y649,1 +1 Y649,2 +1 Y649,3 +1 Y649,4 +1 Y649,5 +1 Y649,6
  +1 Y650,0 +1 Y650,1 +1 Y650,2 +1 Y650,3 +1 Y650,4 +1 Y650,5 +1 Y650,6 +1 Y651,0 +1 Y651,1 +1 Y651,2
  +1 Y651,3 +1 Y651,4 +1 Y651,5 +1 Y651,6 +1 Y652,0 +1 Y652,1 +1 Y652,2 +1 Y652,3 +1 Y652,4 +1 Y652,5
  +1 Y652,6 +1 Y653,0 +1 Y653,1 +1 Y653,2 +1 Y653,3 +1 Y653,4 +1 Y653,5 +1 Y653,6 +1 Y654,0 +1 Y654,1
  +1 Y654,2 +1 Y654,3 +1 Y654,4 +1 Y654,5 +1 Y654,6 +1 Y655,0 +1 Y655,1 +1 Y655,2 +1 Y655,3 +1 Y655,4
  +1 Y655,5 +1 Y655,6 +1 Y656,0 +1 Y656,1 +1 Y656,2 +1 Y656,3 +1 Y656,4 +1 Y656,5 +1 Y656,6 +1 Y657,0
  +1 Y657,1 +1 Y657,2 +1 Y657,3 +1 Y657,4 +1 Y657,5 +1 Y657,6 +1 Y658,0 +1 Y658,1 +1 Y658,2 +1 Y658,3
  +1 Y658,4 +1 Y658,5 +1 Y658,6 +1 Y659,0 +1 Y659,1 +1 Y659,2 +1 Y659,3 +1 Y659,4 +1 Y659,5 +1 Y659,6
  +1 Y660,0 +1 Y660,1 +1 Y660,2 +1 Y660,3 +1 Y660,4 +1 Y660,5 +1 Y660,6 +1 Y661,0 +1 Y661,1 +1 Y661,2
  +1 Y661,3 +1 Y661,4 +1 Y661,5 +1 Y661,6 +1 Y677,0 +1 Y677,1 +1 Y677,2 +1 Y677,3 +1 Y677,4 +1 Y677,5
  +1 Y677,6 +1 Y678,0 +1 Y678,1 +1 Y678,2 +1 Y678,3 +1 Y678,4 +1 Y678,5 +1 Y678,6 +1 Y679,0 +1 Y679,1
  +1 Y679,2 +1 Y679,3 +1 Y679,4 +1 Y679,5 +1 Y679,6 +1 Y680,0 +1 Y680,1 +1 Y680,2 +1 Y680,3 +1 Y680,4
  +1 Y680,5 +1 Y680,6 +1 Y681,0 +1 Y681,1 +1 Y681,2 +1 Y681,3 +1 Y681,4 +1 Y681,5 +1 Y681,6 +1 Y682,0
  +1 Y682,1 +1 Y682,2 +1 Y682,3 +1 Y682,4 +1 Y682,5 +1 Y682,6 +1 Y683,0 +1 Y683,1 +1 Y683,2 +1 Y683,3
  +1 Y683,4 +1 Y683,5 +1 Y683,6 +1 Y684,0 +1 Y684,1 +1 Y684,2 +1 Y684,3 +1 Y684,4 +1 Y684,5 +1 Y684,6
  +1 Y685,0 +1 Y685,1 +1 Y685,2 +1 Y685,3 +1 Y685,4 +1 Y685,5 +1 Y685,6 +1 Y686,0 +1 Y686,1 +1 Y686,2
  +1 Y686,3 +1 Y686,4 +1 Y686,5 +1 Y686,6 +1 Y687,0 +1 Y687,1 +1 Y687,2 +1 Y687,3 +1 Y687,4 +1 Y687,5
  +1 Y687,6 +1 Y688,0 +1 Y688,1 +1 Y688,2 +1 Y688,3 +1 Y688,4 +1 Y688,5 +1 Y688,6 +1 Y689,0 +1 Y689,1
  +1 Y689,2 +1 Y689,3 +1 Y689,4 +1 Y689,5 +1 Y689,6 +1 Y696,0 +1 Y696,1 +1 Y696,2 +1 Y696,3 +1 Y696,4
  +1 Y696,5 +1 Y696,6 = +1
 c5: +1 Y542,0 +1 Y542,1 +1 Y542,2 +1 Y542,3 +1 Y542,4 +1 Y542,5 +1 Y542,6 +1 Y544,0 +1 Y544,1 +1 Y544,2
  +1 Y544,3 +1 Y544,4 +1 Y544,5 +1 Y544,6 +1 Y546,0 +1 Y546,1 +1 Y546,2 +1 Y546,3 +1 Y546,4 +1 Y546,5
  +1 Y546,6 +1 Y547,0 +1 Y547,1 +1 Y547,2 +1 Y547,3 +1 Y547,4 +1 Y547,5 +1 Y547,6 = +1
 c6: +1 Y697,0 +1 Y697,1 +1 Y697,2 +1 Y697,3 +1 Y697,4 +1 Y697,5 +1 Y697,6 +1 Y701,0 +1 Y701,1 +1 Y701,2
  +1 Y701,3 +1 Y701,4 +1 Y701,5 +1 Y701,6 +1 Y702,0 +1 Y702,1 +1 Y702,2 +1 Y702,3 +1 Y702,4 +1 Y702,5
  +1 Y702,6 +1 Y703,0 +1 Y703,1 +1 Y703,2 +1 Y703,3 +1 Y703,4 +1 Y703,5 +1 Y703,6 +1 Y707,0 +1 Y707,1
  +1 Y707,2 +1 Y707,3 +1 Y707,4 +1 Y707,5 +1 Y707,6 +1 Y708,0 +1 Y708,1 +1 Y708,2 +1 Y708,3 +1 Y708,4
  +1 Y708,5 +1 Y708,6 +1 Y709,0 +1 Y709,1 +1 Y709,2 +1 Y709,3 +1 Y709,4 +1 Y709,5 +1 Y709,6 +1 Y711,0
  +1 Y711,1 +1 Y711,2 +1 Y711,3 +1 Y711,4 +1 Y711,5 +1 Y711,6 = +1
 c7: +1 Y712,0 +1 Y712,1 +1 Y712,2 +1 Y712,3 +1 Y712,4 +1 Y712,5 +1 Y712,6 +1 Y716,0 +1 Y716,1 +1 Y716,2
  +1 Y716,3 +1 Y716,4 +1 Y716,5 +1 Y716,6 +1 Y717,0 +1 Y717,1 +1 Y717,2 +1 Y717,3 +1 Y717,4 +1 Y717,5
  +1 Y717,6 +1 Y718,0 +1 Y718,1 +1 Y718,2 +1 Y718,3 +1 Y718,4 +1 Y718,5 +1 Y718,6 +1 Y722,0 +1 Y722,1
  +1 Y722,2 +1 Y722,3 +1 Y722,4 +1 Y722,5 +1 Y722,6 +1 Y723,0 +1 Y723,1 +1 Y723,2 +1 Y723,3 +1 Y723,4
  +1 Y723,5 +1 Y723,6 +1 Y724,0 +1 Y724,1 +1 Y724,2 +1 Y724,3 +1 Y724,4 +1 Y724,5 +1 Y724,6 +1 Y726,0
  +1 Y726,1 +1 Y726,2 +1 Y726,3 +1 Y726,4 +1 Y726,5 +1 Y726,6 = +1
 c8: +1 Y549,0 +1 Y549,1 +1 Y549,2 +1 Y549,3 +1 Y549,4 +1 Y549,5 +1 Y549,6 +1 Y553,0 +1 Y553,1 +1 Y553,2
  +1 Y553,3 +1 Y553,4 +1 Y553,5 +1 Y553,6 +1 Y557,0 +1 Y557,1 +1 Y557,2 +1 Y557,3 +1 Y557,4 +1 Y557,5
  +1 Y557,6 +1 Y558,0 +1 Y558,1 +1 Y558,2 +1 Y558,3 +1 Y558,4 +1 Y558,5 +1 Y558,6 +1 Y559,0 +1 Y559,1
  +1 Y559,2 +1 Y559,3 +1 Y559,4 +1 Y559,5 +1 Y559,6 +1 Y563,0 +1 Y563,1 +1 Y563,2 +1 Y563,3 +1 Y563,4
  +1 Y563,5 +1 Y563,6 +1 Y564,0 +1 Y564,1 +1 Y564,2 +1 Y564,3 +1 Y564,4 +1 Y564,5 +1 Y564,6 +1 Y565,0
  +1 Y565,1 +1 Y565,2 +1 Y565,3 +1 Y565,4 +1 Y565,5 +1 Y565,6 +1 Y569,0 +1 Y569,1 +1 Y569,2 +1 Y569,3
  +1 Y569,4 +1 Y569,5 +1 Y569,6 +1 Y570,0 +1 Y570,1 +1 Y570,2 +1 Y570,3 +1 Y570,4 +1 Y570,5 +1 Y570,6
  +1 Y571,0 +1 Y571,1 +1 Y571,2 +1 Y571,3 +1 Y571,4 +1 Y571,5 +1 Y571,6 +1 Y573,0 +1 Y573,1 +1 Y573,2
  +1 Y573,3 +1 Y573,4 +1 Y573,5 +1 Y573,6 +1 Y574,0 +1 Y574,1 +1 Y574,2 +1 Y574,3 +1 Y574,4 +1 Y574,5
  +1 Y574,6 +1 Y575,0 +1 Y575,1 +1 Y575,2 +1 Y575,3 +1 Y575,4 +1 Y575,5 +1 Y575,6 +1 Y577,0 +1 Y577,1
  +1 Y577,2 +1 Y577,3 +1 Y577,4 +1 Y577,5 +1 Y577,6 +1 Y578,0 +1 Y578,1 +1 Y578,2 +1 Y578,3 +1 Y578,4
  +1 Y578,5 +1 Y578,6 = +1
 c9: +1 Y1,0 +1 Y1,1 +1 Y1,2 +1 Y1,3 +1 Y1,4 +1 Y1,5 +1 Y1,6 +1 Y10,0 +1 Y10,1 +1 Y10,2 +1 Y10,3 +1 Y10,4
  +1 Y10,5 +1 Y10,6 +1 Y19,0 +1 Y19,1 +1 Y19,2 +1 Y19,3 +1 Y19,4 +1 Y19,5 +1 Y19,6 +1 Y20,0 +1 Y20,1 +1 Y20,2
  +1 Y20,3 +1 Y20,4 +1 Y20,5 +1 Y20,6 +1 Y21,0 +1 Y21,1 +1 Y21,2 +1 Y21,3 +1 Y21,4 +1 Y21,5 +1 Y21,6 +1 Y22,0
  +1 Y22,1 +1 Y22,2 +1 Y22,3 +1 Y22,4 +1 Y22,5 +1 Y22,6 +1 Y23,0 +1 Y23,1 +1 Y23,2 +1 Y23,3 +1 Y23,4 +1 Y23,5
  +1 Y23,6 +1 Y24,0 +1 Y24,1 +1 Y24,2 +1 Y24,3 +1 Y24,4 +1 Y24,5 +1 Y24,6 +1 Y25,0 +1 Y25,1 +1 Y25,2 +1 Y25,3
  +1 Y25,4 +1 Y25,5 +1 Y25,6 +1 Y26,0 +1 Y26,1 +1 Y26,2 +1 Y26,3 +1 Y26,4 +1 Y26,5 +1 Y26,6 +1 Y55,0 +1 Y55,1
  +1 Y55,2 +1 Y55,3 +1 Y55,4 +1 Y55,5 +1 Y55,6 +1 Y56,0 +1 Y56,1 +1 Y56,2 +1 Y56,3 +1 Y56,4 +1 Y56,5 +1 Y56,6
  +1 Y57,0 +1 Y57,1 +1 Y57,2 +1 Y57,3 +1 Y57,4 +1 Y57,5 +1 Y57,6 +1 Y58,0 +1 Y58,1 +1 Y58,2 +1 Y58,3 +1 Y58,4
  +1 Y58,5 +1 Y58,6 +1 Y59,0 +1 Y59,1 +1 Y59,2 +1 Y59,3 +1 Y59,4 +1 Y59,5 +1 Y59,6 +1 Y60,0 +1 Y60,1 +1 Y60,2
  +1 Y60,3 +1 Y60,4 +1 Y60,5 +1 Y60,6 +1 Y61,0 +1 Y61,1 +1 Y61,2 +1 Y61,3 +1 Y61,4 +1 Y61,5 +1 Y61,6 +1 Y62,0
  +1 Y62,1 +1 Y62,2 +1 Y62,3 +1 Y62,4 +1 Y62,5 +1 Y62,6 +1 Y91,0 +1 Y91,1 +1 Y91,2 +1 Y91,3 +1 Y91,4 +1 Y91,5
  +1 Y91,6 +1 Y92,0 +1 Y92,1 +1 Y92,2 +1 Y92,3 +1 Y92,4 +1 Y92,5 +1 Y92,6 +1 Y93,0 +1 Y93,1 +1 Y93,2 +1 Y93,3
  +1 Y93,4 +1 Y93,5 +1 Y93,6 +1 Y94,0 +1 Y94,1 +1 Y94,2 +1 Y94,3 +1 Y94,4 +1 Y94,5 +1 Y94,6 +1 Y95,0 +1 Y95,1
  +1 Y95,2 +1 Y95,3 +1 Y95,4 +1 Y95,5 +1 Y95,6 +1 Y96,0 +1 Y96,1 +1 Y96,2 +1 Y96,3 +1 Y96,4 +1 Y96,5 +1 Y96,6
  +1 Y97,0 +1 Y97,1 +1 Y97,2 +1 Y97,3 +1 Y97,4 +1 Y97,5 +1 Y97,6 +1 Y98,0 +1 Y98,1 +1 Y98,2 +1 Y98,3 +1 Y98,4
  +1 Y98,5 +1 Y98,6 +1 Y99,0 +1 Y99,1 +1 Y99,2 +1 Y99,3 +1 Y99,4 +1 Y99,5 +1 Y99,6 +1 Y100,0 +1 Y100,1
  +1 Y100,2 +1 Y100,3 +1 Y100,4 +1 Y100,5 +1 Y100,6 +1 Y101,0 +1 Y101,1 +1 Y101,2 +1 Y101,3 +1 Y101,4
  +1 Y101,5 +1 Y101,6 +1 Y102,0 +1 Y102,1 +1 Y102,2 +1 Y102,3 +1 Y102,4 +1 Y102,5 +1 Y102,6 +1 Y103,0
  +1 Y103,1 +1 Y103,2 +1 Y103,3 +1 Y103,4 +1 Y103,5 +1 Y103,6 +1 Y104,0 +1 Y104,1 +1 Y104,2 +1 Y104,3
  +1 Y104,4 +1 Y104,5 +1 Y104,6 +1 Y105,0 +1 Y105,1 +1 Y105,2 +1 Y105,3 +1 Y105,4 +1 Y105,5 +1 Y105,6
  +1 Y106,0 +1 Y106,1 +1 Y106,2 +1 Y106,3 +1 Y106,4 +1 Y106,5 +1 Y106,6 +1 Y107,0 +1 Y107,1 +1 Y107,2
  +1 Y107,3 +1 Y107,4 +1 Y107,5 +1 Y107,6 +1 Y108,0 +1 Y108,1 +1 Y108,2 +1 Y108,3 +1 Y108,4 +1 Y108,5
  +1 Y108,6 +1 Y109,0 +1 Y109,1 +1 Y109,2 +1 Y109,3 +1 Y109,4 +1 Y109,5 +1 Y109,6 +1 Y110,0 +1 Y110,1
  +1 Y110,2 +1 Y110,3 +1 Y110,4 +1 Y110,5 +1 Y110,6 +1 Y111,0 +1 Y111,1 +1 Y111,2 +1 Y111,3 +1 Y111,4
  +1 Y111,5 +1 Y111,6 +1 Y112,0 +1 Y112,1 +1 Y112,2 +1 Y112,3 +1 Y112,4 +1 Y112,5 +1 Y112,6 +1 Y113,0
  +1 Y113,1 +1 Y113,2 +1 Y113,3 +1 Y113,4 +1 Y113,5 +1 Y113,6 +1 Y114,0 +1 Y114,1 +1 Y114,2 +1 Y114,3
  +1 Y114,4 +1 Y114,5 +1 Y114,6 +1 Y115,0 +1 Y115,1 +1 Y115,2 +1 Y115,3 +1 Y115,4 +1 Y115,5 +1 Y115,6
  +1 Y116,0 +1 Y116,1 +1 Y116,2 +1 Y116,3 +1 Y116,4 +1 Y116,5 +1 Y116,6 +1 Y117,0 +1 Y117,1 +1 Y117,2
  +1 Y117,3 +1 Y117,4 +1 Y117,5 +1 Y117,6 +1 Y118,0 +1 Y118,1 +1 Y118,2 +1 Y118,3 +1 Y118,4 +1 Y118,5
  +1 Y118,6 +1 Y175,0 +1 Y175,1 +1 Y175,2 +1 Y175,3 +1 Y175,4 +1 Y175,5 +1 Y175,6 +1 Y176,0 +1 Y176,1
  +1 Y176,2 +1 Y176,3 +1 Y176,4 +1 Y176,5 +1 Y176,6 +1 Y177,0 +1 Y177,1 +1 Y177,2 +1 Y177,3 +1 Y177,4
  +1 Y177,5 +1 Y177,6 +1 Y178,0 +1 Y178,1 +1 Y178,2 +1 Y178,3 +1 Y178,4 +1 Y178,5 +1 Y178,6 +1 Y179,0
  +1 Y179,1 +1 Y179,2 +1 Y179,3 +1 Y179,4 +1 Y179,5 +1 Y179,6 +1 Y180,0 +1 Y180,1 +1 Y180,2 +1 Y180,3
  +1 Y180,4 +1 Y180,5 +1 Y180,6 +1 Y181,0 +1 Y181,1 +1 Y181,2 +1 Y181,3 +1 Y181,4 +1 Y181,5 +1 Y181,6
  +1 Y182,0 +1 Y182,1 +1 Y182,2 +1 Y182,3 +1 Y182,4 +1 Y182,5 +1 Y182,6 +1 Y183,0 +1 Y183,1 +1 Y183,2
  +1 Y183,3 +1 Y183,4 +1 Y183,5 +1 Y183,6 +1 Y184,0 +1 Y184,1 +1 Y184,2 +1 Y184,3 +1 Y184,4 +1 Y184,5
  +1 Y184,6 +1 Y185,0 +1 Y185,1 +1 Y185,2 +1 Y185,3 +1 Y185,4 +1 Y185,5 +1 Y185,6 +1 Y186,0 +1 Y186,1
  +1 Y186,2 +1 Y186,3 +1 Y186,4 +1 Y186,5 +1 Y186,6 +1 Y187,0 +1 Y187,1 +1 Y187,2 +1 Y187,3 +1 Y187,4
  +1 Y187,5 +1 Y187,6 +1 Y188,0 +1 Y188,1 +1 Y188,2 +1 Y188,3 +1 Y188,4 +1 Y188,5 +1 Y188,6 +1 Y189,0
  +1 Y189,1 +1 Y189,2 +1 Y189,3 +1 Y189,4 +1 Y189,5 +1 Y189,6 +1 Y190,0 +1 Y190,1 +1 Y190,2 +1 Y190,3
  +1 Y190,4 +1 Y190,5 +1 Y190,6 +1 Y191,0 +1 Y191,1 +1 Y191,2 +1 Y191,3 +1 Y191,4 +1 Y191,5 +1 Y191,6
  +1 Y192,0 +1 Y192,1 +1 Y192,2 +1 Y192,3 +1 Y192,4 +1 Y192,5 +1 Y192,6 +1 Y193,0 +1 Y193,1 +1 Y193,2
  +1 Y193,3 +1 Y193,4 +1 Y193,5 +1 Y193,6 +1 Y194,0 +1 Y194,1 +1 Y194,2 +1 Y194,3 +1 Y194,4 +1 Y194,5
  +1 Y194,6 +1 Y195,0 +1 Y195,1 +1 Y195,2 +1 Y195,3 +1 Y195,4 +1 Y195,5 +1 Y195,6 +1 Y196,0 +1 Y196,1
  +1 Y196,2 +1 Y196,3 +1 Y196,4 +1 Y196,5 +1 Y196,6 +1 Y197,0 +1 Y197,1 +1 Y197,2 +1 Y197,3 +1 Y197,4
  +1 Y197,5 +1 Y197,6 +1 Y198,0 +1 Y198,1 +1 Y198,2 +1 Y198,3 +1 Y198,4 +1 Y198,5 +1 Y198,6 +1 Y199,0
  +1 Y199,1 +1 Y199,2 +1 Y199,3 +1 Y199,4 +1 Y199,5 +1 Y199,6 +1 Y255,0 +1 Y255,1 +1 Y255,2 +1 Y255,3
  +1 Y255,4 +1 Y255,5 +1 Y255,6 +1 Y256,0 +1 Y256,1 +1 Y256,2 +1 Y256,3 +1 Y256,4 +1 Y256,5 +1 Y256,6
  +1 Y257,0 +1 Y257,1 +1 Y257,2 +1 Y257,3 +1 Y257,4 +1 Y257,5 +1 Y257,6 +1 Y258,0 +1 Y258,1 +1 Y258,2
  +1 Y258,3 +1 Y258,4 +1 Y258,5 +1 Y258,6 +1 Y259,0 +1 Y259,1 +1 Y259,2 +1 Y259,3 +1 Y259,4 +1 Y259,5
  +1 Y259,6 +1 Y260,0 +1 Y260,1 +1 Y260,2 +1 Y260,3 +1 Y260,4 +1 Y260,5 +1 Y260,6 +1 Y261,0 +1 Y261,1
  +1 Y261,2 +1 Y261,3 +1 Y261,4 +1 Y261,5 +1 Y261,6 +1 Y262,0 +1 Y262,1 +1 Y262,2 +1 Y262,3 +1 Y262,4
  +1 Y262,5 +1 Y262,6 +1 Y263,0 +1 Y263,1 +1 Y263,2 +1 Y263,3 +1 Y263,4 +1 Y263,5 +1 Y263,6 +1 Y264,0
  +1 Y264,1 +1 Y264,2 +1 Y264,3 +1 Y264,4 +1 Y264,5 +1 Y264,6 +1 Y265,0 +1 Y265,1 +1 Y265,2 +1 Y265,3
  +1 Y265,4 +1 Y265,5 +1 Y265,6 +1 Y266,0 +1 Y266,1 +1 Y266,2 +1 Y266,3 +1 Y266,4 +1 Y266,5 +1 Y266,6
  +1 Y267,0 +1 Y267,1 +1 Y267,2 +1 Y267,3 +1 Y267,4 +1 Y267,5 +1 Y267,6 +1 Y268,0 +1 Y268,1 +1 Y268,2
  +1 Y268,3 +1 Y268,4 +1 Y268,5 +1 Y268,6 +1 Y269,0 +1 Y269,1 +1 Y269,2 +1 Y269,3 +1 Y269,4 +1 Y269,5
  +1 Y269,6 +1 Y270,0 +1 Y270,1 +1 Y270,2 +1 Y270,3 +1 Y270,4 +1 Y270,5 +1 Y270,6 +1 Y271,0 +1 Y271,1
  +1 Y271,2 +1 Y271,3 +1 Y271,4 +1 Y271,5 +1 Y271,6 +1 Y272,0 +1 Y272,1 +1 Y272,2 +1 Y272,3 +1 Y272,4
  +1 Y272,5 +1 Y272,6 +1 Y273,0 +1 Y273,1 +1 Y273,2 +1 Y273,3 +1 Y273,4 +1 Y273,5 +1 Y273,6 +1 Y274,0
  +1 Y274,1 +1 Y274,2 +1 Y274,3 +1 Y274,4 +1 Y274,5 +1 Y274,6 +1 Y275,0 +1 Y275,1 +1 Y275,2 +1 Y275,3
  +1 Y275,4 +1 Y275,5 +1 Y275,6 +1 Y276,0 +1 Y276,1 +1 Y276,2 +1 Y276,3 +1 Y276,4 +1 Y276,5 +1 Y276,6
  +1 Y277,0 +1 Y277,1 +1 Y277,2 +1 Y277,3 +1 Y277,4 +1 Y277,5 +1 Y277,6 +1 Y278,0 +1 Y278,1 +1 Y278,2
  +1 Y278,3 +1 Y278,4 +1 Y278,5 +1 Y278,6 +1 Y279,0 +1 Y279,1 +1 Y279,2 +1 Y279,3 +1 Y279,4 +1 Y279,5
  +1 Y279,6 +1 Y280,0 +1 Y280,1 +1 Y280,2 +1 Y280,3 +1 Y280,4 +1 Y280,5 +1 Y280,6 +1 Y281,0 +1 Y281,1
  +1 Y281,2 +1 Y281,3 +1 Y281,4 +1 Y281,5 +1 Y281,6 +1 Y282,0 +1 Y282,1 +1 Y282,2 +1 Y282,3 +1 Y282,4
  +1 Y282,5 +1 Y282,6 +1 Y283,0 +1 Y283,1 +1 Y283,2 +1 Y283,3 +1 Y283,4 +1 Y283,5 +1 Y283,6 +1 Y284,0
  +1 Y284,1 +1 Y284,2 +1 Y284,3 +1 Y284,4 +1 Y284,5 +1 Y284,6 +1 Y285,0 +1 Y285,1 +1 Y285,2 +1 Y285,3
  +1 Y285,4 +1 Y285,5 +1 Y285,6 +1 Y286,0 +1 Y286,1 +1 Y286,2 +1 Y286,3 +1 Y286,4 +1 Y286,5 +1 Y286,6
  +1 Y287,0 +1 Y287,1 +1 Y287,2 +1 Y287,3 +1 Y287,4 +1 Y287,5 +1 Y287,6 +1 Y288,0 +1 Y288,1 +1 Y288,2
  +1 Y288,3 +1 Y288,4 +1 Y288,5 +1 Y288,6 +1 Y289,0 +1 Y289,1 +1 Y289,2 +1 Y289,3 +1 Y289,4 +1 Y289,5
  +1 Y289,6 +1 Y290,0 +1 Y290,1 +1 Y290,2 +1 Y290,3 +1 Y290,4 +1 Y290,5 +1 Y290,6 +1 Y291,0 +1 Y291,1
  +1 Y291,2 +1 Y291,3 +1 Y291,4 +1 Y291,5 +1 Y291,6 +1 Y292,0 +1 Y292,1 +1 Y292,2 +1 Y292,3 +1 Y292,4
  +1 Y292,5 +1 Y292,6 +1 Y293,0 +1 Y293,1 +1 Y293,2 +1 Y293,3 +1 Y293,4 +1 Y293,5 +1 Y293,6 +1 Y294,0
  +1 Y294,1 +1 Y294,2 +1 Y294,3 +1 Y294,4 +1 Y294,5 +1 Y294,6 +1 Y295,0 +1 Y295,1 +1 Y295,2 +1 Y295,3
  +1 Y295,4 +1 Y295,5 +1 Y295,6 +1 Y296,0 +1 Y296,1 +1 Y296,2 +1 Y296,3 +1 Y296,4 +1 Y296,5 +1 Y296,6
  +1 Y297,0 +1 Y297,1 +1 Y297,2 +1 Y297,3 +1 Y297,4 +1 Y297,5 +1 Y297,6 +1 Y298,0 +1 Y298,1 +1 Y298,2
  +1 Y298,3 +1 Y298,4 +1 Y298,5 +1 Y298,6 +1 Y299,0 +1 Y299,1 +1 Y299,2 +1 Y299,3 +1 Y299,4 +1 Y299,5
  +1 Y299,6 +1 Y300,0 +1 Y300,1 +1 Y300,2 +1 Y300,3 +1 Y300,4 +1 Y300,5 +1 Y300,6 +1 Y301,0 +1 Y301,1
  +1 Y301,2 +1 Y301,3 +1 Y301,4 +1 Y301,5 +1 Y301,6 +1 Y302,0 +1 Y302,1 +1 Y302,2 +1 Y302,3 +1 Y302,4
  +1 Y302,5 +1 Y302,6 +1 Y303,0 +1 Y303,1 +1 Y303,2 +1 Y303,3 +1 Y303,4 +1 Y303,5 +1 Y303,6 +1 Y304,0
  +1 Y304,1 +1 Y304,2 +1 Y304,3 +1 Y304,4 +1 Y304,5 +1 Y304,6 +1 Y305,0 +1 Y305,1 +1 Y305,2 +1 Y305,3
  +1 Y305,4 +1 Y305,5 +1 Y305,6 +1 Y306,0 +1 Y306,1 +1 Y306,2 +1 Y306,3 +1 Y306,4 +1 Y306,5 +1 Y306,6
  +1 Y307,0 +1 Y307,1 +1 Y307,2 +1 Y307,3 +1 Y307,4 +1 Y307,5 +1 Y307,6 +1 Y308,0 +1 Y308,1 +1 Y308,2
  +1 Y308,3 +1 Y308,4 +1 Y308,5 +1 Y308,6 +1 Y309,0 +1 Y309,1 +1 Y309,2 +1 Y309,3 +1 Y309,4 +1 Y309,5
  +1 Y309,6 +1 Y377,0 +1 Y377,1 +1 Y377,2 +1 Y377,3 +1 Y377,4 +1 Y377,5 +1 Y377,6 +1 Y378,0 +1 Y378,1
  +1 Y378,2 +1 Y378,3 +1 Y378,4 +1 Y378,5 +1 Y378,6 +1 Y379,0 +1 Y379,1 +1 Y379,2 +1 Y379,3 +1 Y379,4
  +1 Y379,5 +1 Y379,6 +1 Y380,0 +1 Y380,1 +1 Y380,2 +1 Y380,3 +1 Y380,4 +1 Y380,5 +1 Y380,6 +1 Y381,0
  +1 Y381,1 +1 Y381,2 +1 Y381,3 +1 Y381,4 +1 Y381,5 +1 Y381,6 +1 Y382,0 +1 Y382,1 +1 Y382,2 +1 Y382,3
  +1 Y382,4 +1 Y382,5 +1 Y382,6 +1 Y383,0 +1 Y383,1 +1 Y383,2 +1 Y383,3 +1 Y383,4 +1 Y383,5 +1 Y383,6
  +1 Y384,0 +1 Y384,1 +1 Y384,2 +1 Y384,3 +1 Y384,4 +1 Y384,5 +1 Y384,6 +1 Y385,0 +1 Y385,1 +1 Y385,2
  +1 Y385,3 +1 Y385,4 +1 Y385,5 +1 Y385,6 +1 Y386,0 +1 Y386,1 +1 Y386,2 +1 Y386,3 +1 Y386,4 +1 Y386,5
  +1 Y386,6 +1 Y387,0 +1 Y387,1 +1 Y387,2 +1 Y387,3 +1 Y387,4 +1 Y387,5 +1 Y387,6 +1 Y388,0 +1 Y388,1
  +1 Y388,2 +1 Y388,3 +1 Y388,4 +1 Y388,5 +1 Y388,6 +1 Y389,0 +1 Y389,1 +1 Y389,2 +1 Y389,3 +1 Y389,4
  +1 Y389,5 +1 Y389,6 +1 Y390,0 +1 Y390,1 +1 Y390,2 +1 Y390,3 +1 Y390,4 +1 Y390,5 +1 Y390,6 +1 Y426,0
  +1 Y426,1 +1 Y426,2 +1 Y426,3 +1 Y426,4 +1 Y426,5 +1 Y426,6 +1 Y427,0 +1 Y427,1 +1 Y427,2 +1 Y427,3
  +1 Y427,4 +1 Y427,5 +1 Y427,6 +1 Y428,0 +1 Y428,1 +1 Y428,2 +1 Y428,3 +1 Y428,4 +1 Y428,5 +1 Y428,6
  +1 Y429,0 +1 Y429,1 +1 Y429,2 +1 Y429,3 +1 Y429,4 +1 Y429,5 +1 Y429,6 +1 Y430,0 +1 Y430,1 +1 Y430,2
  +1 Y430,3 +1 Y430,4 +1 Y430,5 +1 Y430,6 +1 Y431,0 +1 Y431,1 +1 Y431,2 +1 Y431,3 +1 Y431,4 +1 Y431,5
  +1 Y431,6 +1 Y432,0 +1 Y432,1 +1 Y432,2 +1 Y432,3 +1 Y432,4 +1 Y432,5 +1 Y432,6 +1 Y433,0 +1 Y433,1
  +1 Y433,2 +1 Y433,3 +1 Y433,4 +1 Y433,5 +1 Y433,6 +1 Y434,0 +1 Y434,1 +1 Y434,2 +1 Y434,3 +1 Y434,4
  +1 Y434,5 +1 Y434,6 +1 Y435,0 +1 Y435,1 +1 Y435,2 +1 Y435,3 +1 Y435,4 +1 Y435,5 +1 Y435,6 +1 Y436,0
  +1 Y436,1 +1 Y436,2 +1 Y436,3 +1 Y436,4 +1 Y436,5 +1 Y436,6 +1 Y437,0 +1 Y437,1 +1 Y437,2 +1 Y437,3
  +1 Y437,4 +1 Y437,5 +1 Y437,6 +1 Y438,0 +1 Y438,1 +1 Y438,2 +1 Y438,3 +1 Y438,4 +1 Y438,5 +1 Y438,6
  +1 Y439,0 +1 Y439,1 +1 Y439,2 +1 Y439,3 +1 Y439,4 +1 Y439,5 +1 Y439,6 +1 Y440,0 +1 Y440,1 +1 Y440,2
  +1 Y440,3 +1 Y440,4 +1 Y440,5 +1 Y440,6 +1 Y441,0 +1 Y441,1 +1 Y441,2 +1 Y441,3 +1 Y441,4 +1 Y441,5
  +1 Y441,6 +1 Y442,0 +1 Y442,1 +1 Y442,2 +1 Y442,3 +1 Y442,4 +1 Y442,5 +1 Y442,6 +1 Y443,0 +1 Y443,1
  +1 Y443,2 +1 Y443,3 +1 Y443,4 +1 Y443,5 +1 Y443,6 +1 Y444,0 +1 Y444,1 +1 Y444,2 +1 Y444,3 +1 Y444,4
  +1 Y444,5 +1 Y444,6 +1 Y445,0 +1 Y445,1 +1 Y445,2 +1 Y445,3 +1 Y445,4 +1 Y445,5 +1 Y445,6 +1 Y446,0
  +1 Y446,1 +1 Y446,2 +1 Y446,3 +1 Y446,4 +1 Y446,5 +1 Y446,6 +1 Y447,0 +1 Y447,1 +1 Y447,2 +1 Y447,3
  +1 Y447,4 +1 Y447,5 +1 Y447,6 +1 Y448,0 +1 Y448,1 +1 Y448,2 +1 Y448,3 +1 Y448,4 +1 Y448,5 +1 Y448,6
  +1 Y449,0 +1 Y449,1 +1 Y449,2 +1 Y449,3 +1 Y449,4 +1 Y449,5 +1 Y449,6 +1 Y450,0 +1 Y450,1 +1 Y450,2
  +1 Y450,3 +1 Y450,4 +1 Y450,5 +1 Y450,6 +1 Y451,0 +1 Y451,1 +1 Y451,2 +1 Y451,3 +1 Y451,4 +1 Y451,5
  +1 Y451,6 +1 Y452,0 +1 Y452,1 +1 Y452,2 +1 Y452,3 +1 Y452,4 +1 Y452,5 +1 Y452,6 +1 Y453,0 +1 Y453,1
  +1 Y453,2 +1 Y453,3 +1 Y453,4 +1 Y453,5 +1 Y453,6 +1 Y454,0 +1 Y454,1 +1 Y454,2 +1 Y454,3 +1 Y454,4
  +1 Y454,5 +1 Y454,6 +1 Y455,0 +1 Y455,1 +1 Y455,2 +1 Y455,3 +1 Y455,4 +1 Y455,5 +1 Y455,6 +1 Y456,0
  +1 Y456,1 +1 Y456,2 +1 Y456,3 +1 Y456,4 +1 Y456,5 +1 Y456,6 +1 Y457,0 +1 Y457,1 +1 Y457,2 +1 Y457,3
  +1 Y457,4 +1 Y457,5 +1 Y457,6 +1 Y458,0 +1 Y458,1 +1 Y458,2 +1 Y458,3 +1 Y458,4 +1 Y458,5 +1 Y458,6
  +1 Y459,0 +1 Y459,1 +1 Y459,2 +1 Y459,3 +1 Y459,4 +1 Y459,5 +1 Y459,6 +1 Y460,0 +1 Y460,1 +1 Y460,2
  +1 Y460,3 +1 Y460,4 +1 Y460,5 +1 Y460,6 +1 Y507,0 +1 Y507,1 +1 Y507,2 +1 Y507,3 +1 Y507,4 +1 Y507,5
  +1 Y507,6 +1 Y508,0 +1 Y508,1 +1 Y508,2 +1 Y508,3 +1 Y508,4 +1 Y508,5 +1 Y508,6 +1 Y509,0 +1 Y509,1
  +1 Y509,2 +1 Y509,3 +1 Y509,4 +1 Y509,5 +1 Y509,6 +1 Y510,0 +1 Y510,1 +1 Y510,2 +1 Y510,3 +1 Y510,4
  +1 Y510,5 +1 Y510,6 +1 Y511,0 +1 Y511,1 +1 Y511,2 +1 Y511,3 +1 Y511,4 +1 Y511,5 +1 Y511,6 +1 Y524,0
  +1 Y524,1 +1 Y524,2 +1 Y524,3 +1 Y524,4 +1 Y524,5 +1 Y524,6 +1 Y525,0 +1 Y525,1 +1 Y525,2 +1 Y525,3
  +1 Y525,4 +1 Y525,5 +1 Y525,6 +1 Y526,0 +1 Y526,1 +1 Y526,2 +1 Y526,3 +1 Y526,4 +1 Y526,5 +1 Y526,6
  +1 Y527,0 +1 Y527,1 +1 Y527,2 +1 Y527,3 +1 Y527,4 +1 Y527,5 +1 Y527,6 +1 Y528,0 +1 Y528,1 +1 Y528,2
  +1 Y528,3 +1 Y528,4 +1 Y528,5 +1 Y528,6 +1 Y529,0 +1 Y529,1 +1 Y529,2 +1 Y529,3 +1 Y529,4 +1 Y529,5
  +1 Y529,6 +1 Y530,0 +1 Y530,1 +1 Y530,2 +1 Y530,3 +1 Y530,4 +1 Y530,5 +1 Y530,6 +1 Y531,0 +1 Y531,1
  +1 Y531,2 +1 Y531,3 +1 Y531,4 +1 Y531,5 +1 Y531,6 +1 Y532,0 +1 Y532,1 +1 Y532,2 +1 Y532,3 +1 Y532,4
  +1 Y532,5 +1 Y532,6 +1 Y533,0 +1 Y533,1 +1 Y533,2 +1 Y533,3 +1 Y533,4 +1 Y533,5 +1 Y533,6 +1 Y534,0
  +1 Y534,1 +1 Y534,2 +1 Y534,3 +1 Y534,4 +1 Y534,5 +1 Y534,6 +1 Y535,0 +1 Y535,1 +1 Y535,2 +1 Y535,3
  +1 Y535,4 +1 Y535,5 +1 Y535,6 = +1
 c10: +1 Y713,0 +1 Y713,1 +1 Y713,2 +1 Y713,3 +1 Y713,4 +1 Y713,5 +1 Y713,6 +1 Y716,0 +1 Y716,1 +1 Y716,2
  +1 Y716,3 +1 Y716,4 +1 Y716,5 +1 Y716,6 +1 Y719,0 +1 Y719,1 +1 Y719,2 +1 Y719,3 +1 Y719,4 +1 Y719,5
  +1 Y719,6 +1 Y720,0 +1 Y720,1 +1 Y720,2 +1 Y720,3 +1 Y720,4 +1 Y720,5 +1 Y720,6 +1 Y722,0 +1 Y722,1
  +1 Y722,2 +1 Y722,3 +1 Y722,4 +1 Y722,5 +1 Y722,6 +1 Y723,0 +1 Y723,1 +1 Y723,2 +1 Y723,3 +1 Y723,4
  +1 Y723,5 +1 Y723,6 +1 Y725,0 +1 Y725,1 +1 Y725,2 +1 Y725,3 +1 Y725,4 +1 Y725,5 +1 Y725,6 +1 Y726,0
  +1 Y726,1 +1 Y726,2 +1 Y726,3 +1 Y726,4 +1 Y726,5 +1 Y726,6 = +1
 c11: +1 Y2,0 +1 Y2,1 +1 Y2,2 +1 Y2,3 +1 Y2,4 +1 Y2,5 +1 Y2,6 +1 Y11,0 +1 Y11,1 +1 Y11,2 +1 Y11,3 +1 Y11,4
  +1 Y11,5 +1 Y11,6 +1 Y19,0 +1 Y19,1 +1 Y19,2 +1 Y19,3 +1 Y19,4 +1 Y19,5 +1 Y19,6 +1 Y27,0 +1 Y27,1 +1 Y27,2
  +1 Y27,3 +1 Y27,4 +1 Y27,5 +1 Y27,6 +1 Y28,0 +1 Y28,1 +1 Y28,2 +1 Y28,3 +1 Y28,4 +1 Y28,5 +1 Y28,6 +1 Y29,0
  +1 Y29,1 +1 Y29,2 +1 Y29,3 +1 Y29,4 +1 Y29,5 +1 Y29,6 +1 Y30,0 +1 Y30,1 +1 Y30,2 +1 Y30,3 +1 Y30,4 +1 Y30,5
  +1 Y30,6 +1 Y31,0 +1 Y31,1 +1 Y31,2 +1 Y31,3 +1 Y31,4 +1 Y31,5 +1 Y31,6 +1 Y32,0 +1 Y32,1 +1 Y32,2 +1 Y32,3
  +1 Y32,4 +1 Y32,5 +1 Y32,6 +1 Y33,0 +1 Y33,1 +1 Y33,2 +1 Y33,3 +1 Y33,4 +1 Y33,5 +1 Y33,6 +1 Y55,0 +1 Y55,1
  +1 Y55,2 +1 Y55,3 +1 Y55,4 +1 Y55,5 +1 Y55,6 +1 Y63,0 +1 Y63,1 +1 Y63,2 +1 Y63,3 +1 Y63,4 +1 Y63,5 +1 Y63,6
  +1 Y64,0 +1 Y64,1 +1 Y64,2 +1 Y64,3 +1 Y64,4 +1 Y64,5 +1 Y64,6 +1 Y65,0 +1 Y65,1 +1 Y65,2 +1 Y65,3 +1 Y65,4
  +1 Y65,5 +1 Y65,6 +1 Y66,0 +1 Y66,1 +1 Y66,2 +1 Y66,3 +1 Y66,4 +1 Y66,5 +1 Y66,6 +1 Y67,0 +1 Y67,1 +1 Y67,2
  +1 Y67,3 +1 Y67,4 +1 Y67,5 +1 Y67,6 +1 Y68,0 +1 Y68,1 +1 Y68,2 +1 Y68,3 +1 Y68,4 +1 Y68,5 +1 Y68,6 +1 Y69,0
  +1 Y69,1 +1 Y69,2 +1 Y69,3 +1 Y69,4 +1 Y69,5 +1 Y69,6 +1 Y91,0 +1 Y91,1 +1 Y91,2 +1 Y91,3 +1 Y91,4 +1 Y91,5
  +1 Y91,6 +1 Y92,0 +1 Y92,1 +1 Y92,2 +1 Y92,3 +1 Y92,4 +1 Y92,5 +1 Y92,6 +1 Y93,0 +1 Y93,1 +1 Y93,2 +1 Y93,3
  +1 Y93,4 +1 Y93,5 +1 Y93,6 +1 Y94,0 +1 Y94,1 +1 Y94,2 +1 Y94,3 +1 Y94,4 +1 Y94,5 +1 Y94,6 +1 Y95,0 +1 Y95,1
  +1 Y95,2 +1 Y95,3 +1 Y95,4 +1 Y95,5 +1 Y95,6 +1 Y96,0 +1 Y96,1 +1 Y96,2 +1 Y96,3 +1 Y96,4 +1 Y96,5 +1 Y96,6
  +1 Y97,0 +1 Y97,1 +1 Y97,2 +1 Y97,3 +1 Y97,4 +1 Y97,5 +1 Y97,6 +1 Y119,0 +1 Y119,1 +1 Y119,2 +1 Y119,3
  +1 Y119,4 +1 Y119,5 +1 Y119,6 +1 Y120,0 +1 Y120,1 +1 Y120,2 +1 Y120,3 +1 Y120,4 +1 Y120,5 +1 Y120,6
  +1 Y121,0 +1 Y121,1 +1 Y121,2 +1 Y121,3 +1 Y121,4 +1 Y121,5 +1 Y121,6 +1 Y122,0 +1 Y122,1 +1 Y122,2
  +1 Y122,3 +1 Y122,4 +1 Y122,5 +1 Y122,6 +1 Y123,0 +1 Y123,1 +1 Y123,2 +1 Y123,3 +1 Y123,4 +1 Y123,5
  +1 Y123,6 +1 Y124,0 +1 Y124,1 +1 Y124,2 +1 Y124,3 +1 Y124,4 +1 Y124,5 +1 Y124,6 +1 Y125,0 +1 Y125,1
  +1 Y125,2 +1 Y125,3 +1 Y125,4 +1 Y125,5 +1 Y125,6 +1 Y126,0 +1 Y126,1 +1 Y126,2 +1 Y126,3 +1 Y126,4
  +1 Y126,5 +1 Y126,6 +1 Y127,0 +1 Y127,1 +1 Y127,2 +1 Y127,3 +1 Y127,4 +1 Y127,5 +1 Y127,6 +1 Y128,0
  +1 Y128,1 +1 Y128,2 +1 Y128,3 +1 Y128,4 +1 Y128,5 +1 Y128,6 +1 Y129,0 +1 Y129,1 +1 Y129,2 +1 Y129,3
  +1 Y129,4 +1 Y129,5 +1 Y129,6 +1 Y130,0 +1 Y130,1 +1 Y130,2 +1 Y130,3 +1 Y130,4 +1 Y130,5 +1 Y130,6
  +1 Y131,0 +1 Y131,1 +1 Y131,2 +1 Y131,3 +1 Y131,4 +1 Y131,5 +1 Y131,6 +1 Y132,0 +1 Y132,1 +1 Y132,2
  +1 Y132,3 +1 Y132,4 +1 Y132,5 +1 Y132,6 +1 Y133,0 +1 Y133,1 +1 Y133,2 +1 Y133,3 +1 Y133,4 +1 Y133,5
  +1 Y133,6 +1 Y134,0 +1 Y134,1 +1 Y134,2 +1 Y134,3 +1 Y134,4 +1 Y134,5 +1 Y134,6 +1 Y135,0 +1 Y135,1
  +1 Y135,2 +1 Y135,3 +1 Y135,4 +1 Y135,5 +1 Y135,6 +1 Y136,0 +1 Y136,1 +1 Y136,2 +1 Y136,3 +1 Y136,4
  +1 Y136,5 +1 Y136,6 +1 Y137,0 +1 Y137,1 +1 Y137,2 +1 Y137,3 +1 Y137,4 +1 Y137,5 +1 Y137,6 +1 Y138,0
  +1 Y138,1 +1 Y138,2 +1 Y138,3 +1 Y138,4 +1 Y138,5 +1 Y138,6 +1 Y139,0 +1 Y139,1 +1 Y139,2 +1 Y139,3
  +1 Y139,4 +1 Y139,5 +1 Y139,6 +1 Y175,0 +1 Y175,1 +1 Y175,2 +1 Y175,3 +1 Y175,4 +1 Y175,5 +1 Y175,6
  +1 Y176,0 +1 Y176,1 +1 Y176,2 +1 Y176,3 +1 Y176,4 +1 Y176,5 +1 Y176,6 +1 Y177,0 +1 Y177,1 +1 Y177,2
  +1 Y177,3 +1 Y177,4 +1 Y177,5 +1 Y177,6 +1 Y178,0 +1 Y178,1 +1 Y178,2 +1 Y178,3 +1 Y178,4 +1 Y178,5
  +1 Y178,6 +1 Y179,0 +1 Y179,1 +1 Y179,2 +1 Y179,3 +1 Y179,4 +1 Y179,5 +1 Y179,6 +1 Y200,0 +1 Y200,1
  +1 Y200,2 +1 Y200,3 +1 Y200,4 +1 Y200,5 +1 Y200,6 +1 Y201,0 +1 Y201,1 +1 Y201,2 +1 Y201,3 +1 Y201,4
  +1 Y201,5 +1 Y201,6 +1 Y202,0 +1 Y202,1 +1 Y202,2 +1 Y202,3 +1 Y202,4 +1 Y202,5 +1 Y202,6 +1 Y203,0
  +1 Y203,1 +1 Y203,2 +1 Y203,3 +1 Y203,4 +1 Y203,5 +1 Y203,6 +1 Y204,0 +1 Y204,1 +1 Y204,2 +1 Y204,3
  +1 Y204,4 +1 Y204,5 +1 Y204,6 +1 Y205,0 +1 Y205,1 +1 Y205,2 +1 Y205,3 +1 Y205,4 +1 Y205,5 +1 Y205,6
  +1 Y206,0 +1 Y206,1 +1 Y206,2 +1 Y206,3 +1 Y206,4 +1 Y206,5 +1 Y206,6 +1 Y207,0 +1 Y207,1 +1 Y207,2
  +1 Y207,3 +1 Y207,4 +1 Y207,5 +1 Y207,6 +1 Y208,0 +1 Y208,1 +1 Y208,2 +1 Y208,3 +1 Y208,4 +1 Y208,5
  +1 Y208,6 +1 Y209,0 +1 Y209,1 +1 Y209,2 +1 Y209,3 +1 Y209,4 +1 Y209,5 +1 Y209,6 +1 Y210,0 +1 Y210,1
  +1 Y210,2 +1 Y210,3 +1 Y210,4 +1 Y210,5 +1 Y210,6 +1 Y211,0 +1 Y211,1 +1 Y211,2 +1 Y211,3 +1 Y211,4
  +1 Y211,5 +1 Y211,6 +1 Y212,0 +1 Y212,1 +1 Y212,2 +1 Y212,3 +1 Y212,4 +1 Y212,5 +1 Y212,6 +1 Y213,0
  +1 Y213,1 +1 Y213,2 +1 Y213,3 +1 Y213,4 +1 Y213,5 +1 Y213,6 +1 Y214,0 +1 Y214,1 +1 Y214,2 +1 Y214,3
  +1 Y214,4 +1 Y214,5 +1 Y214,6 +1 Y215,0 +1 Y215,1 +1 Y215,2 +1 Y215,3 +1 Y215,4 +1 Y215,5 +1 Y215,6
  +1 Y216,0 +1 Y216,1 +1 Y216,2 +1 Y216,3 +1 Y216,4 +1 Y216,5 +1 Y216,6 +1 Y217,0 +1 Y217,1 +1 Y217,2
  +1 Y217,3 +1 Y217,4 +1 Y217,5 +1 Y217,6 +1 Y218,0 +1 Y218,1 +1 Y218,2 +1 Y218,3 +1 Y218,4 +1 Y218,5
  +1 Y218,6 +1 Y219,0 +1 Y219,1 +1 Y219,2 +1 Y219,3 +1 Y219,4 +1 Y219,5 +1 Y219,6 +1 Y255,0 +1 Y255,1
  +1 Y255,2 +1 Y255,3 +1 Y255,4 +1 Y255,5 +1 Y255,6 +1 Y256,0 +1 Y256,1 +1 Y256,2 +1 Y256,3 +1 Y256,4
  +1 Y256,5 +1 Y256,6 +1 Y257,0 +1 Y257,1 +1 Y257,2 +1 Y257,3 +1 Y257,4 +1 Y257,5 +1 Y257,6 +1 Y258,0
  +1 Y258,1 +1 Y258,2 +1 Y258,3 +1 Y258,4 +1 Y258,5 +1 Y258,6 +1 Y259,0 +1 Y259,1 +1 Y259,2 +1 Y259,3
  +1 Y259,4 +1 Y259,5 +1 Y259,6 +1 Y260,0 +1 Y260,1 +1 Y260,2 +1 Y260,3 +1 Y260,4 +1 Y260,5 +1 Y260,6
  +1 Y261,0 +1 Y261,1 +1 Y261,2 +1 Y261,3 +1 Y261,4 +1 Y261,5 +1 Y261,6 +1 Y262,0 +1 Y262,1 +1 Y262,2
  +1 Y262,3 +1 Y262,4 +1 Y262,5 +1 Y262,6 +1 Y263,0 +1 Y263,1 +1 Y263,2 +1 Y263,3 +1 Y263,4 +1 Y263,5
  +1 Y263,6 +1 Y264,0 +1 Y264,1 +1 Y264,2 +1 Y264,3 +1 Y264,4 +1 Y264,5 +1 Y264,6 +1 Y265,0 +1 Y265,1
  +1 Y265,2 +1 Y265,3 +1 Y265,4 +1 Y265,5 +1 Y265,6 +1 Y266,0 +1 Y266,1 +1 Y266,2 +1 Y266,3 +1 Y266,4
  +1 Y266,5 +1 Y266,6 +1 Y267,0 +1 Y267,1 +1 Y267,2 +1 Y267,3 +1 Y267,4 +1 Y267,5 +1 Y267,6 +1 Y268,0
  +1 Y268,1 +1 Y268,2 +1 Y268,3 +1 Y268,4 +1 Y268,5 +1 Y268,6 +1 Y269,0 +1 Y269,1 +1 Y269,2 +1 Y269,3
  +1 Y269,4 +1 Y269,5 +1 Y269,6 +1 Y270,0 +1 Y270,1 +1 Y270,2 +1 Y270,3 +1 Y270,4 +1 Y270,5 +1 Y270,6
  +1 Y271,0 +1 Y271,1 +1 Y271,2 +1 Y271,3 +1 Y271,4 +1 Y271,5 +1 Y271,6 +1 Y272,0 +1 Y272,1 +1 Y272,2
  +1 Y272,3 +1 Y272,4 +1 Y272,5 +1 Y272,6 +1 Y273,0 +1 Y273,1 +1 Y273,2 +1 Y273,3 +1 Y273,4 +1 Y273,5
  +1 Y273,6 +1 Y274,0 +1 Y274,1 +1 Y274,2 +1 Y274,3 +1 Y274,4 +1 Y274,5 +1 Y274,6 +1 Y310,0 +1 Y310,1
  +1 Y310,2 +1 Y310,3 +1 Y310,4 +1 Y310,5 +1 Y310,6 +1 Y311,0 +1 Y311,1 +1 Y311,2 +1 Y311,3 +1 Y311,4
  +1 Y311,5 +1 Y311,6 +1 Y312,0 +1 Y312,1 +1 Y312,2 +1 Y312,3 +1 Y312,4 +1 Y312,5 +1 Y312,6 +1 Y313,0
  +1 Y313,1 +1 Y313,2 +1 Y313,3 +1 Y313,4 +1 Y313,5 +1 Y313,6 +1 Y314,0 +1 Y314,1 +1 Y314,2 +1 Y314,3
  +1 Y314,4 +1 Y314,5 +1 Y314,6 +1 Y315,0 +1 Y315,1 +1 Y315,2 +1 Y315,3 +1 Y315,4 +1 Y315,5 +1 Y315,6
  +1 Y316,0 +1 Y316,1 +1 Y316,2 +1 Y316,3 +1 Y316,4 +1 Y316,5 +1 Y316,6 +1 Y317,0 +1 Y317,1 +1 Y317,2
  +1 Y317,3 +1 Y317,4 +1 Y317,5 +1 Y317,6 +1 Y318,0 +1 Y318,1 +1 Y318,2 +1 Y318,3 +1 Y318,4 +1 Y318,5
  +1 Y318,6 +1 Y319,0 +1 Y319,1 +1 Y319,2 +1 Y319,3 +1 Y319,4 +1 Y319,5 +1 Y319,6 +1 Y320,0 +1 Y320,1
  +1 Y320,2 +1 Y320,3 +1 Y320,4 +1 Y320,5 +1 Y320,6 +1 Y321,0 +1 Y321,1 +1 Y321,2 +1 Y321,3 +1 Y321,4
  +1 Y321,5 +1 Y321,6 +1 Y322,0 +1 Y322,1 +1 Y322,2 +1 Y322,3 +1 Y322,4 +1 Y322,5 +1 Y322,6 +1 Y323,0
  +1 Y323,1 +1 Y323,2 +1 Y323,3 +1 Y323,4 +1 Y323,5 +1 Y323,6 +1 Y324,0 +1 Y324,1 +1 Y324,2 +1 Y324,3
  +1 Y324,4 +1 Y324,5 +1 Y324,6 +1 Y325,0 +1 Y325,1 +1 Y325,2 +1 Y325,3 +1 Y325,4 +1 Y325,5 +1 Y325,6
  +1 Y326,0 +1 Y326,1 +1 Y326,2 +1 Y326,3 +1 Y326,4 +1 Y326,5 +1 Y326,6 +1 Y327,0 +1 Y327,1 +1 Y327,2
  +1 Y327,3 +1 Y327,4 +1 Y327,5 +1 Y327,6 +1 Y328,0 +1 Y328,1 +1 Y328,2 +1 Y328,3 +1 Y328,4 +1 Y328,5
  +1 Y328,6 +1 Y329,0 +1 Y329,1 +1 Y329,2 +1 Y329,3 +1 Y329,4 +1 Y329,5 +1 Y329,6 +1 Y330,0 +1 Y330,1
  +1 Y330,2 +1 Y330,3 +1 Y330,4 +1 Y330,5 +1 Y330,6 +1 Y331,0 +1 Y331,1 +1 Y331,2 +1 Y331,3 +1 Y331,4
  +1 Y331,5 +1 Y331,6 +1 Y332,0 +1 Y332,1 +1 Y332,2 +1 Y332,3 +1 Y332,4 +1 Y332,5 +1 Y332,6 +1 Y333,0
  +1 Y333,1 +1 Y333,2 +1 Y333,3 +1 Y333,4 +1 Y333,5 +1 Y333,6 +1 Y334,0 +1 Y334,1 +1 Y334,2 +1 Y334,3
  +1 Y334,4 +1 Y334,5 +1 Y334,6 +1 Y335,0 +1 Y335,1 +1 Y335,2 +1 Y335,3 +1 Y335,4 +1 Y335,5 +1 Y335,6
  +1 Y336,0 +1 Y336,1 +1 Y336,2 +1 Y336,3 +1 Y336,4 +1 Y336,5 +1 Y336,6 +1 Y337,0 +1 Y337,1 +1 Y337,2
  +1 Y337,3 +1 Y337,4 +1 Y337,5 +1 Y337,6 +1 Y338,0 +1 Y338,1 +1 Y338,2 +1 Y338,3 +1 Y338,4 +1 Y338,5
  +1 Y338,6 +1 Y339,0 +1 Y339,1 +1 Y339,2 +1 Y339,3 +1 Y339,4 +1 Y339,5 +1 Y339,6 +1 Y340,0 +1 Y340,1
  +1 Y340,2 +1 Y340,3 +1 Y340,4 +1 Y340,5 +1 Y340,6 +1 Y341,0 +1 Y341,1 +1 Y341,2 +1 Y341,3 +1 Y341,4
  +1 Y341,5 +1 Y341,6 +1 Y377,0 +1 Y377,1 +1 Y377,2 +1 Y377,3 +1 Y377,4 +1 Y377,5 +1 Y377,6 +1 Y378,0
  +1 Y378,1 +1 Y378,2 +1 Y378,3 +1 Y378,4 +1 Y378,5 +1 Y378,6 +1 Y391,0 +1 Y391,1 +1 Y391,2 +1 Y391,3
  +1 Y391,4 +1 Y391,5 +1 Y391,6 +1 Y392,0 +1 Y392,1 +1 Y392,2 +1 Y392,3 +1 Y392,4 +1 Y392,5 +1 Y392,6
  +1 Y393,0 +1 Y393,1 +1 Y393,2 +1 Y393,3 +1 Y393,4 +1 Y393,5 +1 Y393,6 +1 Y394,0 +1 Y394,1 +1 Y394,2
  +1 Y394,3 +1 Y394,4 +1 Y394,5 +1 Y394,6 +1 Y395,0 +1 Y395,1 +1 Y395,2 +1 Y395,3 +1 Y395,4 +1 Y395,5
  +1 Y395,6 +1 Y396,0 +1 Y396,1 +1 Y396,2 +1 Y396,3 +1 Y396,4 +1 Y396,5 +1 Y396,6 +1 Y397,0 +1 Y397,1
  +1 Y397,2 +1 Y397,3 +1 Y397,4 +1 Y397,5 +1 Y397,6 +1 Y398,0 +1 Y398,1 +1 Y398,2 +1 Y398,3 +1 Y398,4
  +1 Y398,5 +1 Y398,6 +1 Y399,0 +1 Y399,1 +1 Y399,2 +1 Y399,3 +1 Y399,4 +1 Y399,5 +1 Y399,6 +1 Y400,0
  +1 Y400,1 +1 Y400,2 +1 Y400,3 +1 Y400,4 +1 Y400,5 +1 Y400,6 +1 Y426,0 +1 Y426,1 +1 Y426,2 +1 Y426,3
  +1 Y426,4 +1 Y426,5 +1 Y426,6 +1 Y427,0 +1 Y427,1 +1 Y427,2 +1 Y427,3 +1 Y427,4 +1 Y427,5 +1 Y427,6
  +1 Y428,0 +1 Y428,1 +1 Y428,2 +1 Y428,3 +1 Y428,4 +1 Y428,5 +1 Y428,6 +1 Y429,0 +1 Y429,1 +1 Y429,2
  +1 Y429,3 +1 Y429,4 +1 Y429,5 +1 Y429,6 +1 Y430,0 +1 Y430,1 +1 Y430,2 +1 Y430,3 +1 Y430,4 +1 Y430,5
  +1 Y430,6 +1 Y431,0 +1 Y431,1 +1 Y431,2 +1 Y431,3 +1 Y431,4 +1 Y431,5 +1 Y431,6 +1 Y432,0 +1 Y432,1
  +1 Y432,2 +1 Y432,3 +1 Y432,4 +1 Y432,5 +1 Y432,6 +1 Y433,0 +1 Y433,1 +1 Y433,2 +1 Y433,3 +1 Y433,4
  +1 Y433,5 +1 Y433,6 +1 Y434,0 +1 Y434,1 +1 Y434,2 +1 Y434,3 +1 Y434,4 +1 Y434,5 +1 Y434,6 +1 Y435,0
  +1 Y435,1 +1 Y435,2 +1 Y435,3 +1 Y435,4 +1 Y435,5 +1 Y435,6 +1 Y461,0 +1 Y461,1 +1 Y461,2 +1 Y461,3
  +1 Y461,4 +1 Y461,5 +1 Y461,6 +1 Y462,0 +1 Y462,1 +1 Y462,2 +1 Y462,3 +1 Y462,4 +1 Y462,5 +1 Y462,6
  +1 Y463,0 +1 Y463,1 +1 Y463,2 +1 Y463,3 +1 Y463,4 +1 Y463,5 +1 Y463,6 +1 Y464,0 +1 Y464,1 +1 Y464,2
  +1 Y464,3 +1 Y464,4 +1 Y464,5 +1 Y464,6 +1 Y465,0 +1 Y465,1 +1 Y465,2 +1 Y465,3 +1 Y465,4 +1 Y465,5
  +1 Y465,6 +1 Y466,0 +1 Y466,1 +1 Y466,2 +1 Y466,3 +1 Y466,4 +1 Y466,5 +1 Y466,6 +1 Y467,0 +1 Y467,1
  +1 Y467,2 +1 Y467,3 +1 Y467,4 +1 Y467,5 +1 Y467,6 +1 Y468,0 +1 Y468,1 +1 Y468,2 +1 Y468,3 +1 Y468,4
  +1 Y468,5 +1 Y468,6 +1 Y469,0 +1 Y469,1 +1 Y469,2 +1 Y469,3 +1 Y469,4 +1 Y469,5 +1 Y469,6 +1 Y470,0
  +1 Y470,1 +1 Y470,2 +1 Y470,3 +1 Y470,4 +1 Y470,5 +1 Y470,6 +1 Y471,0 +1 Y471,1 +1 Y471,2 +1 Y471,3
  +1 Y471,4 +1 Y471,5 +1 Y471,6 +1 Y472,0 +1 Y472,1 +1 Y472,2 +1 Y472,3 +1 Y472,4 +1 Y472,5 +1 Y472,6
  +1 Y473,0 +1 Y473,1 +1 Y473,2 +1 Y473,3 +1 Y473,4 +1 Y473,5 +1 Y473,6 +1 Y474,0 +1 Y474,1 +1 Y474,2
  +1 Y474,3 +1 Y474,4 +1 Y474,5 +1 Y474,6 +1 Y475,0 +1 Y475,1 +1 Y475,2 +1 Y475,3 +1 Y475,4 +1 Y475,5
  +1 Y475,6 +1 Y476,0 +1 Y476,1 +1 Y476,2 +1 Y476,3 +1 Y476,4 +1 Y476,5 +1 Y476,6 +1 Y477,0 +1 Y477,1
  +1 Y477,2 +1 Y477,3 +1 Y477,4 +1 Y477,5 +1 Y477,6 +1 Y478,0 +1 Y478,1 +1 Y478,2 +1 Y478,3 +1 Y478,4
  +1 Y478,5 +1 Y478,6 +1 Y479,0 +1 Y479,1 +1 Y479,2 +1 Y479,3 +1 Y479,4 +1 Y479,5 +1 Y479,6 +1 Y480,0
  +1 Y480,1 +1 Y480,2 +1 Y480,3 +1 Y480,4 +1 Y480,5 +1 Y480,6 +1 Y481,0 +1 Y481,1 +1 Y481,2 +1 Y481,3
  +1 Y481,4 +1 Y481,5 +1 Y481,6 +1 Y482,0 +1 Y482,1 +1 Y482,2 +1 Y482,3 +1 Y482,4 +1 Y482,5 +1 Y482,6
  +1 Y483,0 +1 Y483,1 +1 Y483,2 +1 Y483,3 +1 Y483,4 +1 Y483,5 +1 Y483,6 +1 Y484,0 +1 Y484,1 +1 Y484,2
  +1 Y484,3 +1 Y484,4 +1 Y484,5 +1 Y484,6 +1 Y485,0 +1 Y485,1 +1 Y485,2 +1 Y485,3 +1 Y485,4 +1 Y485,5
  +1 Y485,6 +1 Y512,0 +1 Y512,1 +1 Y512,2 +1 Y512,3 +1 Y512,4 +1 Y512,5 +1 Y512,6 +1 Y513,0 +1 Y513,1
  +1 Y513,2 +1 Y513,3 +1 Y513,4 +1 Y513,5 +1 Y513,6 +1 Y514,0 +1 Y514,1 +1 Y514,2 +1 Y514,3 +1 Y514,4
  +1 Y514,5 +1 Y514,6 +1 Y515,0 +1 Y515,1 +1 Y515,2 +1 Y515,3 +1 Y515,4 +1 Y515,5 +1 Y515,6 +1 Y524,0
  +1 Y524,1 +1 Y524,2 +1 Y524,3 +1 Y524,4 +1 Y524,5 +1 Y524,6 +1 Y525,0 +1 Y525,1 +1 Y525,2 +1 Y525,3
  +1 Y525,4 +1 Y525,5 +1 Y525,6 +1 Y526,0 +1 Y526,1 +1 Y526,2 +1 Y526,3 +1 Y526,4 +1 Y526,5 +1 Y526,6
  +1 Y527,0 +1 Y527,1 +1 Y527,2 +1 Y527,3 +1 Y527,4 +1 Y527,5 +1 Y527,6 +1 Y536,0 +1 Y536,1 +1 Y536,2
  +1 Y536,3 +1 Y536,4 +1 Y536,5 +1 Y536,6 +1 Y537,0 +1 Y537,1 +1 Y537,2 +1 Y537,3 +1 Y537,4 +1 Y537,5
  +1 Y537,6 +1 Y538,0 +1 Y538,1 +1 Y538,2 +1 Y538,3 +1 Y538,4 +1 Y538,5 +1 Y538,6 = +1
 c12: +1 Y580,0 +1 Y580,1 +1 Y580,2 +1 Y580,3 +1 Y580,4 +1 Y580,5 +1 Y580,6 +1 Y586,0 +1 Y586,1 +1 Y586,2
  +1 Y586,3 +1 Y586,4 +1 Y586,5 +1 Y586,6 +1 Y592,0 +1 Y592,1 +1 Y592,2 +1 Y592,3 +1 Y592,4 +1 Y592,5
  +1 Y592,6 +1 Y593,0 +1 Y593,1 +1 Y593,2 +1 Y593,3 +1 Y593,4 +1 Y593,5 +1 Y593,6 +1 Y594,0 +1 Y594,1
  +1 Y594,2 +1 Y594,3 +1 Y594,4 +1 Y594,5 +1 Y594,6 +1 Y595,0 +1 Y595,1 +1 Y595,2 +1 Y595,3 +1 Y595,4
  +1 Y595,5 +1 Y595,6 +1 Y596,0 +1 Y596,1 +1 Y596,2 +1 Y596,3 +1 Y596,4 +1 Y596,5 +1 Y596,6 +1 Y607,0
  +1 Y607,1 +1 Y607,2 +1 Y607,3 +1 Y607,4 +1 Y607,5 +1 Y607,6 +1 Y608,0 +1 Y608,1 +1 Y608,2 +1 Y608,3
  +1 Y608,4 +1 Y608,5 +1 Y608,6 +1 Y609,0 +1 Y609,1 +1 Y609,2 +1 Y609,3 +1 Y609,4 +1 Y609,5 +1 Y609,6
  +1 Y610,0 +1 Y610,1 +1 Y610,2 +1 Y610,3 +1 Y610,4 +1 Y610,5 +1 Y610,6 +1 Y611,0 +1 Y611,1 +1 Y611,2
  +1 Y611,3 +1 Y611,4 +1 Y611,5 +1 Y611,6 +1 Y622,0 +1 Y622,1 +1 Y622,2 +1 Y622,3 +1 Y622,4 +1 Y622,5
  +1 Y622,6 +1 Y623,0 +1 Y623,1 +1 Y623,2 +1 Y623,3 +1 Y623,4 +1 Y623,5 +1 Y623,6 +1 Y624,0 +1 Y624,1
  +1 Y624,2 +1 Y624,3 +1 Y624,4 +1 Y624,5 +1 Y624,6 +1 Y625,0 +1 Y625,1 +1 Y625,2 +1 Y625,3 +1 Y625,4
  +1 Y625,5 +1 Y625,6 +1 Y626,0 +1 Y626,1 +1 Y626,2 +1 Y626,3 +1 Y626,4 +1 Y626,5 +1 Y626,6 +1 Y627,0
  +1 Y627,1 +1 Y627,2 +1 Y627,3 +1 Y627,4 +1 Y627,5 +1 Y627,6 +1 Y628,0 +1 Y628,1 +1 Y628,2 +1 Y628,3
  +1 Y628,4 +1 Y628,5 +1 Y628,6 +1 Y629,0 +1 Y629,1 +1 Y629,2 +1 Y629,3 +1 Y629,4 +1 Y629,5 +1 Y629,6
  +1 Y630,0 +1 Y630,1 +1 Y630,2 +1 Y630,3 +1 Y630,4 +1 Y630,5 +1 Y630,6 +1 Y631,0 +1 Y631,1 +1 Y631,2
  +1 Y631,3 +1 Y631,4 +1 Y631,5 +1 Y631,6 +1 Y642,0 +1 Y642,1 +1 Y642,2 +1 Y642,3 +1 Y642,4 +1 Y642,5
  +1 Y642,6 +1 Y643,0 +1 Y643,1 +1 Y643,2 +1 Y643,3 +1 Y643,4 +1 Y643,5 +1 Y643,6 +1 Y644,0 +1 Y644,1
  +1 Y644,2 +1 Y644,3 +1 Y644,4 +1 Y644,5 +1 Y644,6 +1 Y645,0 +1 Y645,1 +1 Y645,2 +1 Y645,3 +1 Y645,4
  +1 Y645,5 +1 Y645,6 +1 Y646,0 +1 Y646,1 +1 Y646,2 +1 Y646,3 +1 Y646,4 +1 Y646,5 +1 Y646,6 +1 Y647,0
  +1 Y647,1 +1 Y647,2 +1 Y647,3 +1 Y647,4 +1 Y647,5 +1 Y647,6 +1 Y648,0 +1 Y648,1 +1 Y648,2 +1 Y648,3
  +1 Y648,4 +1 Y648,5 +1 Y648,6 +1 Y649,0 +1 Y649,1 +1 Y649,2 +1 Y649,3 +1 Y649,4 +1 Y649,5 +1 Y649,6
  +1 Y650,0 +1 Y650,1 +1 Y650,2 +1 Y650,3 +1 Y650,4 +1 Y650,5 +1 Y650,6 +1 Y651,0 +1 Y651,1 +1 Y651,2
  +1 Y651,3 +1 Y651,4 +1 Y651,5 +1 Y651,6 +1 Y662,0 +1 Y662,1 +1 Y662,2 +1 Y662,3 +1 Y662,4 +1 Y662,5
  +1 Y662,6 +1 Y663,0 +1 Y663,1 +1 Y663,2 +1 Y663,3 +1 Y663,4 +1 Y663,5 +1 Y663,6 +1 Y664,0 +1 Y664,1
  +1 Y664,2 +1 Y664,3 +1 Y664,4 +1 Y664,5 +1 Y664,6 +1 Y665,0 +1 Y665,1 +1 Y665,2 +1 Y665,3 +1 Y665,4
  +1 Y665,5 +1 Y665,6 +1 Y666,0 +1 Y666,1 +1 Y666,2 +1 Y666,3 +1 Y666,4 +1 Y666,5 +1 Y666,6 +1 Y667,0
  +1 Y667,1 +1 Y667,2 +1 Y667,3 +1 Y667,4 +1 Y667,5 +1 Y667,6 +1 Y668,0 +1 Y668,1 +1 Y668,2 +1 Y668,3
  +1 Y668,4 +1 Y668,5 +1 Y668,6 +1 Y669,0 +1 Y669,1 +1 Y669,2 +1 Y669,3 +1 Y669,4 +1 Y669,5 +1 Y669,6
  +1 Y670,0 +1 Y670,1 +1 Y670,2 +1 Y670,3 +1 Y670,4 +1 Y670,5 +1 Y670,6 +1 Y671,0 +1 Y671,1 +1 Y671,2
  +1 Y671,3 +1 Y671,4 +1 Y671,5 +1 Y671,6 +1 Y677,0 +1 Y677,1 +1 Y677,2 +1 Y677,3 +1 Y677,4 +1 Y677,5
  +1 Y677,6 +1 Y678,0 +1 Y678,1 +1 Y678,2 +1 Y678,3 +1 Y678,4 +1 Y678,5 +1 Y678,6 +1 Y679,0 +1 Y679,1
  +1 Y679,2 +1 Y679,3 +1 Y679,4 +1 Y679,5 +1 Y679,6 +1 Y680,0 +1 Y680,1 +1 Y680,2 +1 Y680,3 +1 Y680,4
  +1 Y680,5 +1 Y680,6 +1 Y681,0 +1 Y681,1 +1 Y681,2 +1 Y681,3 +1 Y681,4 +1 Y681,5 +1 Y681,6 +1 Y682,0
  +1 Y682,1 +1 Y682,2 +1 Y682,3 +1 Y682,4 +1 Y682,5 +1 Y682,6 +1 Y683,0 +1 Y683,1 +1 Y683,2 +1 Y683,3
  +1 Y683,4 +1 Y683,5 +1 Y683,6 +1 Y684,0 +1 Y684,1 +1 Y684,2 +1 Y684,3 +1 Y684,4 +1 Y684,5 +1 Y684,6
  +1 Y685,0 +1 Y685,1 +1 Y685,2 +1 Y685,3 +1 Y685,4 +1 Y685,5 +1 Y685,6 +1 Y686,0 +1 Y686,1 +1 Y686,2
  +1 Y686,3 +1 Y686,4 +1 Y686,5 +1 Y686,6 +1 Y690,0 +1 Y690,1 +1 Y690,2 +1 Y690,3 +1 Y690,4 +1 Y690,5
  +1 Y690,6 +1 Y691,0 +1 Y691,1 +1 Y691,2 +1 Y691,3 +1 Y691,4 +1 Y691,5 +1 Y691,6 +1 Y692,0 +1 Y692,1
  +1 Y692,2 +1 Y692,3 +1 Y692,4 +1 Y692,5 +1 Y692,6 +1 Y693,0 +1 Y693,1 +1 Y693,2 +1 Y693,3 +1 Y693,4
  +1 Y693,5 +1 Y693,6 +1 Y694,0 +1 Y694,1 +1 Y694,2 +1 Y694,3 +1 Y694,4 +1 Y694,5 +1 Y694,6 +1 Y696,0
  +1 Y696,1 +1 Y696,2 +1 Y696,3 +1 Y696,4 +1 Y696,5 +1 Y696,6 = +1
 c13: +1 Y3,0 +1 Y3,1 +1 Y3,2 +1 Y3,3 +1 Y3,4 +1 Y3,5 +1 Y3,6 +1 Y12,0 +1 Y12,1 +1 Y12,2 +1 Y12,3 +1 Y12,4
  +1 Y12,5 +1 Y12,6 +1 Y20,0 +1 Y20,1 +1 Y20,2 +1 Y20,3 +1 Y20,4 +1 Y20,5 +1 Y20,6 +1 Y27,0 +1 Y27,1 +1 Y27,2
  +1 Y27,3 +1 Y27,4 +1 Y27,5 +1 Y27,6 +1 Y34,0 +1 Y34,1 +1 Y34,2 +1 Y34,3 +1 Y34,4 +1 Y34,5 +1 Y34,6 +1 Y35,0
  +1 Y35,1 +1 Y35,2 +1 Y35,3 +1 Y35,4 +1 Y35,5 +1 Y35,6 +1 Y36,0 +1 Y36,1 +1 Y36,2 +1 Y36,3 +1 Y36,4 +1 Y36,5
  +1 Y36,6 +1 Y37,0 +1 Y37,1 +1 Y37,2 +1 Y37,3 +1 Y37,4 +1 Y37,5 +1 Y37,6 +1 Y38,0 +1 Y38,1 +1 Y38,2 +1 Y38,3
  +1 Y38,4 +1 Y38,5 +1 Y38,6 +1 Y39,0 +1 Y39,1 +1 Y39,2 +1 Y39,3 +1 Y39,4 +1 Y39,5 +1 Y39,6 +1 Y56,0 +1 Y56,1
  +1 Y56,2 +1 Y56,3 +1 Y56,4 +1 Y56,5 +1 Y56,6 +1 Y63,0 +1 Y63,1 +1 Y63,2 +1 Y63,3 +1 Y63,4 +1 Y63,5 +1 Y63,6
  +1 Y70,0 +1 Y70,1 +1 Y70,2 +1 Y70,3 +1 Y70,4 +1 Y70,5 +1 Y70,6 +1 Y71,0 +1 Y71,1 +1 Y71,2 +1 Y71,3 +1 Y71,4
  +1 Y71,5 +1 Y71,6 +1 Y72,0 +1 Y72,1 +1 Y72,2 +1 Y72,3 +1 Y72,4 +1 Y72,5 +1 Y72,6 +1 Y73,0 +1 Y73,1 +1 Y73,2
  +1 Y73,3 +1 Y73,4 +1 Y73,5 +1 Y73,6 +1 Y74,0 +1 Y74,1 +1 Y74,2 +1 Y74,3 +1 Y74,4 +1 Y74,5 +1 Y74,6 +1 Y75,0
  +1 Y75,1 +1 Y75,2 +1 Y75,3 +1 Y75,4 +1 Y75,5 +1 Y75,6 +1 Y91,0 +1 Y91,1 +1 Y91,2 +1 Y91,3 +1 Y91,4 +1 Y91,5
  +1 Y91,6 +1 Y98,0 +1 Y98,1 +1 Y98,2 +1 Y98,3 +1 Y98,4 +1 Y98,5 +1 Y98,6 +1 Y99,0 +1 Y99,1 +1 Y99,2 +1 Y99,3
  +1 Y99,4 +1 Y99,5 +1 Y99,6 +1 Y100,0 +1 Y100,1 +1 Y100,2 +1 Y100,3 +1 Y100,4 +1 Y100,5 +1 Y100,6 +1 Y101,0
  +1 Y101,1 +1 Y101,2 +1 Y101,3 +1 Y101,4 +1 Y101,5 +1 Y101,6 +1 Y102,0 +1 Y102,1 +1 Y102,2 +1 Y102,3
  +1 Y102,4 +1 Y102,5 +1 Y102,6 +1 Y103,0 +1 Y103,1 +1 Y103,2 +1 Y103,3 +1 Y103,4 +1 Y103,5 +1 Y103,6
  +1 Y119,0 +1 Y119,1 +1 Y119,2 +1 Y119,3 +1 Y119,4 +1 Y119,5 +1 Y119,6 +1 Y120,0 +1 Y120,1 +1 Y120,2
  +1 Y120,3 +1 Y120,4 +1 Y120,5 +1 Y120,6 +1 Y121,0 +1 Y121,1 +1 Y121,2 +1 Y121,3 +1 Y121,4 +1 Y121,5
  +1 Y121,6 +1 Y122,0 +1 Y122,1 +1 Y122,2 +1 Y122,3 +1 Y122,4 +1 Y122,5 +1 Y122,6 +1 Y123,0 +1 Y123,1
  +1 Y123,2 +1 Y123,3 +1 Y123,4 +1 Y123,5 +1 Y123,6 +1 Y124,0 +1 Y124,1 +1 Y124,2 +1 Y124,3 +1 Y124,4
  +1 Y124,5 +1 Y124,6 +1 Y140,0 +1 Y140,1 +1 Y140,2 +1 Y140,3 +1 Y140,4 +1 Y140,5 +1 Y140,6 +1 Y141,0
  +1 Y141,1 +1 Y141,2 +1 Y141,3 +1 Y141,4 +1 Y141,5 +1 Y141,6 +1 Y142,0 +1 Y142,1 +1 Y142,2 +1 Y142,3
  +1 Y142,4 +1 Y142,5 +1 Y142,6 +1 Y143,0 +1 Y143,1 +1 Y143,2 +1 Y143,3 +1 Y143,4 +1 Y143,5 +1 Y143,6
  +1 Y144,0 +1 Y144,1 +1 Y144,2 +1 Y144,3 +1 Y144,4 +1 Y144,5 +1 Y144,6 +1 Y145,0 +1 Y145,1 +1 Y145,2
  +1 Y145,3 +1 Y145,4 +1 Y145,5 +1 Y145,6 +1 Y146,0 +1 Y146,1 +1 Y146,2 +1 Y146,3 +1 Y146,4 +1 Y146,5
  +1 Y146,6 +1 Y147,0 +1 Y147,1 +1 Y147,2 +1 Y147,3 +1 Y147,4 +1 Y147,5 +1 Y147,6 +1 Y148,0 +1 Y148,1
  +1 Y148,2 +1 Y148,3 +1 Y148,4 +1 Y148,5 +1 Y148,6 +1 Y149,0 +1 Y149,1 +1 Y149,2 +1 Y149,3 +1 Y149,4
  +1 Y149,5 +1 Y149,6 +1 Y150,0 +1 Y150,1 +1 Y150,2 +1 Y150,3 +1 Y150,4 +1 Y150,5 +1 Y150,6 +1 Y151,0
  +1 Y151,1 +1 Y151,2 +1 Y151,3 +1 Y151,4 +1 Y151,5 +1 Y151,6 +1 Y152,0 +1 Y152,1 +1 Y152,2 +1 Y152,3
  +1 Y152,4 +1 Y152,5 +1 Y152,6 +1 Y153,0 +1 Y153,1 +1 Y153,2 +1 Y153,3 +1 Y153,4 +1 Y153,5 +1 Y153,6
  +1 Y154,0 +1 Y154,1 +1 Y154,2 +1 Y154,3 +1 Y154,4 +1 Y154,5 +1 Y154,6 +1 Y180,0 +1 Y180,1 +1 Y180,2
  +1 Y180,3 +1 Y180,4 +1 Y180,5 +1 Y180,6 +1 Y181,0 +1 Y181,1 +1 Y181,2 +1 Y181,3 +1 Y181,4 +1 Y181,5
  +1 Y181,6 +1 Y182,0 +1 Y182,1 +1 Y182,2 +1 Y182,3 +1 Y182,4 +1 Y182,5 +1 Y182,6 +1 Y183,0 +1 Y183,1
  +1 Y183,2 +1 Y183,3 +1 Y183,4 +1 Y183,5 +1 Y183,6 +1 Y184,0 +1 Y184,1 +1 Y184,2 +1 Y184,3 +1 Y184,4
  +1 Y184,5 +1 Y184,6 +1 Y200,0 +1 Y200,1 +1 Y200,2 +1 Y200,3 +1 Y200,4 +1 Y200,5 +1 Y200,6 +1 Y201,0
  +1 Y201,1 +1 Y201,2 +1 Y201,3 +1 Y201,4 +1 Y201,5 +1 Y201,6 +1 Y202,0 +1 Y202,1 +1 Y202,2 +1 Y202,3
  +1 Y202,4 +1 Y202,5 +1 Y202,6 +1 Y203,0 +1 Y203,1 +1 Y203,2 +1 Y203,3 +1 Y203,4 +1 Y203,5 +1 Y203,6
  +1 Y204,0 +1 Y204,1 +1 Y204,2 +1 Y204,3 +1 Y204,4 +1 Y204,5 +1 Y204,6 +1 Y220,0 +1 Y220,1 +1 Y220,2
  +1 Y220,3 +1 Y220,4 +1 Y220,5 +1 Y220,6 +1 Y221,0 +1 Y221,1 +1 Y221,2 +1 Y221,3 +1 Y221,4 +1 Y221,5
  +1 Y221,6 +1 Y222,0 +1 Y222,1 +1 Y222,2 +1 Y222,3 +1 Y222,4 +1 Y222,5 +1 Y222,6 +1 Y223,0 +1 Y223,1
  +1 Y223,2 +1 Y223,3 +1 Y223,4 +1 Y223,5 +1 Y223,6 +1 Y224,0 +1 Y224,1 +1 Y224,2 +1 Y224,3 +1 Y224,4
  +1 Y224,5 +1 Y224,6 +1 Y225,0 +1 Y225,1 +1 Y225,2 +1 Y225,3 +1 Y225,4 +1 Y225,5 +1 Y225,6 +1 Y226,0
  +1 Y226,1 +1 Y226,2 +1 Y226,3 +1 Y226,4 +1 Y226,5 +1 Y226,6 +1 Y227,0 +1 Y227,1 +1 Y227,2 +1 Y227,3
  +1 Y227,4 +1 Y227,5 +1 Y227,6 +1 Y228,0 +1 Y228,1 +1 Y228,2 +1 Y228,3 +1 Y228,4 +1 Y228,5 +1 Y228,6
  +1 Y229,0 +1 Y229,1 +1 Y229,2 +1 Y229,3 +1 Y229,4 +1 Y229,5 +1 Y229,6 +1 Y230,0 +1 Y230,1 +1 Y230,2
  +1 Y230,3 +1 Y230,4 +1 Y230,5 +1 Y230,6 +1 Y231,0 +1 Y231,1 +1 Y231,2 +1 Y231,3 +1 Y231,4 +1 Y231,5
  +1 Y231,6 +1 Y232,0 +1 Y232,1 +1 Y232,2 +1 Y232,3 +1 Y232,4 +1 Y232,5 +1 Y232,6 +1 Y233,0 +1 Y233,1
  +1 Y233,2 +1 Y233,3 +1 Y233,4 +1 Y233,5 +1 Y233,6 +1 Y234,0 +1 Y234,1 +1 Y234,2 +1 Y234,3 +1 Y234,4
  +1 Y234,5 +1 Y234,6 +1 Y255,0 +1 Y255,1 +1 Y255,2 +1 Y255,3 +1 Y255,4 +1 Y255,5 +1 Y255,6 +1 Y256,0
  +1 Y256,1 +1 Y256,2 +1 Y256,3 +1 Y256,4 +1 Y256,5 +1 Y256,6 +1 Y257,0 +1 Y257,1 +1 Y257,2 +1 Y257,3
  +1 Y257,4 +1 Y257,5 +1 Y257,6 +1 Y258,0 +1 Y258,1 +1 Y258,2 +1 Y258,3 +1 Y258,4 +1 Y258,5 +1 Y258,6
  +1 Y259,0 +1 Y259,1 +1 Y259,2 +1 Y259,3 +1 Y259,4 +1 Y259,5 +1 Y259,6 +1 Y275,0 +1 Y275,1 +1 Y275,2
  +1 Y275,3 +1 Y275,4 +1 Y275,5 +1 Y275,6 +1 Y276,0 +1 Y276,1 +1 Y276,2 +1 Y276,3 +1 Y276,4 +1 Y276,5
  +1 Y276,6 +1 Y277,0 +1 Y277,1 +1 Y277,2 +1 Y277,3 +1 Y277,4 +1 Y277,5 +1 Y277,6 +1 Y278,0 +1 Y278,1
  +1 Y278,2 +1 Y278,3 +1 Y278,4 +1 Y278,5 +1 Y278,6 +1 Y279,0 +1 Y279,1 +1 Y279,2 +1 Y279,3 +1 Y279,4
  +1 Y279,5 +1 Y279,6 +1 Y280,0 +1 Y280,1 +1 Y280,2 +1 Y280,3 +1 Y280,4 +1 Y280,5 +1 Y280,6 +1 Y281,0
  +1 Y281,1 +1 Y281,2 +1 Y281,3 +1 Y281,4 +1 Y281,5 +1 Y281,6 +1 Y282,0 +1 Y282,1 +1 Y282,2 +1 Y282,3
  +1 Y282,4 +1 Y282,5 +1 Y282,6 +1 Y283,0 +1 Y283,1 +1 Y283,2 +1 Y283,3 +1 Y283,4 +1 Y283,5 +1 Y283,6
  +1 Y284,0 +1 Y284,1 +1 Y284,2 +1 Y284,3 +1 Y284,4 +1 Y284,5 +1 Y284,6 +1 Y285,0 +1 Y285,1 +1 Y285,2
  +1 Y285,3 +1 Y285,4 +1 Y285,5 +1 Y285,6 +1 Y286,0 +1 Y286,1 +1 Y286,2 +1 Y286,3 +1 Y286,4 +1 Y286,5
  +1 Y286,6 +1 Y287,0 +1 Y287,1 +1 Y287,2 +1 Y287,3 +1 Y287,4 +1 Y287,5 +1 Y287,6 +1 Y288,0 +1 Y288,1
  +1 Y288,2 +1 Y288,3 +1 Y288,4 +1 Y288,5 +1 Y288,6 +1 Y289,0 +1 Y289,1 +1 Y289,2 +1 Y289,3 +1 Y289,4
  +1 Y289,5 +1 Y289,6 +1 Y310,0 +1 Y310,1 +1 Y310,2 +1 Y310,3 +1 Y310,4 +1 Y310,5 +1 Y310,6 +1 Y311,0
  +1 Y311,1 +1 Y311,2 +1 Y311,3 +1 Y311,4 +1 Y311,5 +1 Y311,6 +1 Y312,0 +1 Y312,1 +1 Y312,2 +1 Y312,3
  +1 Y312,4 +1 Y312,5 +1 Y312,6 +1 Y313,0 +1 Y313,1 +1 Y313,2 +1 Y313,3 +1 Y313,4 +1 Y313,5 +1 Y313,6
  +1 Y314,0 +1 Y314,1 +1 Y314,2 +1 Y314,3 +1 Y314,4 +1 Y314,5 +1 Y314,6 +1 Y315,0 +1 Y315,1 +1 Y315,2
  +1 Y315,3 +1 Y315,4 +1 Y315,5 +1 Y315,6 +1 Y316,0 +1 Y316,1 +1 Y316,2 +1 Y316,3 +1 Y316,4 +1 Y316,5
  +1 Y316,6 +1 Y317,0 +1 Y317,1 +1 Y317,2 +1 Y317,3 +1 Y317,4 +1 Y317,5 +1 Y317,6 +1 Y318,0 +1 Y318,1
  +1 Y318,2 +1 Y318,3 +1 Y318,4 +1 Y318,5 +1 Y318,6 +1 Y319,0 +1 Y319,1 +1 Y319,2 +1 Y319,3 +1 Y319,4
  +1 Y319,5 +1 Y319,6 +1 Y320,0 +1 Y320,1 +1 Y320,2 +1 Y320,3 +1 Y320,4 +1 Y320,5 +1 Y320,6 +1 Y321,0
  +1 Y321,1 +1 Y321,2 +1 Y321,3 +1 Y321,4 +1 Y321,5 +1 Y321,6 +1 Y342,0 +1 Y342,1 +1 Y342,2 +1 Y342,3
  +1 Y342,4 +1 Y342,5 +1 Y342,6 +1 Y343,0 +1 Y343,1 +1 Y343,2 +1 Y343,3 +1 Y343,4 +1 Y343,5 +1 Y343,6
  +1 Y344,0 +1 Y344,1 +1 Y344,2 +1 Y344,3 +1 Y344,4 +1 Y344,5 +1 Y344,6 +1 Y345,0 +1 Y345,1 +1 Y345,2
  +1 Y345,3 +1 Y345,4 +1 Y345,5 +1 Y345,6 +1 Y346,0 +1 Y346,1 +1 Y346,2 +1 Y346,3 +1 Y346,4 +1 Y346,5
  +1 Y346,6 +1 Y347,0 +1 Y347,1 +1 Y347,2 +1 Y347,3 +1 Y347,4 +1 Y347,5 +1 Y347,6 +1 Y348,0 +1 Y348,1
  +1 Y348,2 +1 Y348,3 +1 Y348,4 +1 Y348,5 +1 Y348,6 +1 Y349,0 +1 Y349,1 +1 Y349,2 +1 Y349,3 +1 Y349,4
  +1 Y349,5 +1 Y349,6 +1 Y350,0 +1 Y350,1 +1 Y350,2 +1 Y350,3 +1 Y350,4 +1 Y350,5 +1 Y350,6 +1 Y351,0
  +1 Y351,1 +1 Y351,2 +1 Y351,3 +1 Y351,4 +1 Y351,5 +1 Y351,6 +1 Y352,0 +1 Y352,1 +1 Y352,2 +1 Y352,3
  +1 Y352,4 +1 Y352,5 +1 Y352,6 +1 Y353,0 +1 Y353,1 +1 Y353,2 +1 Y353,3 +1 Y353,4 +1 Y353,5 +1 Y353,6
  +1 Y354,0 +1 Y354,1 +1 Y354,2 +1 Y354,3 +1 Y354,4 +1 Y354,5 +1 Y354,6 +1 Y355,0 +1 Y355,1 +1 Y355,2
  +1 Y355,3 +1 Y355,4 +1 Y355,5 +1 Y355,6 +1 Y356,0 +1 Y356,1 +1 Y356,2 +1 Y356,3 +1 Y356,4 +1 Y356,5
  +1 Y356,6 +1 Y357,0 +1 Y357,1 +1 Y357,2 +1 Y357,3 +1 Y357,4 +1 Y357,5 +1 Y357,6 +1 Y358,0 +1 Y358,1
  +1 Y358,2 +1 Y358,3 +1 Y358,4 +1 Y358,5 +1 Y358,6 +1 Y359,0 +1 Y359,1 +1 Y359,2 +1 Y359,3 +1 Y359,4
  +1 Y359,5 +1 Y359,6 +1 Y360,0 +1 Y360,1 +1 Y360,2 +1 Y360,3 +1 Y360,4 +1 Y360,5 +1 Y360,6 +1 Y361,0
  +1 Y361,1 +1 Y361,2 +1 Y361,3 +1 Y361,4 +1 Y361,5 +1 Y361,6 +1 Y379,0 +1 Y379,1 +1 Y379,2 +1 Y379,3
  +1 Y379,4 +1 Y379,5 +1 Y379,6 +1 Y401,0 +1 Y401,1 +1 Y401,2 +1 Y401,3 +1 Y401,4 +1 Y401,5 +1 Y401,6
  +1 Y402,0 +1 Y402,1 +1 Y402,2 +1 Y402,3 +1 Y402,4 +1 Y402,5 +1 Y402,6 +1 Y403,0 +1 Y403,1 +1 Y403,2
  +1 Y403,3 +1 Y403,4 +1 Y403,5 +1 Y403,6 +1 Y404,0 +1 Y404,1 +1 Y404,2 +1 Y404,3 +1 Y404,4 +1 Y404,5
  +1 Y404,6 +1 Y405,0 +1 Y405,1 +1 Y405,2 +1 Y405,3 +1 Y405,4 +1 Y405,5 +1 Y405,6 +1 Y406,0 +1 Y406,1
  +1 Y406,2 +1 Y406,3 +1 Y406,4 +1 Y406,5 +1 Y406,6 +1 Y407,0 +1 Y407,1 +1 Y407,2 +1 Y407,3 +1 Y407,4
  +1 Y407,5 +1 Y407,6 +1 Y408,0 +1 Y408,1 +1 Y408,2 +1 Y408,3 +1 Y408,4 +1 Y408,5 +1 Y408,6 +1 Y409,0
  +1 Y409,1 +1 Y409,2 +1 Y409,3 +1 Y409,4 +1 Y409,5 +1 Y409,6 +1 Y410,0 +1 Y410,1 +1 Y410,2 +1 Y410,3
  +1 Y410,4 +1 Y410,5 +1 Y410,6 +1 Y436,0 +1 Y436,1 +1 Y436,2 +1 Y436,3 +1 Y436,4 +1 Y436,5 +1 Y436,6
  +1 Y437,0 +1 Y437,1 +1 Y437,2 +1 Y437,3 +1 Y437,4 +1 Y437,5 +1 Y437,6 +1 Y438,0 +1 Y438,1 +1 Y438,2
  +1 Y438,3 +1 Y438,4 +1 Y438,5 +1 Y438,6 +1 Y439,0 +1 Y439,1 +1 Y439,2 +1 Y439,3 +1 Y439,4 +1 Y439,5
  +1 Y439,6 +1 Y440,0 +1 Y440,1 +1 Y440,2 +1 Y440,3 +1 Y440,4 +1 Y440,5 +1 Y440,6 +1 Y441,0 +1 Y441,1
  +1 Y441,2 +1 Y441,3 +1 Y441,4 +1 Y441,5 +1 Y441,6 +1 Y442,0 +1 Y442,1 +1 Y442,2 +1 Y442,3 +1 Y442,4
  +1 Y442,5 +1 Y442,6 +1 Y443,0 +1 Y443,1 +1 Y443,2 +1 Y443,3 +1 Y443,4 +1 Y443,5 +1 Y443,6 +1 Y444,0
  +1 Y444,1 +1 Y444,2 +1 Y444,3 +1 Y444,4 +1 Y444,5 +1 Y444,6 +1 Y445,0 +1 Y445,1 +1 Y445,2 +1 Y445,3
  +1 Y445,4 +1 Y445,5 +1 Y445,6 +1 Y461,0 +1 Y461,1 +1 Y461,2 +1 Y461,3 +1 Y461,4 +1 Y461,5 +1 Y461,6
  +1 Y462,0 +1 Y462,1 +1 Y462,2 +1 Y462,3 +1 Y462,4 +1 Y462,5 +1 Y462,6 +1 Y463,0 +1 Y463,1 +1 Y463,2
  +1 Y463,3 +1 Y463,4 +1 Y463,5 +1 Y463,6 +1 Y464,0 +1 Y464,1 +1 Y464,2 +1 Y464,3 +1 Y464,4 +1 Y464,5
  +1 Y464,6 +1 Y465,0 +1 Y465,1 +1 Y465,2 +1 Y465,3 +1 Y465,4 +1 Y465,5 +1 Y465,6 +1 Y466,0 +1 Y466,1
  +1 Y466,2 +1 Y466,3 +1 Y466,4 +1 Y466,5 +1 Y466,6 +1 Y467,0 +1 Y467,1 +1 Y467,2 +1 Y467,3 +1 Y467,4
  +1 Y467,5 +1 Y467,6 +1 Y468,0 +1 Y468,1 +1 Y468,2 +1 Y468,3 +1 Y468,4 +1 Y468,5 +1 Y468,6 +1 Y469,0
  +1 Y469,1 +1 Y469,2 +1 Y469,3 +1 Y469,4 +1 Y469,5 +1 Y469,6 +1 Y470,0 +1 Y470,1 +1 Y470,2 +1 Y470,3
  +1 Y470,4 +1 Y470,5 +1 Y470,6 +1 Y486,0 +1 Y486,1 +1 Y486,2 +1 Y486,3 +1 Y486,4 +1 Y486,5 +1 Y486,6
  +1 Y487,0 +1 Y487,1 +1 Y487,2 +1 Y487,3 +1 Y487,4 +1 Y487,5 +1 Y487,6 +1 Y488,0 +1 Y488,1 +1 Y488,2
  +1 Y488,3 +1 Y488,4 +1 Y488,5 +1 Y488,6 +1 Y489,0 +1 Y489,1 +1 Y489,2 +1 Y489,3 +1 Y489,4 +1 Y489,5
  +1 Y489,6 +1 Y490,0 +1 Y490,1 +1 Y490,2 +1 Y490,3 +1 Y490,4 +1 Y490,5 +1 Y490,6 +1 Y491,0 +1 Y491,1
  +1 Y491,2 +1 Y491,3 +1 Y491,4 +1 Y491,5 +1 Y491,6 +1 Y492,0 +1 Y492,1 +1 Y492,2 +1 Y492,3 +1 Y492,4
  +1 Y492,5 +1 Y492,6 +1 Y493,0 +1 Y493,1 +1 Y493,2 +1 Y493,3 +1 Y493,4 +1 Y493,5 +1 Y493,6 +1 Y494,0
  +1 Y494,1 +1 Y494,2 +1 Y494,3 +1 Y494,4 +1 Y494,5 +1 Y494,6 +1 Y495,0 +1 Y495,1 +1 Y495,2 +1 Y495,3
  +1 Y495,4 +1 Y495,5 +1 Y495,6 +1 Y496,0 +1 Y496,1 +1 Y496,2 +1 Y496,3 +1 Y496,4 +1 Y496,5 +1 Y496,6
  +1 Y497,0 +1 Y497,1 +1 Y497,2 +1 Y497,3 +1 Y497,4 +1 Y497,5 +1 Y497,6 +1 Y498,0 +1 Y498,1 +1 Y498,2
  +1 Y498,3 +1 Y498,4 +1 Y498,5 +1 Y498,6 +1 Y499,0 +1 Y499,1 +1 Y499,2 +1 Y499,3 +1 Y499,4 +1 Y499,5
  +1 Y499,6 +1 Y500,0 +1 Y500,1 +1 Y500,2 +1 Y500,3 +1 Y500,4 +1 Y500,5 +1 Y500,6 +1 Y516,0 +1 Y516,1
  +1 Y516,2 +1 Y516,3 +1 Y516,4 +1 Y516,5 +1 Y516,6 +1 Y517,0 +1 Y517,1 +1 Y517,2 +1 Y517,3 +1 Y517,4
  +1 Y517,5 +1 Y517,6 +1 Y518,0 +1 Y518,1 +1 Y518,2 +1 Y518,3 +1 Y518,4 +1 Y518,5 +1 Y518,6 +1 Y528,0
  +1 Y528,1 +1 Y528,2 +1 Y528,3 +1 Y528,4 +1 Y528,5 +1 Y528,6 +1 Y529,0 +1 Y529,1 +1 Y529,2 +1 Y529,3
  +1 Y529,4 +1 Y529,5 +1 Y529,6 +1 Y530,0 +1 Y530,1 +1 Y530,2 +1 Y530,3 +1 Y530,4 +1 Y530,5 +1 Y530,6
  +1 Y536,0 +1 Y536,1 +1 Y536,2 +1 Y536,3 +1 Y536,4 +1 Y536,5 +1 Y536,6 +1 Y539,0 +1 Y539,1 +1 Y539,2
  +1 Y539,3 +1 Y539,4 +1 Y539,5 +1 Y539,6 = +1
 c14: +1 Y727,0 +1 Y727,1 +1 Y727,2 +1 Y727,3 +1 Y727,4 +1 Y727,5 +1 Y727,6 +1 Y732,0 +1 Y732,1 +1 Y732,2
  +1 Y732,3 +1 Y732,4 +1 Y732,5 +1 Y732,6 +1 Y733,0 +1 Y733,1 +1 Y733,2 +1 Y733,3 +1 Y733,4 +1 Y733,5
  +1 Y733,6 +1 Y734,0 +1 Y734,1 +1 Y734,2 +1 Y734,3 +1 Y734,4 +1 Y734,5 +1 Y734,6 +1 Y735,0 +1 Y735,1
  +1 Y735,2 +1 Y735,3 +1 Y735,4 +1 Y735,5 +1 Y735,6 +1 Y742,0 +1 Y742,1 +1 Y742,2 +1 Y742,3 +1 Y742,4
  +1 Y742,5 +1 Y742,6 +1 Y743,0 +1 Y743,1 +1 Y743,2 +1 Y743,3 +1 Y743,4 +1 Y743,5 +1 Y743,6 +1 Y744,0
  +1 Y744,1 +1 Y744,2 +1 Y744,3 +1 Y744,4 +1 Y744,5 +1 Y744,6 +1 Y745,0 +1 Y745,1 +1 Y745,2 +1 Y745,3
  +1 Y745,4 +1 Y745,5 +1 Y745,6 +1 Y746,0 +1 Y746,1 +1 Y746,2 +1 Y746,3 +1 Y746,4 +1 Y746,5 +1 Y746,6
  +1 Y747,0 +1 Y747,1 +1 Y747,2 +1 Y747,3 +1 Y747,4 +1 Y747,5 +1 Y747,6 +1 Y752,0 +1 Y752,1 +1 Y752,2
  +1 Y752,3 +1 Y752,4 +1 Y752,5 +1 Y752,6 +1 Y753,0 +1 Y753,1 +1 Y753,2 +1 Y753,3 +1 Y753,4 +1 Y753,5
  +1 Y753,6 +1 Y754,0 +1 Y754,1 +1 Y754,2 +1 Y754,3 +1 Y754,4 +1 Y754,5 +1 Y754,6 +1 Y755,0 +1 Y755,1
  +1 Y755,2 +1 Y755,3 +1 Y755,4 +1 Y755,5 +1 Y755,6 +1 Y757,0 +1 Y757,1 +1 Y757,2 +1 Y757,3 +1 Y757,4
  +1 Y757,5 +1 Y757,6 = +1
 c15: +1 Y714,0 +1 Y714,1 +1 Y714,2 +1 Y714,3 +1 Y714,4 +1 Y714,5 +1 Y714,6 +1 Y717,0 +1 Y717,1 +1 Y717,2
  +1 Y717,3 +1 Y717,4 +1 Y717,5 +1 Y717,6 +1 Y719,0 +1 Y719,1 +1 Y719,2 +1 Y719,3 +1 Y719,4 +1 Y719,5
  +1 Y719,6 +1 Y721,0 +1 Y721,1 +1 Y721,2 +1 Y721,3 +1 Y721,4 +1 Y721,5 +1 Y721,6 +1 Y722,0 +1 Y722,1
  +1 Y722,2 +1 Y722,3 +1 Y722,4 +1 Y722,5 +1 Y722,6 +1 Y724,0 +1 Y724,1 +1 Y724,2 +1 Y724,3 +1 Y724,4
  +1 Y724,5 +1 Y724,6 +1 Y725,0 +1 Y725,1 +1 Y725,2 +1 Y725,3 +1 Y725,4 +1 Y725,5 +1 Y725,6 +1 Y726,0
  +1 Y726,1 +1 Y726,2 +1 Y726,3 +1 Y726,4 +1 Y726,5 +1 Y726,6 = +1
 c16: +1 Y758,0 +1 Y758,1 +1 Y758,2 +1 Y758,3 +1 Y758,4 +1 Y758,5 +1 Y758,6 +1 Y765,0 +1 Y765,1 +1 Y765,2
  +1 Y765,3 +1 Y765,4 +1 Y765,5 +1 Y765,6 +1 Y766,0 +1 Y766,1 +1 Y766,2 +1 Y766,3 +1 Y766,4 +1 Y766,5
  +1 Y766,6 +1 Y767,0 +1 Y767,1 +1 Y767,2 +1 Y767,3 +1 Y767,4 +1 Y767,5 +1 Y767,6 +1 Y768,0 +1 Y768,1
  +1 Y768,2 +1 Y768,3 +1 Y768,4 +1 Y768,5 +1 Y768,6 +1 Y769,0 +1 Y769,1 +1 Y769,2 +1 Y769,3 +1 Y769,4
  +1 Y769,5 +1 Y769,6 +1 Y770,0 +1 Y770,1 +1 Y770,2 +1 Y770,3 +1 Y770,4 +1 Y770,5 +1 Y770,6 +1 Y786,0
  +1 Y786,1 +1 Y786,2 +1 Y786,3 +1 Y786,4 +1 Y786,5 +1 Y786,6 +1 Y787,0 +1 Y787,1 +1 Y787,2 +1 Y787,3
  +1 Y787,4 +1 Y787,5 +1 Y787,6 +1 Y788,0 +1 Y788,1 +1 Y788,2 +1 Y788,3 +1 Y788,4 +1 Y788,5 +1 Y788,6
  +1 Y789,0 +1 Y789,1 +1 Y789,2 +1 Y789,3 +1 Y789,4 +1 Y789,5 +1 Y789,6 +1 Y790,0 +1 Y790,1 +1 Y790,2
  +1 Y790,3 +1 Y790,4 +1 Y790,5 +1 Y790,6 +1 Y791,0 +1 Y791,1 +1 Y791,2 +1 Y791,3 +1 Y791,4 +1 Y791,5
  +1 Y791,6 +1 Y792,0 +1 Y792,1 +1 Y792,2 +1 Y792,3 +1 Y792,4 +1 Y792,5 +1 Y792,6 +1 Y793,0 +1 Y793,1
  +1 Y793,2 +1 Y793,3 +1 Y793,4 +1 Y793,5 +1 Y793,6 +1 Y794,0 +1 Y794,1 +1 Y794,2 +1 Y794,3 +1 Y794,4
  +1 Y794,5 +1 Y794,6 +1 Y795,0 +1 Y795,1 +1 Y795,2 +1 Y795,3 +1 Y795,4 +1 Y795,5 +1 Y795,6 +1 Y796,0
  +1 Y796,1 +1 Y796,2 +1 Y796,3 +1 Y796,4 +1 Y796,5 +1 Y796,6 +1 Y797,0 +1 Y797,1 +1 Y797,2 +1 Y797,3
  +1 Y797,4 +1 Y797,5 +1 Y797,6 +1 Y798,0 +1 Y798,1 +1 Y798,2 +1 Y798,3 +1 Y798,4 +1 Y798,5 +1 Y798,6
  +1 Y799,0 +1 Y799,1 +1 Y799,2 +1 Y799,3 +1 Y799,4 +1 Y799,5 +1 Y799,6 +1 Y800,0 +1 Y800,1 +1 Y800,2
  +1 Y800,3 +1 Y800,4 +1 Y800,5 +1 Y800,6 +1 Y821,0 +1 Y821,1 +1 Y821,2 +1 Y821,3 +1 Y821,4 +1 Y821,5
  +1 Y821,6 +1 Y822,0 +1 Y822,1 +1 Y822,2 +1 Y822,3 +1 Y822,4 +1 Y822,5 +1 Y822,6 +1 Y823,0 +1 Y823,1
  +1 Y823,2 +1 Y823,3 +1 Y823,4 +1 Y823,5 +1 Y823,6 +1 Y824,0 +1 Y824,1 +1 Y824,2 +1 Y824,3 +1 Y824,4
  +1 Y824,5 +1 Y824,6 +1 Y825,0 +1 Y825,1 +1 Y825,2 +1 Y825,3 +1 Y825,4 +1 Y825,5 +1 Y825,6 +1 Y826,0
  +1 Y826,1 +1 Y826,2 +1 Y826,3 +1 Y826,4 +1 Y826,5 +1 Y826,6 +1 Y827,0 +1 Y827,1 +1 Y827,2 +1 Y827,3
  +1 Y827,4 +1 Y827,5 +1 Y827,6 +1 Y828,0 +1 Y828,1 +1 Y828,2 +1 Y828,3 +1 Y828,4 +1 Y828,5 +1 Y828,6
  +1 Y829,0 +1 Y829,1 +1 Y829,2 +1 Y829,3 +1 Y829,4 +1 Y829,5 +1 Y829,6 +1 Y830,0 +1 Y830,1 +1 Y830,2
  +1 Y830,3 +1 Y830,4 +1 Y830,5 +1 Y830,6 +1 Y831,0 +1 Y831,1 +1 Y831,2 +1 Y831,3 +1 Y831,4 +1 Y831,5
  +1 Y831,6 +1 Y832,0 +1 Y832,1 +1 Y832,2 +1 Y832,3 +1 Y832,4 +1 Y832,5 +1 Y832,6 +1 Y833,0 +1 Y833,1
  +1 Y833,2 +1 Y833,3 +1 Y833,4 +1 Y833,5 +1 Y833,6 +1 Y834,0 +1 Y834,1 +1 Y834,2 +1 Y834,3 +1 Y834,4
  +1 Y834,5 +1 Y834,6 +1 Y835,0 +1 Y835,1 +1 Y835,2 +1 Y835,3 +1 Y835,4 +1 Y835,5 +1 Y835,6 +1 Y836,0
  +1 Y836,1 +1 Y836,2 +1 Y836,3 +1 Y836,4 +1 Y836,5 +1 Y836,6 +1 Y837,0 +1 Y837,1 +1 Y837,2 +1 Y837,3
  +1 Y837,4 +1 Y837,5 +1 Y837,6 +1 Y838,0 +1 Y838,1 +1 Y838,2 +1 Y838,3 +1 Y838,4 +1 Y838,5 +1 Y838,6
  +1 Y839,0 +1 Y839,1 +1 Y839,2 +1 Y839,3 +1 Y839,4 +1 Y839,5 +1 Y839,6 +1 Y840,0 +1 Y840,1 +1 Y840,2
  +1 Y840,3 +1 Y840,4 +1 Y840,5 +1 Y840,6 +1 Y856,0 +1 Y856,1 +1 Y856,2 +1 Y856,3 +1 Y856,4 +1 Y856,5
  +1 Y856,6 +1 Y857,0 +1 Y857,1 +1 Y857,2 +1 Y857,3 +1 Y857,4 +1 Y857,5 +1 Y857,6 +1 Y858,0 +1 Y858,1
  +1 Y858,2 +1 Y858,3 +1 Y858,4 +1 Y858,5 +1 Y858,6 +1 Y859,0 +1 Y859,1 +1 Y859,2 +1 Y859,3 +1 Y859,4
  +1 Y859,5 +1 Y859,6 +1 Y860,0 +1 Y860,1 +1 Y860,2 +1 Y860,3 +1 Y860,4 +1 Y860,5 +1 Y860,6 +1 Y861,0
  +1 Y861,1 +1 Y861,2 +1 Y861,3 +1 Y861,4 +1 Y861,5 +1 Y861,6 +1 Y862,0 +1 Y862,1 +1 Y862,2 +1 Y862,3
  +1 Y862,4 +1 Y862,5 +1 Y862,6 +1 Y863,0 +1 Y863,1 +1 Y863,2 +1 Y863,3 +1 Y863,4 +1 Y863,5 +1 Y863,6
  +1 Y864,0 +1 Y864,1 +1 Y864,2 +1 Y864,3 +1 Y864,4 +1 Y864,5 +1 Y864,6 +1 Y865,0 +1 Y865,1 +1 Y865,2
  +1 Y865,3 +1 Y865,4 +1 Y865,5 +1 Y865,6 +1 Y866,0 +1 Y866,1 +1 Y866,2 +1 Y866,3 +1 Y866,4 +1 Y866,5
  +1 Y866,6 +1 Y867,0 +1 Y867,1 +1 Y867,2 +1 Y867,3 +1 Y867,4 +1 Y867,5 +1 Y867,6 +1 Y868,0 +1 Y868,1
  +1 Y868,2 +1 Y868,3 +1 Y868,4 +1 Y868,5 +1 Y868,6 +1 Y869,0 +1 Y869,1 +1 Y869,2 +1 Y869,3 +1 Y869,4
  +1 Y869,5 +1 Y869,6 +1 Y870,0 +1 Y870,1 +1 Y870,2 +1 Y870,3 +1 Y870,4 +1 Y870,5 +1 Y870,6 +1 Y877,0
  +1 Y877,1 +1 Y877,2 +1 Y877,3 +1 Y877,4 +1 Y877,5 +1 Y877,6 +1 Y878,0 +1 Y878,1 +1 Y878,2 +1 Y878,3
  +1 Y878,4 +1 Y878,5 +1 Y878,6 = +1
 c17: +1 Y550,0 +1 Y550,1 +1 Y550,2 +1 Y550,3 +1 Y550,4 +1 Y550,5 +1 Y550,6 +1 Y554,0 +1 Y554,1 +1 Y554,2
  +1 Y554,3 +1 Y554,4 +1 Y554,5 +1 Y554,6 +1 Y557,0 +1 Y557,1 +1 Y557,2 +1 Y557,3 +1 Y557,4 +1 Y557,5
  +1 Y557,6 +1 Y560,0 +1 Y560,1 +1 Y560,2 +1 Y560,3 +1 Y560,4 +1 Y560,5 +1 Y560,6 +1 Y561,0 +1 Y561,1
  +1 Y561,2 +1 Y561,3 +1 Y561,4 +1 Y561,5 +1 Y561,6 +1 Y563,0 +1 Y563,1 +1 Y563,2 +1 Y563,3 +1 Y563,4
  +1 Y563,5 +1 Y563,6 +1 Y566,0 +1 Y566,1 +1 Y566,2 +1 Y566,3 +1 Y566,4 +1 Y566,5 +1 Y566,6 +1 Y567,0
  +1 Y567,1 +1 Y567,2 +1 Y567,3 +1 Y567,4 +1 Y567,5 +1 Y567,6 +1 Y569,0 +1 Y569,1 +1 Y569,2 +1 Y569,3
  +1 Y569,4 +1 Y569,5 +1 Y569,6 +1 Y570,0 +1 Y570,1 +1 Y570,2 +1 Y570,3 +1 Y570,4 +1 Y570,5 +1 Y570,6
  +1 Y572,0 +1 Y572,1 +1 Y572,2 +1 Y572,3 +1 Y572,4 +1 Y572,5 +1 Y572,6 +1 Y573,0 +1 Y573,1 +1 Y573,2
  +1 Y573,3 +1 Y573,4 +1 Y573,5 +1 Y573,6 +1 Y574,0 +1 Y574,1 +1 Y574,2 +1 Y574,3 +1 Y574,4 +1 Y574,5
  +1 Y574,6 +1 Y576,0 +1 Y576,1 +1 Y576,2 +1 Y576,3 +1 Y576,4 +1 Y576,5 +1 Y576,6 +1 Y577,0 +1 Y577,1
  +1 Y577,2 +1 Y577,3 +1 Y577,4 +1 Y577,5 +1 Y577,6 +1 Y578,0 +1 Y578,1 +1 Y578,2 +1 Y578,3 +1 Y578,4
  +1 Y578,5 +1 Y578,6 = +1
 c18: +1 Y4,0 +1 Y4,1 +1 Y4,2 +1 Y4,3 +1 Y4,4 +1 Y4,5 +1 Y4,6 +1 Y13,0 +1 Y13,1 +1 Y13,2 +1 Y13,3 +1 Y13,4
  +1 Y13,5 +1 Y13,6 +1 Y21,0 +1 Y21,1 +1 Y21,2 +1 Y21,3 +1 Y21,4 +1 Y21,5 +1 Y21,6 +1 Y28,0 +1 Y28,1 +1 Y28,2
  +1 Y28,3 +1 Y28,4 +1 Y28,5 +1 Y28,6 +1 Y34,0 +1 Y34,1 +1 Y34,2 +1 Y34,3 +1 Y34,4 +1 Y34,5 +1 Y34,6 +1 Y40,0
  +1 Y40,1 +1 Y40,2 +1 Y40,3 +1 Y40,4 +1 Y40,5 +1 Y40,6 +1 Y41,0 +1 Y41,1 +1 Y41,2 +1 Y41,3 +1 Y41,4 +1 Y41,5
  +1 Y41,6 +1 Y42,0 +1 Y42,1 +1 Y42,2 +1 Y42,3 +1 Y42,4 +1 Y42,5 +1 Y42,6 +1 Y43,0 +1 Y43,1 +1 Y43,2 +1 Y43,3
  +1 Y43,4 +1 Y43,5 +1 Y43,6 +1 Y44,0 +1 Y44,1 +1 Y44,2 +1 Y44,3 +1 Y44,4 +1 Y44,5 +1 Y44,6 +1 Y57,0 +1 Y57,1
  +1 Y57,2 +1 Y57,3 +1 Y57,4 +1 Y57,5 +1 Y57,6 +1 Y64,0 +1 Y64,1 +1 Y64,2 +1 Y64,3 +1 Y64,4 +1 Y64,5 +1 Y64,6
  +1 Y70,0 +1 Y70,1 +1 Y70,2 +1 Y70,3 +1 Y70,4 +1 Y70,5 +1 Y70,6 +1 Y76,0 +1 Y76,1 +1 Y76,2 +1 Y76,3 +1 Y76,4
  +1 Y76,5 +1 Y76,6 +1 Y77,0 +1 Y77,1 +1 Y77,2 +1 Y77,3 +1 Y77,4 +1 Y77,5 +1 Y77,6 +1 Y78,0 +1 Y78,1 +1 Y78,2
  +1 Y78,3 +1 Y78,4 +1 Y78,5 +1 Y78,6 +1 Y79,0 +1 Y79,1 +1 Y79,2 +1 Y79,3 +1 Y79,4 +1 Y79,5 +1 Y79,6 +1 Y80,0
  +1 Y80,1 +1 Y80,2 +1 Y80,3 +1 Y80,4 +1 Y80,5 +1 Y80,6 +1 Y92,0 +1 Y92,1 +1 Y92,2 +1 Y92,3 +1 Y92,4 +1 Y92,5
  +1 Y92,6 +1 Y98,0 +1 Y98,1 +1 Y98,2 +1 Y98,3 +1 Y98,4 +1 Y98,5 +1 Y98,6 +1 Y104,0 +1 Y104,1 +1 Y104,2
  +1 Y104,3 +1 Y104,4 +1 Y104,5 +1 Y104,6 +1 Y105,0 +1 Y105,1 +1 Y105,2 +1 Y105,3 +1 Y105,4 +1 Y105,5
  +1 Y105,6 +1 Y106,0 +1 Y106,1 +1 Y106,2 +1 Y106,3 +1 Y106,4 +1 Y106,5 +1 Y106,6 +1 Y107,0 +1 Y107,1
  +1 Y107,2 +1 Y107,3 +1 Y107,4 +1 Y107,5 +1 Y107,6 +1 Y108,0 +1 Y108,1 +1 Y108,2 +1 Y108,3 +1 Y108,4
  +1 Y108,5 +1 Y108,6 +1 Y119,0 +1 Y119,1 +1 Y119,2 +1 Y119,3 +1 Y119,4 +1 Y119,5 +1 Y119,6 +1 Y125,0
  +1 Y125,1 +1 Y125,2 +1 Y125,3 +1 Y125,4 +1 Y125,5 +1 Y125,6 +1 Y126,0 +1 Y126,1 +1 Y126,2 +1 Y126,3
  +1 Y126,4 +1 Y126,5 +1 Y126,6 +1 Y127,0 +1 Y127,1 +1 Y127,2 +1 Y127,3 +1 Y127,4 +1 Y127,5 +1 Y127,6
  +1 Y128,0 +1 Y128,1 +1 Y128,2 +1 Y128,3 +1 Y128,4 +1 Y128,5 +1 Y128,6 +1 Y129,0 +1 Y129,1 +1 Y129,2
  +1 Y129,3 +1 Y129,4 +1 Y129,5 +1 Y129,6 +1 Y140,0 +1 Y140,1 +1 Y140,2 +1 Y140,3 +1 Y140,4 +1 Y140,5
  +1 Y140,6 +1 Y141,0 +1 Y141,1 +1 Y141,2 +1 Y141,3 +1 Y141,4 +1 Y141,5 +1 Y141,6 +1 Y142,0 +1 Y142,1
  +1 Y142,2 +1 Y142,3 +1 Y142,4 +1 Y142,5 +1 Y142,6 +1 Y143,0 +1 Y143,1 +1 Y143,2 +1 Y143,3 +1 Y143,4
  +1 Y143,5 +1 Y143,6 +1 Y144,0 +1 Y144,1 +1 Y144,2 +1 Y144,3 +1 Y144,4 +1 Y144,5 +1 Y144,6 +1 Y155,0
  +1 Y155,1 +1 Y155,2 +1 Y155,3 +1 Y155,4 +1 Y155,5 +1 Y155,6 +1 Y156,0 +1 Y156,1 +1 Y156,2 +1 Y156,3
  +1 Y156,4 +1 Y156,5 +1 Y156,6 +1 Y157,0 +1 Y157,1 +1 Y157,2 +1 Y157,3 +1 Y157,4 +1 Y157,5 +1 Y157,6
  +1 Y158,0 +1 Y158,1 +1 Y158,2 +1 Y158,3 +1 Y158,4 +1 Y158,5 +1 Y158,6 +1 Y159,0 +1 Y159,1 +1 Y159,2
  +1 Y159,3 +1 Y159,4 +1 Y159,5 +1 Y159,6 +1 Y160,0 +1 Y160,1 +1 Y160,2 +1 Y160,3 +1 Y160,4 +1 Y160,5
  +1 Y160,6 +1 Y161,0 +1 Y161,1 +1 Y161,2 +1 Y161,3 +1 Y161,4 +1 Y161,5 +1 Y161,6 +1 Y162,0 +1 Y162,1
  +1 Y162,2 +1 Y162,3 +1 Y162,4 +1 Y162,5 +1 Y162,6 +1 Y163,0 +1 Y163,1 +1 Y163,2 +1 Y163,3 +1 Y163,4
  +1 Y163,5 +1 Y163,6 +1 Y164,0 +1 Y164,1 +1 Y164,2 +1 Y164,3 +1 Y164,4 +1 Y164,5 +1 Y164,6 +1 Y175,0
  +1 Y175,1 +1 Y175,2 +1 Y175,3 +1 Y175,4 +1 Y175,5 +1 Y175,6 +1 Y180,0 +1 Y180,1 +1 Y180,2 +1 Y180,3
  +1 Y180,4 +1 Y180,5 +1 Y180,6 +1 Y185,0 +1 Y185,1 +1 Y185,2 +1 Y185,3 +1 Y185,4 +1 Y185,5 +1 Y185,6
  +1 Y186,0 +1 Y186,1 +1 Y186,2 +1 Y186,3 +1 Y186,4 +1 Y186,5 +1 Y186,6 +1 Y187,0 +1 Y187,1 +1 Y187,2
  +1 Y187,3 +1 Y187,4 +1 Y187,5 +1 Y187,6 +1 Y188,0 +1 Y188,1 +1 Y188,2 +1 Y188,3 +1 Y188,4 +1 Y188,5
  +1 Y188,6 +1 Y189,0 +1 Y189,1 +1 Y189,2 +1 Y189,3 +1 Y189,4 +1 Y189,5 +1 Y189,6 +1 Y200,0 +1 Y200,1
  +1 Y200,2 +1 Y200,3 +1 Y200,4 +1 Y200,5 +1 Y200,6 +1 Y205,0 +1 Y205,1 +1 Y205,2 +1 Y205,3 +1 Y205,4
  +1 Y205,5 +1 Y205,6 +1 Y206,0 +1 Y206,1 +1 Y206,2 +1 Y206,3 +1 Y206,4 +1 Y206,5 +1 Y206,6 +1 Y207,0
  +1 Y207,1 +1 Y207,2 +1 Y207,3 +1 Y207,4 +1 Y207,5 +1 Y207,6 +1 Y208,0 +1 Y208,1 +1 Y208,2 +1 Y208,3
  +1 Y208,4 +1 Y208,5 +1 Y208,6 +1 Y209,0 +1 Y209,1 +1 Y209,2 +1 Y209,3 +1 Y209,4 +1 Y209,5 +1 Y209,6
  +1 Y220,0 +1 Y220,1 +1 Y220,2 +1 Y220,3 +1 Y220,4 +1 Y220,5 +1 Y220,6 +1 Y221,0 +1 Y221,1 +1 Y221,2
  +1 Y221,3 +1 Y221,4 +1 Y221,5 +1 Y221,6 +1 Y222,0 +1 Y222,1 +1 Y222,2 +1 Y222,3 +1 Y222,4 +1 Y222,5
  +1 Y222,6 +1 Y223,0 +1 Y223,1 +1 Y223,2 +1 Y223,3 +1 Y223,4 +1 Y223,5 +1 Y223,6 +1 Y224,0 +1 Y224,1
  +1 Y224,2 +1 Y224,3 +1 Y224,4 +1 Y224,5 +1 Y224,6 +1 Y235,0 +1 Y235,1 +1 Y235,2 +1 Y235,3 +1 Y235,4
  +1 Y235,5 +1 Y235,6 +1 Y236,0 +1 Y236,1 +1 Y236,2 +1 Y236,3 +1 Y236,4 +1 Y236,5 +1 Y236,6 +1 Y237,0
  +1 Y237,1 +1 Y237,2 +1 Y237,3 +1 Y237,4 +1 Y237,5 +1 Y237,6 +1 Y238,0 +1 Y238,1 +1 Y238,2 +1 Y238,3
  +1 Y238,4 +1 Y238,5 +1 Y238,6 +1 Y239,0 +1 Y239,1 +1 Y239,2 +1 Y239,3 +1 Y239,4 +1 Y239,5 +1 Y239,6
  +1 Y240,0 +1 Y240,1 +1 Y240,2 +1 Y240,3 +1 Y240,4 +1 Y240,5 +1 Y240,6 +1 Y241,0 +1 Y241,1 +1 Y241,2
  +1 Y241,3 +1 Y241,4 +1 Y241,5 +1 Y241,6 +1 Y242,0 +1 Y242,1 +1 Y242,2 +1 Y242,3 +1 Y242,4 +1 Y242,5
  +1 Y242,6 +1 Y243,0 +1 Y243,1 +1 Y243,2 +1 Y243,3 +1 Y243,4 +1 Y243,5 +1 Y243,6 +1 Y244,0 +1 Y244,1
  +1 Y244,2 +1 Y244,3 +1 Y244,4 +1 Y244,5 +1 Y244,6 +1 Y255,0 +1 Y255,1 +1 Y255,2 +1 Y255,3 +1 Y255,4
  +1 Y255,5 +1 Y255,6 +1 Y260,0 +1 Y260,1 +1 Y260,2 +1 Y260,3 +1 Y260,4 +1 Y260,5 +1 Y260,6 +1 Y261,0
  +1 Y261,1 +1 Y261,2 +1 Y261,3 +1 Y261,4 +1 Y261,5 +1 Y261,6 +1 Y262,0 +1 Y262,1 +1 Y262,2 +1 Y262,3
  +1 Y262,4 +1 Y262,5 +1 Y262,6 +1 Y263,0 +1 Y263,1 +1 Y263,2 +1 Y263,3 +1 Y263,4 +1 Y263,5 +1 Y263,6
  +1 Y264,0 +1 Y264,1 +1 Y264,2 +1 Y264,3 +1 Y264,4 +1 Y264,5 +1 Y264,6 +1 Y275,0 +1 Y275,1 +1 Y275,2
  +1 Y275,3 +1 Y275,4 +1 Y275,5 +1 Y275,6 +1 Y276,0 +1 Y276,1 +1 Y276,2 +1 Y276,3 +1 Y276,4 +1 Y276,5
  +1 Y276,6 +1 Y277,0 +1 Y277,1 +1 Y277,2 +1 Y277,3 +1 Y277,4 +1 Y277,5 +1 Y277,6 +1 Y278,0 +1 Y278,1
  +1 Y278,2 +1 Y278,3 +1 Y278,4 +1 Y278,5 +1 Y278,6 +1 Y279,0 +1 Y279,1 +1 Y279,2 +1 Y279,3 +1 Y279,4
  +1 Y279,5 +1 Y279,6 +1 Y290,0 +1 Y290,1 +1 Y290,2 +1 Y290,3 +1 Y290,4 +1 Y290,5 +1 Y290,6 +1 Y291,0
  +1 Y291,1 +1 Y291,2 +1 Y291,3 +1 Y291,4 +1 Y291,5 +1 Y291,6 +1 Y292,0 +1 Y292,1 +1 Y292,2 +1 Y292,3
  +1 Y292,4 +1 Y292,5 +1 Y292,6 +1 Y293,0 +1 Y293,1 +1 Y293,2 +1 Y293,3 +1 Y293,4 +1 Y293,5 +1 Y293,6
  +1 Y294,0 +1 Y294,1 +1 Y294,2 +1 Y294,3 +1 Y294,4 +1 Y294,5 +1 Y294,6 +1 Y295,0 +1 Y295,1 +1 Y295,2
  +1 Y295,3 +1 Y295,4 +1 Y295,5 +1 Y295,6 +1 Y296,0 +1 Y296,1 +1 Y296,2 +1 Y296,3 +1 Y296,4 +1 Y296,5
  +1 Y296,6 +1 Y297,0 +1 Y297,1 +1 Y297,2 +1 Y297,3 +1 Y297,4 +1 Y297,5 +1 Y297,6 +1 Y298,0 +1 Y298,1
  +1 Y298,2 +1 Y298,3 +1 Y298,4 +1 Y298,5 +1 Y298,6 +1 Y299,0 +1 Y299,1 +1 Y299,2 +1 Y299,3 +1 Y299,4
  +1 Y299,5 +1 Y299,6 +1 Y310,0 +1 Y310,1 +1 Y310,2 +1 Y310,3 +1 Y310,4 +1 Y310,5 +1 Y310,6 +1 Y311,0
  +1 Y311,1 +1 Y311,2 +1 Y311,3 +1 Y311,4 +1 Y311,5 +1 Y311,6 +1 Y312,0 +1 Y312,1 +1 Y312,2 +1 Y312,3
  +1 Y312,4 +1 Y312,5 +1 Y312,6 +1 Y313,0 +1 Y313,1 +1 Y313,2 +1 Y313,3 +1 Y313,4 +1 Y313,5 +1 Y313,6
  +1 Y322,0 +1 Y322,1 +1 Y322,2 +1 Y322,3 +1 Y322,4 +1 Y322,5 +1 Y322,6 +1 Y323,0 +1 Y323,1 +1 Y323,2
  +1 Y323,3 +1 Y323,4 +1 Y323,5 +1 Y323,6 +1 Y324,0 +1 Y324,1 +1 Y324,2 +1 Y324,3 +1 Y324,4 +1 Y324,5
  +1 Y324,6 +1 Y325,0 +1 Y325,1 +1 Y325,2 +1 Y325,3 +1 Y325,4 +1 Y325,5 +1 Y325,6 +1 Y326,0 +1 Y326,1
  +1 Y326,2 +1 Y326,3 +1 Y326,4 +1 Y326,5 +1 Y326,6 +1 Y327,0 +1 Y327,1 +1 Y327,2 +1 Y327,3 +1 Y327,4
  +1 Y327,5 +1 Y327,6 +1 Y328,0 +1 Y328,1 +1 Y328,2 +1 Y328,3 +1 Y328,4 +1 Y328,5 +1 Y328,6 +1 Y329,0
  +1 Y329,1 +1 Y329,2 +1 Y329,3 +1 Y329,4 +1 Y329,5 +1 Y329,6 +1 Y330,0 +1 Y330,1 +1 Y330,2 +1 Y330,3
  +1 Y330,4 +1 Y330,5 +1 Y330,6 +1 Y331,0 +1 Y331,1 +1 Y331,2 +1 Y331,3 +1 Y331,4 +1 Y331,5 +1 Y331,6
  +1 Y342,0 +1 Y342,1 +1 Y342,2 +1 Y342,3 +1 Y342,4 +1 Y342,5 +1 Y342,6 +1 Y343,0 +1 Y343,1 +1 Y343,2
  +1 Y343,3 +1 Y343,4 +1 Y343,5 +1 Y343,6 +1 Y344,0 +1 Y344,1 +1 Y344,2 +1 Y344,3 +1 Y344,4 +1 Y344,5
  +1 Y344,6 +1 Y345,0 +1 Y345,1 +1 Y345,2 +1 Y345,3 +1 Y345,4 +1 Y345,5 +1 Y345,6 +1 Y346,0 +1 Y346,1
  +1 Y346,2 +1 Y346,3 +1 Y346,4 +1 Y346,5 +1 Y346,6 +1 Y347,0 +1 Y347,1 +1 Y347,2 +1 Y347,3 +1 Y347,4
  +1 Y347,5 +1 Y347,6 +1 Y348,0 +1 Y348,1 +1 Y348,2 +1 Y348,3 +1 Y348,4 +1 Y348,5 +1 Y348,6 +1 Y349,0
  +1 Y349,1 +1 Y349,2 +1 Y349,3 +1 Y349,4 +1 Y349,5 +1 Y349,6 +1 Y350,0 +1 Y350,1 +1 Y350,2 +1 Y350,3
  +1 Y350,4 +1 Y350,5 +1 Y350,6 +1 Y351,0 +1 Y351,1 +1 Y351,2 +1 Y351,3 +1 Y351,4 +1 Y351,5 +1 Y351,6
  +1 Y362,0 +1 Y362,1 +1 Y362,2 +1 Y362,3 +1 Y362,4 +1 Y362,5 +1 Y362,6 +1 Y363,0 +1 Y363,1 +1 Y363,2
  +1 Y363,3 +1 Y363,4 +1 Y363,5 +1 Y363,6 +1 Y364,0 +1 Y364,1 +1 Y364,2 +1 Y364,3 +1 Y364,4 +1 Y364,5
  +1 Y364,6 +1 Y365,0 +1 Y365,1 +1 Y365,2 +1 Y365,3 +1 Y365,4 +1 Y365,5 +1 Y365,6 +1 Y366,0 +1 Y366,1
  +1 Y366,2 +1 Y366,3 +1 Y366,4 +1 Y366,5 +1 Y366,6 +1 Y367,0 +1 Y367,1 +1 Y367,2 +1 Y367,3 +1 Y367,4
  +1 Y367,5 +1 Y367,6 +1 Y368,0 +1 Y368,1 +1 Y368,2 +1 Y368,3 +1 Y368,4 +1 Y368,5 +1 Y368,6 +1 Y369,0
  +1 Y369,1 +1 Y369,2 +1 Y369,3 +1 Y369,4 +1 Y369,5 +1 Y369,6 +1 Y370,0 +1 Y370,1 +1 Y370,2 +1 Y370,3
  +1 Y370,4 +1 Y370,5 +1 Y370,6 +1 Y371,0 +1 Y371,1 +1 Y371,2 +1 Y371,3 +1 Y371,4 +1 Y371,5 +1 Y371,6
  +1 Y380,0 +1 Y380,1 +1 Y380,2 +1 Y380,3 +1 Y380,4 +1 Y380,5 +1 Y380,6 +1 Y381,0 +1 Y381,1 +1 Y381,2
  +1 Y381,3 +1 Y381,4 +1 Y381,5 +1 Y381,6 +1 Y382,0 +1 Y382,1 +1 Y382,2 +1 Y382,3 +1 Y382,4 +1 Y382,5
  +1 Y382,6 +1 Y383,0 +1 Y383,1 +1 Y383,2 +1 Y383,3 +1 Y383,4 +1 Y383,5 +1 Y383,6 +1 Y384,0 +1 Y384,1
  +1 Y384,2 +1 Y384,3 +1 Y384,4 +1 Y384,5 +1 Y384,6 +1 Y385,0 +1 Y385,1 +1 Y385,2 +1 Y385,3 +1 Y385,4
  +1 Y385,5 +1 Y385,6 +1 Y391,0 +1 Y391,1 +1 Y391,2 +1 Y391,3 +1 Y391,4 +1 Y391,5 +1 Y391,6 +1 Y392,0
  +1 Y392,1 +1 Y392,2 +1 Y392,3 +1 Y392,4 +1 Y392,5 +1 Y392,6 +1 Y393,0 +1 Y393,1 +1 Y393,2 +1 Y393,3
  +1 Y393,4 +1 Y393,5 +1 Y393,6 +1 Y394,0 +1 Y394,1 +1 Y394,2 +1 Y394,3 +1 Y394,4 +1 Y394,5 +1 Y394,6
  +1 Y395,0 +1 Y395,1 +1 Y395,2 +1 Y395,3 +1 Y395,4 +1 Y395,5 +1 Y395,6 +1 Y396,0 +1 Y396,1 +1 Y396,2
  +1 Y396,3 +1 Y396,4 +1 Y396,5 +1 Y396,6 +1 Y401,0 +1 Y401,1 +1 Y401,2 +1 Y401,3 +1 Y401,4 +1 Y401,5
  +1 Y401,6 +1 Y402,0 +1 Y402,1 +1 Y402,2 +1 Y402,3 +1 Y402,4 +1 Y402,5 +1 Y402,6 +1 Y403,0 +1 Y403,1
  +1 Y403,2 +1 Y403,3 +1 Y403,4 +1 Y403,5 +1 Y403,6 +1 Y404,0 +1 Y404,1 +1 Y404,2 +1 Y404,3 +1 Y404,4
  +1 Y404,5 +1 Y404,6 +1 Y405,0 +1 Y405,1 +1 Y405,2 +1 Y405,3 +1 Y405,4 +1 Y405,5 +1 Y405,6 +1 Y406,0
  +1 Y406,1 +1 Y406,2 +1 Y406,3 +1 Y406,4 +1 Y406,5 +1 Y406,6 +1 Y411,0 +1 Y411,1 +1 Y411,2 +1 Y411,3
  +1 Y411,4 +1 Y411,5 +1 Y411,6 +1 Y412,0 +1 Y412,1 +1 Y412,2 +1 Y412,3 +1 Y412,4 +1 Y412,5 +1 Y412,6
  +1 Y413,0 +1 Y413,1 +1 Y413,2 +1 Y413,3 +1 Y413,4 +1 Y413,5 +1 Y413,6 +1 Y414,0 +1 Y414,1 +1 Y414,2
  +1 Y414,3 +1 Y414,4 +1 Y414,5 +1 Y414,6 +1 Y415,0 +1 Y415,1 +1 Y415,2 +1 Y415,3 +1 Y415,4 +1 Y415,5
  +1 Y415,6 +1 Y416,0 +1 Y416,1 +1 Y416,2 +1 Y416,3 +1 Y416,4 +1 Y416,5 +1 Y416,6 +1 Y417,0 +1 Y417,1
  +1 Y417,2 +1 Y417,3 +1 Y417,4 +1 Y417,5 +1 Y417,6 +1 Y418,0 +1 Y418,1 +1 Y418,2 +1 Y418,3 +1 Y418,4
  +1 Y418,5 +1 Y418,6 +1 Y419,0 +1 Y419,1 +1 Y419,2 +1 Y419,3 +1 Y419,4 +1 Y419,5 +1 Y419,6 +1 Y420,0
  +1 Y420,1 +1 Y420,2 +1 Y420,3 +1 Y420,4 +1 Y420,5 +1 Y420,6 +1 Y426,0 +1 Y426,1 +1 Y426,2 +1 Y426,3
  +1 Y426,4 +1 Y426,5 +1 Y426,6 +1 Y427,0 +1 Y427,1 +1 Y427,2 +1 Y427,3 +1 Y427,4 +1 Y427,5 +1 Y427,6
  +1 Y428,0 +1 Y428,1 +1 Y428,2 +1 Y428,3 +1 Y428,4 +1 Y428,5 +1 Y428,6 +1 Y429,0 +1 Y429,1 +1 Y429,2
  +1 Y429,3 +1 Y429,4 +1 Y429,5 +1 Y429,6 +1 Y430,0 +1 Y430,1 +1 Y430,2 +1 Y430,3 +1 Y430,4 +1 Y430,5
  +1 Y430,6 +1 Y431,0 +1 Y431,1 +1 Y431,2 +1 Y431,3 +1 Y431,4 +1 Y431,5 +1 Y431,6 +1 Y436,0 +1 Y436,1
  +1 Y436,2 +1 Y436,3 +1 Y436,4 +1 Y436,5 +1 Y436,6 +1 Y437,0 +1 Y437,1 +1 Y437,2 +1 Y437,3 +1 Y437,4
  +1 Y437,5 +1 Y437,6 +1 Y438,0 +1 Y438,1 +1 Y438,2 +1 Y438,3 +1 Y438,4 +1 Y438,5 +1 Y438,6 +1 Y439,0
  +1 Y439,1 +1 Y439,2 +1 Y439,3 +1 Y439,4 +1 Y439,5 +1 Y439,6 +1 Y440,0 +1 Y440,1 +1 Y440,2 +1 Y440,3
  +1 Y440,4 +1 Y440,5 +1 Y440,6 +1 Y441,0 +1 Y441,1 +1 Y441,2 +1 Y441,3 +1 Y441,4 +1 Y441,5 +1 Y441,6
  +1 Y446,0 +1 Y446,1 +1 Y446,2 +1 Y446,3 +1 Y446,4 +1 Y446,5 +1 Y446,6 +1 Y447,0 +1 Y447,1 +1 Y447,2
  +1 Y447,3 +1 Y447,4 +1 Y447,5 +1 Y447,6 +1 Y448,0 +1 Y448,1 +1 Y448,2 +1 Y448,3 +1 Y448,4 +1 Y448,5
  +1 Y448,6 +1 Y449,0 +1 Y449,1 +1 Y449,2 +1 Y449,3 +1 Y449,4 +1 Y449,5 +1 Y449,6 +1 Y450,0 +1 Y450,1
  +1 Y450,2 +1 Y450,3 +1 Y450,4 +1 Y450,5 +1 Y450,6 +1 Y451,0 +1 Y451,1 +1 Y451,2 +1 Y451,3 +1 Y451,4
  +1 Y451,5 +1 Y451,6 +1 Y452,0 +1 Y452,1 +1 Y452,2 +1 Y452,3 +1 Y452,4 +1 Y452,5 +1 Y452,6 +1 Y453,0
  +1 Y453,1 +1 Y453,2 +1 Y453,3 +1 Y453,4 +1 Y453,5 +1 Y453,6 +1 Y454,0 +1 Y454,1 +1 Y454,2 +1 Y454,3
  +1 Y454,4 +1 Y454,5 +1 Y454,6 +1 Y455,0 +1 Y455,1 +1 Y455,2 +1 Y455,3 +1 Y455,4 +1 Y455,5 +1 Y455,6
  +1 Y461,0 +1 Y461,1 +1 Y461,2 +1 Y461,3 +1 Y461,4 +1 Y461,5 +1 Y461,6 +1 Y462,0 +1 Y462,1 +1 Y462,2
  +1 Y462,3 +1 Y462,4 +1 Y462,5 +1 Y462,6 +1 Y463,0 +1 Y463,1 +1 Y463,2 +1 Y463,3 +1 Y463,4 +1 Y463,5
  +1 Y463,6 +1 Y464,0 +1 Y464,1 +1 Y464,2 +1 Y464,3 +1 Y464,4 +1 Y464,5 +1 Y464,6 +1 Y465,0 +1 Y465,1
  +1 Y465,2 +1 Y465,3 +1 Y465,4 +1 Y465,5 +1 Y465,6 +1 Y466,0 +1 Y466,1 +1 Y466,2 +1 Y466,3 +1 Y466,4
  +1 Y466,5 +1 Y466,6 +1 Y471,0 +1 Y471,1 +1 Y471,2 +1 Y471,3 +1 Y471,4 +1 Y471,5 +1 Y471,6 +1 Y472,0
  +1 Y472,1 +1 Y472,2 +1 Y472,3 +1 Y472,4 +1 Y472,5 +1 Y472,6 +1 Y473,0 +1 Y473,1 +1 Y473,2 +1 Y473,3
  +1 Y473,4 +1 Y473,5 +1 Y473,6 +1 Y474,0 +1 Y474,1 +1 Y474,2 +1 Y474,3 +1 Y474,4 +1 Y474,5 +1 Y474,6
  +1 Y475,0 +1 Y475,1 +1 Y475,2 +1 Y475,3 +1 Y475,4 +1 Y475,5 +1 Y475,6 +1 Y476,0 +1 Y476,1 +1 Y476,2
  +1 Y476,3 +1 Y476,4 +1 Y476,5 +1 Y476,6 +1 Y477,0 +1 Y477,1 +1 Y477,2 +1 Y477,3 +1 Y477,4 +1 Y477,5
  +1 Y477,6 +1 Y478,0 +1 Y478,1 +1 Y478,2 +1 Y478,3 +1 Y478,4 +1 Y478,5 +1 Y478,6 +1 Y479,0 +1 Y479,1
  +1 Y479,2 +1 Y479,3 +1 Y479,4 +1 Y479,5 +1 Y479,6 +1 Y480,0 +1 Y480,1 +1 Y480,2 +1 Y480,3 +1 Y480,4
  +1 Y480,5 +1 Y480,6 +1 Y486,0 +1 Y486,1 +1 Y486,2 +1 Y486,3 +1 Y486,4 +1 Y486,5 +1 Y486,6 +1 Y487,0
  +1 Y487,1 +1 Y487,2 +1 Y487,3 +1 Y487,4 +1 Y487,5 +1 Y487,6 +1 Y488,0 +1 Y488,1 +1 Y488,2 +1 Y488,3
  +1 Y488,4 +1 Y488,5 +1 Y488,6 +1 Y489,0 +1 Y489,1 +1 Y489,2 +1 Y489,3 +1 Y489,4 +1 Y489,5 +1 Y489,6
  +1 Y490,0 +1 Y490,1 +1 Y490,2 +1 Y490,3 +1 Y490,4 +1 Y490,5 +1 Y490,6 +1 Y491,0 +1 Y491,1 +1 Y491,2
  +1 Y491,3 +1 Y491,4 +1 Y491,5 +1 Y491,6 +1 Y492,0 +1 Y492,1 +1 Y492,2 +1 Y492,3 +1 Y492,4 +1 Y492,5
  +1 Y492,6 +1 Y493,0 +1 Y493,1 +1 Y493,2 +1 Y493,3 +1 Y493,4 +1 Y493,5 +1 Y493,6 +1 Y494,0 +1 Y494,1
  +1 Y494,2 +1 Y494,3 +1 Y494,4 +1 Y494,5 +1 Y494,6 +1 Y495,0 +1 Y495,1 +1 Y495,2 +1 Y495,3 +1 Y495,4
  +1 Y495,5 +1 Y495,6 +1 Y501,0 +1 Y501,1 +1 Y501,2 +1 Y501,3 +1 Y501,4 +1 Y501,5 +1 Y501,6 +1 Y502,0
  +1 Y502,1 +1 Y502,2 +1 Y502,3 +1 Y502,4 +1 Y502,5 +1 Y502,6 +1 Y503,0 +1 Y503,1 +1 Y503,2 +1 Y503,3
  +1 Y503,4 +1 Y503,5 +1 Y503,6 +1 Y504,0 +1 Y504,1 +1 Y504,2 +1 Y504,3 +1 Y504,4 +1 Y504,5 +1 Y504,6
  +1 Y505,0 +1 Y505,1 +1 Y505,2 +1 Y505,3 +1 Y505,4 +1 Y505,5 +1 Y505,6 +1 Y507,0 +1 Y507,1 +1 Y507,2
  +1 Y507,3 +1 Y507,4 +1 Y507,5 +1 Y507,6 +1 Y508,0 +1 Y508,1 +1 Y508,2 +1 Y508,3 +1 Y508,4 +1 Y508,5
  +1 Y508,6 +1 Y509,0 +1 Y509,1 +1 Y509,2 +1 Y509,3 +1 Y509,4 +1 Y509,5 +1 Y509,6 +1 Y510,0 +1 Y510,1
  +1 Y510,2 +1 Y510,3 +1 Y510,4 +1 Y510,5 +1 Y510,6 +1 Y512,0 +1 Y512,1 +1 Y512,2 +1 Y512,3 +1 Y512,4
  +1 Y512,5 +1 Y512,6 +1 Y513,0 +1 Y513,1 +1 Y513,2 +1 Y513,3 +1 Y513,4 +1 Y513,5 +1 Y513,6 +1 Y514,0
  +1 Y514,1 +1 Y514,2 +1 Y514,3 +1 Y514,4 +1 Y514,5 +1 Y514,6 +1 Y516,0 +1 Y516,1 +1 Y516,2 +1 Y516,3
  +1 Y516,4 +1 Y516,5 +1 Y516,6 +1 Y517,0 +1 Y517,1 +1 Y517,2 +1 Y517,3 +1 Y517,4 +1 Y517,5 +1 Y517,6
  +1 Y519,0 +1 Y519,1 +1 Y519,2 +1 Y519,3 +1 Y519,4 +1 Y519,5 +1 Y519,6 +1 Y520,0 +1 Y520,1 +1 Y520,2
  +1 Y520,3 +1 Y520,4 +1 Y520,5 +1 Y520,6 +1 Y521,0 +1 Y521,1 +1 Y521,2 +1 Y521,3 +1 Y521,4 +1 Y521,5
  +1 Y521,6 +1 Y522,0 +1 Y522,1 +1 Y522,2 +1 Y522,3 +1 Y522,4 +1 Y522,5 +1 Y522,6 +1 Y524,0 +1 Y524,1
  +1 Y524,2 +1 Y524,3 +1 Y524,4 +1 Y524,5 +1 Y524,6 +1 Y525,0 +1 Y525,1 +1 Y525,2 +1 Y525,3 +1 Y525,4
  +1 Y525,5 +1 Y525,6 +1 Y526,0 +1 Y526,1 +1 Y526,2 +1 Y526,3 +1 Y526,4 +1 Y526,5 +1 Y526,6 +1 Y528,0
  +1 Y528,1 +1 Y528,2 +1 Y528,3 +1 Y528,4 +1 Y528,5 +1 Y528,6 +1 Y529,0 +1 Y529,1 +1 Y529,2 +1 Y529,3
  +1 Y529,4 +1 Y529,5 +1 Y529,6 +1 Y531,0 +1 Y531,1 +1 Y531,2 +1 Y531,3 +1 Y531,4 +1 Y531,5 +1 Y531,6
  +1 Y532,0 +1 Y532,1 +1 Y532,2 +1 Y532,3 +1 Y532,4 +1 Y532,5 +1 Y532,6 +1 Y533,0 +1 Y533,1 +1 Y533,2
  +1 Y533,3 +1 Y533,4 +1 Y533,5 +1 Y533,6 +1 Y534,0 +1 Y534,1 +1 Y534,2 +1 Y534,3 +1 Y534,4 +1 Y534,5
  +1 Y534,6 +1 Y537,0 +1 Y537,1 +1 Y537,2 +1 Y537,3 +1 Y537,4 +1 Y537,5 +1 Y537,6 +1 Y539,0 +1 Y539,1
  +1 Y539,2 +1 Y539,3 +1 Y539,4 +1 Y539,5 +1 Y539,6 +1 Y540,0 +1 Y540,1 +1 Y540,2 +1 Y540,3 +1 Y540,4
  +1 Y540,5 +1 Y540,6 = +1
 c19: +1 Y581,0 +1 Y581,1 +1 Y581,2 +1 Y581,3 +1 Y581,4 +1 Y581,5 +1 Y581,6 +1 Y587,0 +1 Y587,1 +1 Y587,2
  +1 Y587,3 +1 Y587,4 +1 Y587,5 +1 Y587,6 +1 Y592,0 +1 Y592,1 +1 Y592,2 +1 Y592,3 +1 Y592,4 +1 Y592,5
  +1 Y592,6 +1 Y597,0 +1 Y597,1 +1 Y597,2 +1 Y597,3 +1 Y597,4 +1 Y597,5 +1 Y597,6 +1 Y598,0 +1 Y598,1
  +1 Y598,2 +1 Y598,3 +1 Y598,4 +1 Y598,5 +1 Y598,6 +1 Y599,0 +1 Y599,1 +1 Y599,2 +1 Y599,3 +1 Y599,4
  +1 Y599,5 +1 Y599,6 +1 Y600,0 +1 Y600,1 +1 Y600,2 +1 Y600,3 +1 Y600,4 +1 Y600,5 +1 Y600,6 +1 Y607,0
  +1 Y607,1 +1 Y607,2 +1 Y607,3 +1 Y607,4 +1 Y607,5 +1 Y607,6 +1 Y612,0 +1 Y612,1 +1 Y612,2 +1 Y612,3
  +1 Y612,4 +1 Y612,5 +1 Y612,6 +1 Y613,0 +1 Y613,1 +1 Y613,2 +1 Y613,3 +1 Y613,4 +1 Y613,5 +1 Y613,6
  +1 Y614,0 +1 Y614,1 +1 Y614,2 +1 Y614,3 +1 Y614,4 +1 Y614,5 +1 Y614,6 +1 Y615,0 +1 Y615,1 +1 Y615,2
  +1 Y615,3 +1 Y615,4 +1 Y615,5 +1 Y615,6 +1 Y622,0 +1 Y622,1 +1 Y622,2 +1 Y622,3 +1 Y622,4 +1 Y622,5
  +1 Y622,6 +1 Y623,0 +1 Y623,1 +1 Y623,2 +1 Y623,3 +1 Y623,4 +1 Y623,5 +1 Y623,6 +1 Y624,0 +1 Y624,1
  +1 Y624,2 +1 Y624,3 +1 Y624,4 +1 Y624,5 +1 Y624,6 +1 Y625,0 +1 Y625,1 +1 Y625,2 +1 Y625,3 +1 Y625,4
  +1 Y625,5 +1 Y625,6 +1 Y632,0 +1 Y632,1 +1 Y632,2 +1 Y632,3 +1 Y632,4 +1 Y632,5 +1 Y632,6 +1 Y633,0
  +1 Y633,1 +1 Y633,2 +1 Y633,3 +1 Y633,4 +1 Y633,5 +1 Y633,6 +1 Y634,0 +1 Y634,1 +1 Y634,2 +1 Y634,3
  +1 Y634,4 +1 Y634,5 +1 Y634,6 +1 Y635,0 +1 Y635,1 +1 Y635,2 +1 Y635,3 +1 Y635,4 +1 Y635,5 +1 Y635,6
  +1 Y636,0 +1 Y636,1 +1 Y636,2 +1 Y636,3 +1 Y636,4 +1 Y636,5 +1 Y636,6 +1 Y637,0 +1 Y637,1 +1 Y637,2
  +1 Y637,3 +1 Y637,4 +1 Y637,5 +1 Y637,6 +1 Y642,0 +1 Y642,1 +1 Y642,2 +1 Y642,3 +1 Y642,4 +1 Y642,5
  +1 Y642,6 +1 Y643,0 +1 Y643,1 +1 Y643,2 +1 Y643,3 +1 Y643,4 +1 Y643,5 +1 Y643,6 +1 Y644,0 +1 Y644,1
  +1 Y644,2 +1 Y644,3 +1 Y644,4 +1 Y644,5 +1 Y644,6 +1 Y645,0 +1 Y645,1 +1 Y645,2 +1 Y645,3 +1 Y645,4
  +1 Y645,5 +1 Y645,6 +1 Y652,0 +1 Y652,1 +1 Y652,2 +1 Y652,3 +1 Y652,4 +1 Y652,5 +1 Y652,6 +1 Y653,0
  +1 Y653,1 +1 Y653,2 +1 Y653,3 +1 Y653,4 +1 Y653,5 +1 Y653,6 +1 Y654,0 +1 Y654,1 +1 Y654,2 +1 Y654,3
  +1 Y654,4 +1 Y654,5 +1 Y654,6 +1 Y655,0 +1 Y655,1 +1 Y655,2 +1 Y655,3 +1 Y655,4 +1 Y655,5 +1 Y655,6
  +1 Y656,0 +1 Y656,1 +1 Y656,2 +1 Y656,3 +1 Y656,4 +1 Y656,5 +1 Y656,6 +1 Y657,0 +1 Y657,1 +1 Y657,2
  +1 Y657,3 +1 Y657,4 +1 Y657,5 +1 Y657,6 +1 Y662,0 +1 Y662,1 +1 Y662,2 +1 Y662,3 +1 Y662,4 +1 Y662,5
  +1 Y662,6 +1 Y663,0 +1 Y663,1 +1 Y663,2 +1 Y663,3 +1 Y663,4 +1 Y663,5 +1 Y663,6 +1 Y664,0 +1 Y664,1
  +1 Y664,2 +1 Y664,3 +1 Y664,4 +1 Y664,5 +1 Y664,6 +1 Y665,0 +1 Y665,1 +1 Y665,2 +1 Y665,3 +1 Y665,4
  +1 Y665,5 +1 Y665,6 +1 Y666,0 +1 Y666,1 +1 Y666,2 +1 Y666,3 +1 Y666,4 +1 Y666,5 +1 Y666,6 +1 Y667,0
  +1 Y667,1 +1 Y667,2 +1 Y667,3 +1 Y667,4 +1 Y667,5 +1 Y667,6 +1 Y672,0 +1 Y672,1 +1 Y672,2 +1 Y672,3
  +1 Y672,4 +1 Y672,5 +1 Y672,6 +1 Y673,0 +1 Y673,1 +1 Y673,2 +1 Y673,3 +1 Y673,4 +1 Y673,5 +1 Y673,6
  +1 Y674,0 +1 Y674,1 +1 Y674,2 +1 Y674,3 +1 Y674,4 +1 Y674,5 +1 Y674,6 +1 Y675,0 +1 Y675,1 +1 Y675,2
  +1 Y675,3 +1 Y675,4 +1 Y675,5 +1 Y675,6 +1 Y677,0 +1 Y677,1 +1 Y677,2 +1 Y677,3 +1 Y677,4 +1 Y677,5
  +1 Y677,6 +1 Y678,0 +1 Y678,1 +1 Y678,2 +1 Y678,3 +1 Y678,4 +1 Y678,5 +1 Y678,6 +1 Y679,0 +1 Y679,1
  +1 Y679,2 +1 Y679,3 +1 Y679,4 +1 Y679,5 +1 Y679,6 +1 Y680,0 +1 Y680,1 +1 Y680,2 +1 Y680,3 +1 Y680,4
  +1 Y680,5 +1 Y680,6 +1 Y681,0 +1 Y681,1 +1 Y681,2 +1 Y681,3 +1 Y681,4 +1 Y681,5 +1 Y681,6 +1 Y682,0
  +1 Y682,1 +1 Y682,2 +1 Y682,3 +1 Y682,4 +1 Y682,5 +1 Y682,6 +1 Y687,0 +1 Y687,1 +1 Y687,2 +1 Y687,3
  +1 Y687,4 +1 Y687,5 +1 Y687,6 +1 Y688,0 +1 Y688,1 +1 Y688,2 +1 Y688,3 +1 Y688,4 +1 Y688,5 +1 Y688,6
  +1 Y690,0 +1 Y690,1 +1 Y690,2 +1 Y690,3 +1 Y690,4 +1 Y690,5 +1 Y690,6 +1 Y691,0 +1 Y691,1 +1 Y691,2
  +1 Y691,3 +1 Y691,4 +1 Y691,5 +1 Y691,6 +1 Y692,0 +1 Y692,1 +1 Y692,2 +1 Y692,3 +1 Y692,4 +1 Y692,5
  +1 Y692,6 +1 Y693,0 +1 Y693,1 +1 Y693,2 +1 Y693,3 +1 Y693,4 +1 Y693,5 +1 Y693,6 +1 Y695,0 +1 Y695,1
  +1 Y695,2 +1 Y695,3 +1 Y695,4 +1 Y695,5 +1 Y695,6 = +1
 c20: +1 Y5,0 +1 Y5,1 +1 Y5,2 +1 Y5,3 +1 Y5,4 +1 Y5,5 +1 Y5,6 +1 Y14,0 +1 Y14,1 +1 Y14,2 +1 Y14,3 +1 Y14,4
  +1 Y14,5 +1 Y14,6 +1 Y22,0 +1 Y22,1 +1 Y22,2 +1 Y22,3 +1 Y22,4 +1 Y22,5 +1 Y22,6 +1 Y29,0 +1 Y29,1 +1 Y29,2
  +1 Y29,3 +1 Y29,4 +1 Y29,5 +1 Y29,6 +1 Y35,0 +1 Y35,1 +1 Y35,2 +1 Y35,3 +1 Y35,4 +1 Y35,5 +1 Y35,6 +1 Y40,0
  +1 Y40,1 +1 Y40,2 +1 Y40,3 +1 Y40,4 +1 Y40,5 +1 Y40,6 +1 Y45,0 +1 Y45,1 +1 Y45,2 +1 Y45,3 +1 Y45,4 +1 Y45,5
  +1 Y45,6 +1 Y46,0 +1 Y46,1 +1 Y46,2 +1 Y46,3 +1 Y46,4 +1 Y46,5 +1 Y46,6 +1 Y47,0 +1 Y47,1 +1 Y47,2 +1 Y47,3
  +1 Y47,4 +1 Y47,5 +1 Y47,6 +1 Y48,0 +1 Y48,1 +1 Y48,2 +1 Y48,3 +1 Y48,4 +1 Y48,5 +1 Y48,6 +1 Y58,0 +1 Y58,1
  +1 Y58,2 +1 Y58,3 +1 Y58,4 +1 Y58,5 +1 Y58,6 +1 Y65,0 +1 Y65,1 +1 Y65,2 +1 Y65,3 +1 Y65,4 +1 Y65,5 +1 Y65,6
  +1 Y71,0 +1 Y71,1 +1 Y71,2 +1 Y71,3 +1 Y71,4 +1 Y71,5 +1 Y71,6 +1 Y76,0 +1 Y76,1 +1 Y76,2 +1 Y76,3 +1 Y76,4
  +1 Y76,5 +1 Y76,6 +1 Y81,0 +1 Y81,1 +1 Y81,2 +1 Y81,3 +1 Y81,4 +1 Y81,5 +1 Y81,6 +1 Y82,0 +1 Y82,1 +1 Y82,2
  +1 Y82,3 +1 Y82,4 +1 Y82,5 +1 Y82,6 +1 Y83,0 +1 Y83,1 +1 Y83,2 +1 Y83,3 +1 Y83,4 +1 Y83,5 +1 Y83,6 +1 Y84,0
  +1 Y84,1 +1 Y84,2 +1 Y84,3 +1 Y84,4 +1 Y84,5 +1 Y84,6 +1 Y93,0 +1 Y93,1 +1 Y93,2 +1 Y93,3 +1 Y93,4 +1 Y93,5
  +1 Y93,6 +1 Y99,0 +1 Y99,1 +1 Y99,2 +1 Y99,3 +1 Y99,4 +1 Y99,5 +1 Y99,6 +1 Y104,0 +1 Y104,1 +1 Y104,2
  +1 Y104,3 +1 Y104,4 +1 Y104,5 +1 Y104,6 +1 Y109,0 +1 Y109,1 +1 Y109,2 +1 Y109,3 +1 Y109,4 +1 Y109,5
  +1 Y109,6 +1 Y110,0 +1 Y110,1 +1 Y110,2 +1 Y110,3 +1 Y110,4 +1 Y110,5 +1 Y110,6 +1 Y111,0 +1 Y111,1
  +1 Y111,2 +1 Y111,3 +1 Y111,4 +1 Y111,5 +1 Y111,6 +1 Y112,0 +1 Y112,1 +1 Y112,2 +1 Y112,3 +1 Y112,4
  +1 Y112,5 +1 Y112,6 +1 Y120,0 +1 Y120,1 +1 Y120,2 +1 Y120,3 +1 Y120,4 +1 Y120,5 +1 Y120,6 +1 Y125,0
  +1 Y125,1 +1 Y125,2 +1 Y125,3 +1 Y125,4 +1 Y125,5 +1 Y125,6 +1 Y130,0 +1 Y130,1 +1 Y130,2 +1 Y130,3
  +1 Y130,4 +1 Y130,5 +1 Y130,6 +1 Y131,0 +1 Y131,1 +1 Y131,2 +1 Y131,3 +1 Y131,4 +1 Y131,5 +1 Y131,6
  +1 Y132,0 +1 Y132,1 +1 Y132,2 +1 Y132,3 +1 Y132,4 +1 Y132,5 +1 Y132,6 +1 Y133,0 +1 Y133,1 +1 Y133,2
  +1 Y133,3 +1 Y133,4 +1 Y133,5 +1 Y133,6 +1 Y140,0 +1 Y140,1 +1 Y140,2 +1 Y140,3 +1 Y140,4 +1 Y140,5
  +1 Y140,6 +1 Y145,0 +1 Y145,1 +1 Y145,2 +1 Y145,3 +1 Y145,4 +1 Y145,5 +1 Y145,6 +1 Y146,0 +1 Y146,1
  +1 Y146,2 +1 Y146,3 +1 Y146,4 +1 Y146,5 +1 Y146,6 +1 Y147,0 +1 Y147,1 +1 Y147,2 +1 Y147,3 +1 Y147,4
  +1 Y147,5 +1 Y147,6 +1 Y148,0 +1 Y148,1 +1 Y148,2 +1 Y148,3 +1 Y148,4 +1 Y148,5 +1 Y148,6 +1 Y155,0
  +1 Y155,1 +1 Y155,2 +1 Y155,3 +1 Y155,4 +1 Y155,5 +1 Y155,6 +1 Y156,0 +1 Y156,1 +1 Y156,2 +1 Y156,3
  +1 Y156,4 +1 Y156,5 +1 Y156,6 +1 Y157,0 +1 Y157,1 +1 Y157,2 +1 Y157,3 +1 Y157,4 +1 Y157,5 +1 Y157,6
  +1 Y158,0 +1 Y158,1 +1 Y158,2 +1 Y158,3 +1 Y158,4 +1 Y158,5 +1 Y158,6 +1 Y165,0 +1 Y165,1 +1 Y165,2
  +1 Y165,3 +1 Y165,4 +1 Y165,5 +1 Y165,6 +1 Y166,0 +1 Y166,1 +1 Y166,2 +1 Y166,3 +1 Y166,4 +1 Y166,5
  +1 Y166,6 +1 Y167,0 +1 Y167,1 +1 Y167,2 +1 Y167,3 +1 Y167,4 +1 Y167,5 +1 Y167,6 +1 Y168,0 +1 Y168,1
  +1 Y168,2 +1 Y168,3 +1 Y168,4 +1 Y168,5 +1 Y168,6 +1 Y169,0 +1 Y169,1 +1 Y169,2 +1 Y169,3 +1 Y169,4
  +1 Y169,5 +1 Y169,6 +1 Y170,0 +1 Y170,1 +1 Y170,2 +1 Y170,3 +1 Y170,4 +1 Y170,5 +1 Y170,6 +1 Y185,0
  +1 Y185,1 +1 Y185,2 +1 Y185,3 +1 Y185,4 +1 Y185,5 +1 Y185,6 +1 Y190,0 +1 Y190,1 +1 Y190,2 +1 Y190,3
  +1 Y190,4 +1 Y190,5 +1 Y190,6 +1 Y191,0 +1 Y191,1 +1 Y191,2 +1 Y191,3 +1 Y191,4 +1 Y191,5 +1 Y191,6
  +1 Y192,0 +1 Y192,1 +1 Y192,2 +1 Y192,3 +1 Y192,4 +1 Y192,5 +1 Y192,6 +1 Y193,0 +1 Y193,1 +1 Y193,2
  +1 Y193,3 +1 Y193,4 +1 Y193,5 +1 Y193,6 +1 Y205,0 +1 Y205,1 +1 Y205,2 +1 Y205,3 +1 Y205,4 +1 Y205,5
  +1 Y205,6 +1 Y210,0 +1 Y210,1 +1 Y210,2 +1 Y210,3 +1 Y210,4 +1 Y210,5 +1 Y210,6 +1 Y211,0 +1 Y211,1
  +1 Y211,2 +1 Y211,3 +1 Y211,4 +1 Y211,5 +1 Y211,6 +1 Y212,0 +1 Y212,1 +1 Y212,2 +1 Y212,3 +1 Y212,4
  +1 Y212,5 +1 Y212,6 +1 Y213,0 +1 Y213,1 +1 Y213,2 +1 Y213,3 +1 Y213,4 +1 Y213,5 +1 Y213,6 +1 Y220,0
  +1 Y220,1 +1 Y220,2 +1 Y220,3 +1 Y220,4 +1 Y220,5 +1 Y220,6 +1 Y225,0 +1 Y225,1 +1 Y225,2 +1 Y225,3
  +1 Y225,4 +1 Y225,5 +1 Y225,6 +1 Y226,0 +1 Y226,1 +1 Y226,2 +1 Y226,3 +1 Y226,4 +1 Y226,5 +1 Y226,6
  +1 Y227,0 +1 Y227,1 +1 Y227,2 +1 Y227,3 +1 Y227,4 +1 Y227,5 +1 Y227,6 +1 Y228,0 +1 Y228,1 +1 Y228,2
  +1 Y228,3 +1 Y228,4 +1 Y228,5 +1 Y228,6 +1 Y235,0 +1 Y235,1 +1 Y235,2 +1 Y235,3 +1 Y235,4 +1 Y235,5
  +1 Y235,6 +1 Y236,0 +1 Y236,1 +1 Y236,2 +1 Y236,3 +1 Y236,4 +1 Y236,5 +1 Y236,6 +1 Y237,0 +1 Y237,1
  +1 Y237,2 +1 Y237,3 +1 Y237,4 +1 Y237,5 +1 Y237,6 +1 Y238,0 +1 Y238,1 +1 Y238,2 +1 Y238,3 +1 Y238,4
  +1 Y238,5 +1 Y238,6 +1 Y245,0 +1 Y245,1 +1 Y245,2 +1 Y245,3 +1 Y245,4 +1 Y245,5 +1 Y245,6 +1 Y246,0
  +1 Y246,1 +1 Y246,2 +1 Y246,3 +1 Y246,4 +1 Y246,5 +1 Y246,6 +1 Y247,0 +1 Y247,1 +1 Y247,2 +1 Y247,3
  +1 Y247,4 +1 Y247,5 +1 Y247,6 +1 Y248,0 +1 Y248,1 +1 Y248,2 +1 Y248,3 +1 Y248,4 +1 Y248,5 +1 Y248,6
  +1 Y249,0 +1 Y249,1 +1 Y249,2 +1 Y249,3 +1 Y249,4 +1 Y249,5 +1 Y249,6 +1 Y250,0 +1 Y250,1 +1 Y250,2
  +1 Y250,3 +1 Y250,4 +1 Y250,5 +1 Y250,6 +1 Y260,0 +1 Y260,1 +1 Y260,2 +1 Y260,3 +1 Y260,4 +1 Y260,5
  +1 Y260,6 +1 Y265,0 +1 Y265,1 +1 Y265,2 +1 Y265,3 +1 Y265,4 +1 Y265,5 +1 Y265,6 +1 Y266,0 +1 Y266,1
  +1 Y266,2 +1 Y266,3 +1 Y266,4 +1 Y266,5 +1 Y266,6 +1 Y267,0 +1 Y267,1 +1 Y267,2 +1 Y267,3 +1 Y267,4
  +1 Y267,5 +1 Y267,6 +1 Y268,0 +1 Y268,1 +1 Y268,2 +1 Y268,3 +1 Y268,4 +1 Y268,5 +1 Y268,6 +1 Y275,0
  +1 Y275,1 +1 Y275,2 +1 Y275,3 +1 Y275,4 +1 Y275,5 +1 Y275,6 +1 Y280,0 +1 Y280,1 +1 Y280,2 +1 Y280,3
  +1 Y280,4 +1 Y280,5 +1 Y280,6 +1 Y281,0 +1 Y281,1 +1 Y281,2 +1 Y281,3 +1 Y281,4 +1 Y281,5 +1 Y281,6
  +1 Y282,0 +1 Y282,1 +1 Y282,2 +1 Y282,3 +1 Y282,4 +1 Y282,5 +1 Y282,6 +1 Y283,0 +1 Y283,1 +1 Y283,2
  +1 Y283,3 +1 Y283,4 +1 Y283,5 +1 Y283,6 +1 Y290,0 +1 Y290,1 +1 Y290,2 +1 Y290,3 +1 Y290,4 +1 Y290,5
  +1 Y290,6 +1 Y291,0 +1 Y291,1 +1 Y291,2 +1 Y291,3 +1 Y291,4 +1 Y291,5 +1 Y291,6 +1 Y292,0 +1 Y292,1
  +1 Y292,2 +1 Y292,3 +1 Y292,4 +1 Y292,5 +1 Y292,6 +1 Y293,0 +1 Y293,1 +1 Y293,2 +1 Y293,3 +1 Y293,4
  +1 Y293,5 +1 Y293,6 +1 Y300,0 +1 Y300,1 +1 Y300,2 +1 Y300,3 +1 Y300,4 +1 Y300,5 +1 Y300,6 +1 Y301,0
  +1 Y301,1 +1 Y301,2 +1 Y301,3 +1 Y301,4 +1 Y301,5 +1 Y301,6 +1 Y302,0 +1 Y302,1 +1 Y302,2 +1 Y302,3
  +1 Y302,4 +1 Y302,5 +1 Y302,6 +1 Y303,0 +1 Y303,1 +1 Y303,2 +1 Y303,3 +1 Y303,4 +1 Y303,5 +1 Y303,6
  +1 Y304,0 +1 Y304,1 +1 Y304,2 +1 Y304,3 +1 Y304,4 +1 Y304,5 +1 Y304,6 +1 Y305,0 +1 Y305,1 +1 Y305,2
  +1 Y305,3 +1 Y305,4 +1 Y305,5 +1 Y305,6 +1 Y314,0 +1 Y314,1 +1 Y314,2 +1 Y314,3 +1 Y314,4 +1 Y314,5
  +1 Y314,6 +1 Y315,0 +1 Y315,1 +1 Y315,2 +1 Y315,3 +1 Y315,4 +1 Y315,5 +1 Y315,6 +1 Y322,0 +1 Y322,1
  +1 Y322,2 +1 Y322,3 +1 Y322,4 +1 Y322,5 +1 Y322,6 +1 Y323,0 +1 Y323,1 +1 Y323,2 +1 Y323,3 +1 Y323,4
  +1 Y323,5 +1 Y323,6 +1 Y324,0 +1 Y324,1 +1 Y324,2 +1 Y324,3 +1 Y324,4 +1 Y324,5 +1 Y324,6 +1 Y325,0
  +1 Y325,1 +1 Y325,2 +1 Y325,3 +1 Y325,4 +1 Y325,5 +1 Y325,6 +1 Y332,0 +1 Y332,1 +1 Y332,2 +1 Y332,3
  +1 Y332,4 +1 Y332,5 +1 Y332,6 +1 Y333,0 +1 Y333,1 +1 Y333,2 +1 Y333,3 +1 Y333,4 +1 Y333,5 +1 Y333,6
  +1 Y334,0 +1 Y334,1 +1 Y334,2 +1 Y334,3 +1 Y334,4 +1 Y334,5 +1 Y334,6 +1 Y335,0 +1 Y335,1 +1 Y335,2
  +1 Y335,3 +1 Y335,4 +1 Y335,5 +1 Y335,6 +1 Y336,0 +1 Y336,1 +1 Y336,2 +1 Y336,3 +1 Y336,4 +1 Y336,5
  +1 Y336,6 +1 Y337,0 +1 Y337,1 +1 Y337,2 +1 Y337,3 +1 Y337,4 +1 Y337,5 +1 Y337,6 +1 Y342,0 +1 Y342,1
  +1 Y342,2 +1 Y342,3 +1 Y342,4 +1 Y342,5 +1 Y342,6 +1 Y343,0 +1 Y343,1 +1 Y343,2 +1 Y343,3 +1 Y343,4
  +1 Y343,5 +1 Y343,6 +1 Y344,0 +1 Y344,1 +1 Y344,2 +1 Y344,3 +1 Y344,4 +1 Y344,5 +1 Y344,6 +1 Y345,0
  +1 Y345,1 +1 Y345,2 +1 Y345,3 +1 Y345,4 +1 Y345,5 +1 Y345,6 +1 Y352,0 +1 Y352,1 +1 Y352,2 +1 Y352,3
  +1 Y352,4 +1 Y352,5 +1 Y352,6 +1 Y353,0 +1 Y353,1 +1 Y353,2 +1 Y353,3 +1 Y353,4 +1 Y353,5 +1 Y353,6
  +1 Y354,0 +1 Y354,1 +1 Y354,2 +1 Y354,3 +1 Y354,4 +1 Y354,5 +1 Y354,6 +1 Y355,0 +1 Y355,1 +1 Y355,2
  +1 Y355,3 +1 Y355,4 +1 Y355,5 +1 Y355,6 +1 Y356,0 +1 Y356,1 +1 Y356,2 +1 Y356,3 +1 Y356,4 +1 Y356,5
  +1 Y356,6 +1 Y357,0 +1 Y357,1 +1 Y357,2 +1 Y357,3 +1 Y357,4 +1 Y357,5 +1 Y357,6 +1 Y362,0 +1 Y362,1
  +1 Y362,2 +1 Y362,3 +1 Y362,4 +1 Y362,5 +1 Y362,6 +1 Y363,0 +1 Y363,1 +1 Y363,2 +1 Y363,3 +1 Y363,4
  +1 Y363,5 +1 Y363,6 +1 Y364,0 +1 Y364,1 +1 Y364,2 +1 Y364,3 +1 Y364,4 +1 Y364,5 +1 Y364,6 +1 Y365,0
  +1 Y365,1 +1 Y365,2 +1 Y365,3 +1 Y365,4 +1 Y365,5 +1 Y365,6 +1 Y366,0 +1 Y366,1 +1 Y366,2 +1 Y366,3
  +1 Y366,4 +1 Y366,5 +1 Y366,6 +1 Y367,0 +1 Y367,1 +1 Y367,2 +1 Y367,3 +1 Y367,4 +1 Y367,5 +1 Y367,6
  +1 Y372,0 +1 Y372,1 +1 Y372,2 +1 Y372,3 +1 Y372,4 +1 Y372,5 +1 Y372,6 +1 Y373,0 +1 Y373,1 +1 Y373,2
  +1 Y373,3 +1 Y373,4 +1 Y373,5 +1 Y373,6 +1 Y374,0 +1 Y374,1 +1 Y374,2 +1 Y374,3 +1 Y374,4 +1 Y374,5
  +1 Y374,6 +1 Y375,0 +1 Y375,1 +1 Y375,2 +1 Y375,3 +1 Y375,4 +1 Y375,5 +1 Y375,6 +1 Y386,0 +1 Y386,1
  +1 Y386,2 +1 Y386,3 +1 Y386,4 +1 Y386,5 +1 Y386,6 +1 Y411,0 +1 Y411,1 +1 Y411,2 +1 Y411,3 +1 Y411,4
  +1 Y411,5 +1 Y411,6 +1 Y412,0 +1 Y412,1 +1 Y412,2 +1 Y412,3 +1 Y412,4 +1 Y412,5 +1 Y412,6 +1 Y413,0
  +1 Y413,1 +1 Y413,2 +1 Y413,3 +1 Y413,4 +1 Y413,5 +1 Y413,6 +1 Y414,0 +1 Y414,1 +1 Y414,2 +1 Y414,3
  +1 Y414,4 +1 Y414,5 +1 Y414,6 +1 Y415,0 +1 Y415,1 +1 Y415,2 +1 Y415,3 +1 Y415,4 +1 Y415,5 +1 Y415,6
  +1 Y416,0 +1 Y416,1 +1 Y416,2 +1 Y416,3 +1 Y416,4 +1 Y416,5 +1 Y416,6 +1 Y421,0 +1 Y421,1 +1 Y421,2
  +1 Y421,3 +1 Y421,4 +1 Y421,5 +1 Y421,6 +1 Y422,0 +1 Y422,1 +1 Y422,2 +1 Y422,3 +1 Y422,4 +1 Y422,5
  +1 Y422,6 +1 Y423,0 +1 Y423,1 +1 Y423,2 +1 Y423,3 +1 Y423,4 +1 Y423,5 +1 Y423,6 +1 Y424,0 +1 Y424,1
  +1 Y424,2 +1 Y424,3 +1 Y424,4 +1 Y424,5 +1 Y424,6 +1 Y446,0 +1 Y446,1 +1 Y446,2 +1 Y446,3 +1 Y446,4
  +1 Y446,5 +1 Y446,6 +1 Y447,0 +1 Y447,1 +1 Y447,2 +1 Y447,3 +1 Y447,4 +1 Y447,5 +1 Y447,6 +1 Y448,0
  +1 Y448,1 +1 Y448,2 +1 Y448,3 +1 Y448,4 +1 Y448,5 +1 Y448,6 +1 Y449,0 +1 Y449,1 +1 Y449,2 +1 Y449,3
  +1 Y449,4 +1 Y449,5 +1 Y449,6 +1 Y450,0 +1 Y450,1 +1 Y450,2 +1 Y450,3 +1 Y450,4 +1 Y450,5 +1 Y450,6
  +1 Y451,0 +1 Y451,1 +1 Y451,2 +1 Y451,3 +1 Y451,4 +1 Y451,5 +1 Y451,6 +1 Y456,0 +1 Y456,1 +1 Y456,2
  +1 Y456,3 +1 Y456,4 +1 Y456,5 +1 Y456,6 +1 Y457,0 +1 Y457,1 +1 Y457,2 +1 Y457,3 +1 Y457,4 +1 Y457,5
  +1 Y457,6 +1 Y458,0 +1 Y458,1 +1 Y458,2 +1 Y458,3 +1 Y458,4 +1 Y458,5 +1 Y458,6 +1 Y459,0 +1 Y459,1
  +1 Y459,2 +1 Y459,3 +1 Y459,4 +1 Y459,5 +1 Y459,6 +1 Y471,0 +1 Y471,1 +1 Y471,2 +1 Y471,3 +1 Y471,4
  +1 Y471,5 +1 Y471,6 +1 Y472,0 +1 Y472,1 +1 Y472,2 +1 Y472,3 +1 Y472,4 +1 Y472,5 +1 Y472,6 +1 Y473,0
  +1 Y473,1 +1 Y473,2 +1 Y473,3 +1 Y473,4 +1 Y473,5 +1 Y473,6 +1 Y474,0 +1 Y474,1 +1 Y474,2 +1 Y474,3
  +1 Y474,4 +1 Y474,5 +1 Y474,6 +1 Y475,0 +1 Y475,1 +1 Y475,2 +1 Y475,3 +1 Y475,4 +1 Y475,5 +1 Y475,6
  +1 Y476,0 +1 Y476,1 +1 Y476,2 +1 Y476,3 +1 Y476,4 +1 Y476,5 +1 Y476,6 +1 Y481,0 +1 Y481,1 +1 Y481,2
  +1 Y481,3 +1 Y481,4 +1 Y481,5 +1 Y481,6 +1 Y482,0 +1 Y482,1 +1 Y482,2 +1 Y482,3 +1 Y482,4 +1 Y482,5
  +1 Y482,6 +1 Y483,0 +1 Y483,1 +1 Y483,2 +1 Y483,3 +1 Y483,4 +1 Y483,5 +1 Y483,6 +1 Y484,0 +1 Y484,1
  +1 Y484,2 +1 Y484,3 +1 Y484,4 +1 Y484,5 +1 Y484,6 +1 Y486,0 +1 Y486,1 +1 Y486,2 +1 Y486,3 +1 Y486,4
  +1 Y486,5 +1 Y486,6 +1 Y487,0 +1 Y487,1 +1 Y487,2 +1 Y487,3 +1 Y487,4 +1 Y487,5 +1 Y487,6 +1 Y488,0
  +1 Y488,1 +1 Y488,2 +1 Y488,3 +1 Y488,4 +1 Y488,5 +1 Y488,6 +1 Y489,0 +1 Y489,1 +1 Y489,2 +1 Y489,3
  +1 Y489,4 +1 Y489,5 +1 Y489,6 +1 Y490,0 +1 Y490,1 +1 Y490,2 +1 Y490,3 +1 Y490,4 +1 Y490,5 +1 Y490,6
  +1 Y491,0 +1 Y491,1 +1 Y491,2 +1 Y491,3 +1 Y491,4 +1 Y491,5 +1 Y491,6 +1 Y496,0 +1 Y496,1 +1 Y496,2
  +1 Y496,3 +1 Y496,4 +1 Y496,5 +1 Y496,6 +1 Y497,0 +1 Y497,1 +1 Y497,2 +1 Y497,3 +1 Y497,4 +1 Y497,5
  +1 Y497,6 +1 Y498,0 +1 Y498,1 +1 Y498,2 +1 Y498,3 +1 Y498,4 +1 Y498,5 +1 Y498,6 +1 Y499,0 +1 Y499,1
  +1 Y499,2 +1 Y499,3 +1 Y499,4 +1 Y499,5 +1 Y499,6 +1 Y501,0 +1 Y501,1 +1 Y501,2 +1 Y501,3 +1 Y501,4
  +1 Y501,5 +1 Y501,6 +1 Y502,0 +1 Y502,1 +1 Y502,2 +1 Y502,3 +1 Y502,4 +1 Y502,5 +1 Y502,6 +1 Y503,0
  +1 Y503,1 +1 Y503,2 +1 Y503,3 +1 Y503,4 +1 Y503,5 +1 Y503,6 +1 Y504,0 +1 Y504,1 +1 Y504,2 +1 Y504,3
  +1 Y504,4 +1 Y504,5 +1 Y504,6 +1 Y506,0 +1 Y506,1 +1 Y506,2 +1 Y506,3 +1 Y506,4 +1 Y506,5 +1 Y506,6
  +1 Y519,0 +1 Y519,1 +1 Y519,2 +1 Y519,3 +1 Y519,4 +1 Y519,5 +1 Y519,6 +1 Y520,0 +1 Y520,1 +1 Y520,2
  +1 Y520,3 +1 Y520,4 +1 Y520,5 +1 Y520,6 +1 Y521,0 +1 Y521,1 +1 Y521,2 +1 Y521,3 +1 Y521,4 +1 Y521,5
  +1 Y521,6 +1 Y523,0 +1 Y523,1 +1 Y523,2 +1 Y523,3 +1 Y523,4 +1 Y523,5 +1 Y523,6 +1 Y531,0 +1 Y531,1
  +1 Y531,2 +1 Y531,3 +1 Y531,4 +1 Y531,5 +1 Y531,6 +1 Y532,0 +1 Y532,1 +1 Y532,2 +1 Y532,3 +1 Y532,4
  +1 Y532,5 +1 Y532,6 +1 Y533,0 +1 Y533,1 +1 Y533,2 +1 Y533,3 +1 Y533,4 +1 Y533,5 +1 Y533,6 +1 Y535,0
  +1 Y535,1 +1 Y535,2 +1 Y535,3 +1 Y535,4 +1 Y535,5 +1 Y535,6 +1 Y538,0 +1 Y538,1 +1 Y538,2 +1 Y538,3
  +1 Y538,4 +1 Y538,5 +1 Y538,6 +1 Y540,0 +1 Y540,1 +1 Y540,2 +1 Y540,3 +1 Y540,4 +1 Y540,5 +1 Y540,6
  = +1
 c21: +1 Y698,0 +1 Y698,1 +1 Y698,2 +1 Y698,3 +1 Y698,4 +1 Y698,5 +1 Y698,6 +1 Y701,0 +1 Y701,1 +1 Y701,2
  +1 Y701,3 +1 Y701,4 +1 Y701,5 +1 Y701,6 +1 Y704,0 +1 Y704,1 +1 Y704,2 +1 Y704,3 +1 Y704,4 +1 Y704,5
  +1 Y704,6 +1 Y705,0 +1 Y705,1 +1 Y705,2 +1 Y705,3 +1 Y705,4 +1 Y705,5 +1 Y705,6 +1 Y707,0 +1 Y707,1
  +1 Y707,2 +1 Y707,3 +1 Y707,4 +1 Y707,5 +1 Y707,6 +1 Y708,0 +1 Y708,1 +1 Y708,2 +1 Y708,3 +1 Y708,4
  +1 Y708,5 +1 Y708,6 +1 Y710,0 +1 Y710,1 +1 Y710,2 +1 Y710,3 +1 Y710,4 +1 Y710,5 +1 Y710,6 +1 Y711,0
  +1 Y711,1 +1 Y711,2 +1 Y711,3 +1 Y711,4 +1 Y711,5 +1 Y711,6 = +1
 c22: +1 Y879,0 +1 Y879,1 +1 Y879,2 +1 Y879,3 +1 Y879,4 +1 Y879,5 +1 Y879,6 +1 Y882,0 +1 Y882,1 +1 Y882,2
  +1 Y882,3 +1 Y882,4 +1 Y882,5 +1 Y882,6 +1 Y883,0 +1 Y883,1 +1 Y883,2 +1 Y883,3 +1 Y883,4 +1 Y883,5
  +1 Y883,6 +1 Y885,0 +1 Y885,1 +1 Y885,2 +1 Y885,3 +1 Y885,4 +1 Y885,5 +1 Y885,6 = +1
 c23: +1 Y6,0 +1 Y6,1 +1 Y6,2 +1 Y6,3 +1 Y6,4 +1 Y6,5 +1 Y6,6 +1 Y15,0 +1 Y15,1 +1 Y15,2 +1 Y15,3 +1 Y15,4
  +1 Y15,5 +1 Y15,6 +1 Y23,0 +1 Y23,1 +1 Y23,2 +1 Y23,3 +1 Y23,4 +1 Y23,5 +1 Y23,6 +1 Y30,0 +1 Y30,1 +1 Y30,2
  +1 Y30,3 +1 Y30,4 +1 Y30,5 +1 Y30,6 +1 Y36,0 +1 Y36,1 +1 Y36,2 +1 Y36,3 +1 Y36,4 +1 Y36,5 +1 Y36,6 +1 Y41,0
  +1 Y41,1 +1 Y41,2 +1 Y41,3 +1 Y41,4 +1 Y41,5 +1 Y41,6 +1 Y45,0 +1 Y45,1 +1 Y45,2 +1 Y45,3 +1 Y45,4 +1 Y45,5
  +1 Y45,6 +1 Y49,0 +1 Y49,1 +1 Y49,2 +1 Y49,3 +1 Y49,4 +1 Y49,5 +1 Y49,6 +1 Y50,0 +1 Y50,1 +1 Y50,2 +1 Y50,3
  +1 Y50,4 +1 Y50,5 +1 Y50,6 +1 Y51,0 +1 Y51,1 +1 Y51,2 +1 Y51,3 +1 Y51,4 +1 Y51,5 +1 Y51,6 +1 Y59,0 +1 Y59,1
  +1 Y59,2 +1 Y59,3 +1 Y59,4 +1 Y59,5 +1 Y59,6 +1 Y66,0 +1 Y66,1 +1 Y66,2 +1 Y66,3 +1 Y66,4 +1 Y66,5 +1 Y66,6
  +1 Y72,0 +1 Y72,1 +1 Y72,2 +1 Y72,3 +1 Y72,4 +1 Y72,5 +1 Y72,6 +1 Y77,0 +1 Y77,1 +1 Y77,2 +1 Y77,3 +1 Y77,4
  +1 Y77,5 +1 Y77,6 +1 Y81,0 +1 Y81,1 +1 Y81,2 +1 Y81,3 +1 Y81,4 +1 Y81,5 +1 Y81,6 +1 Y85,0 +1 Y85,1 +1 Y85,2
  +1 Y85,3 +1 Y85,4 +1 Y85,5 +1 Y85,6 +1 Y86,0 +1 Y86,1 +1 Y86,2 +1 Y86,3 +1 Y86,4 +1 Y86,5 +1 Y86,6 +1 Y87,0
  +1 Y87,1 +1 Y87,2 +1 Y87,3 +1 Y87,4 +1 Y87,5 +1 Y87,6 +1 Y94,0 +1 Y94,1 +1 Y94,2 +1 Y94,3 +1 Y94,4 +1 Y94,5
  +1 Y94,6 +1 Y100,0 +1 Y100,1 +1 Y100,2 +1 Y100,3 +1 Y100,4 +1 Y100,5 +1 Y100,6 +1 Y105,0 +1 Y105,1 +1 Y105,2
  +1 Y105,3 +1 Y105,4 +1 Y105,5 +1 Y105,6 +1 Y109,0 +1 Y109,1 +1 Y109,2 +1 Y109,3 +1 Y109,4 +1 Y109,5
  +1 Y109,6 +1 Y113,0 +1 Y113,1 +1 Y113,2 +1 Y113,3 +1 Y113,4 +1 Y113,5 +1 Y113,6 +1 Y114,0 +1 Y114,1
  +1 Y114,2 +1 Y114,3 +1 Y114,4 +1 Y114,5 +1 Y114,6 +1 Y115,0 +1 Y115,1 +1 Y115,2 +1 Y115,3 +1 Y115,4
  +1 Y115,5 +1 Y115,6 +1 Y121,0 +1 Y121,1 +1 Y121,2 +1 Y121,3 +1 Y121,4 +1 Y121,5 +1 Y121,6 +1 Y126,0
  +1 Y126,1 +1 Y126,2 +1 Y126,3 +1 Y126,4 +1 Y126,5 +1 Y126,6 +1 Y130,0 +1 Y130,1 +1 Y130,2 +1 Y130,3
  +1 Y130,4 +1 Y130,5 +1 Y130,6 +1 Y134,0 +1 Y134,1 +1 Y134,2 +1 Y134,3 +1 Y134,4 +1 Y134,5 +1 Y134,6
  +1 Y135,0 +1 Y135,1 +1 Y135,2 +1 Y135,3 +1 Y135,4 +1 Y135,5 +1 Y135,6 +1 Y136,0 +1 Y136,1 +1 Y136,2
  +1 Y136,3 +1 Y136,4 +1 Y136,5 +1 Y136,6 +1 Y141,0 +1 Y141,1 +1 Y141,2 +1 Y141,3 +1 Y141,4 +1 Y141,5
  +1 Y141,6 +1 Y145,0 +1 Y145,1 +1 Y145,2 +1 Y145,3 +1 Y145,4 +1 Y145,5 +1 Y145,6 +1 Y149,0 +1 Y149,1
  +1 Y149,2 +1 Y149,3 +1 Y149,4 +1 Y149,5 +1 Y149,6 +1 Y150,0 +1 Y150,1 +1 Y150,2 +1 Y150,3 +1 Y150,4
  +1 Y150,5 +1 Y150,6 +1 Y151,0 +1 Y151,1 +1 Y151,2 +1 Y151,3 +1 Y151,4 +1 Y151,5 +1 Y151,6 +1 Y155,0
  +1 Y155,1 +1 Y155,2 +1 Y155,3 +1 Y155,4 +1 Y155,5 +1 Y155,6 +1 Y159,0 +1 Y159,1 +1 Y159,2 +1 Y159,3
  +1 Y159,4 +1 Y159,5 +1 Y159,6 +1 Y160,0 +1 Y160,1 +1 Y160,2 +1 Y160,3 +1 Y160,4 +1 Y160,5 +1 Y160,6
  +1 Y161,0 +1 Y161,1 +1 Y161,2 +1 Y161,3 +1 Y161,4 +1 Y161,5 +1 Y161,6 +1 Y165,0 +1 Y165,1 +1 Y165,2
  +1 Y165,3 +1 Y165,4 +1 Y165,5 +1 Y165,6 +1 Y166,0 +1 Y166,1 +1 Y166,2 +1 Y166,3 +1 Y166,4 +1 Y166,5
  +1 Y166,6 +1 Y167,0 +1 Y167,1 +1 Y167,2 +1 Y167,3 +1 Y167,4 +1 Y167,5 +1 Y167,6 +1 Y171,0 +1 Y171,1
  +1 Y171,2 +1 Y171,3 +1 Y171,4 +1 Y171,5 +1 Y171,6 +1 Y172,0 +1 Y172,1 +1 Y172,2 +1 Y172,3 +1 Y172,4
  +1 Y172,5 +1 Y172,6 +1 Y173,0 +1 Y173,1 +1 Y173,2 +1 Y173,3 +1 Y173,4 +1 Y173,5 +1 Y173,6 +1 Y176,0
  +1 Y176,1 +1 Y176,2 +1 Y176,3 +1 Y176,4 +1 Y176,5 +1 Y176,6 +1 Y181,0 +1 Y181,1 +1 Y181,2 +1 Y181,3
  +1 Y181,4 +1 Y181,5 +1 Y181,6 +1 Y186,0 +1 Y186,1 +1 Y186,2 +1 Y186,3 +1 Y186,4 +1 Y186,5 +1 Y186,6
  +1 Y190,0 +1 Y190,1 +1 Y190,2 +1 Y190,3 +1 Y190,4 +1 Y190,5 +1 Y190,6 +1 Y194,0 +1 Y194,1 +1 Y194,2
  +1 Y194,3 +1 Y194,4 +1 Y194,5 +1 Y194,6 +1 Y195,0 +1 Y195,1 +1 Y195,2 +1 Y195,3 +1 Y195,4 +1 Y195,5
  +1 Y195,6 +1 Y196,0 +1 Y196,1 +1 Y196,2 +1 Y196,3 +1 Y196,4 +1 Y196,5 +1 Y196,6 +1 Y201,0 +1 Y201,1
  +1 Y201,2 +1 Y201,3 +1 Y201,4 +1 Y201,5 +1 Y201,6 +1 Y206,0 +1 Y206,1 +1 Y206,2 +1 Y206,3 +1 Y206,4
  +1 Y206,5 +1 Y206,6 +1 Y210,0 +1 Y210,1 +1 Y210,2 +1 Y210,3 +1 Y210,4 +1 Y210,5 +1 Y210,6 +1 Y214,0
  +1 Y214,1 +1 Y214,2 +1 Y214,3 +1 Y214,4 +1 Y214,5 +1 Y214,6 +1 Y215,0 +1 Y215,1 +1 Y215,2 +1 Y215,3
  +1 Y215,4 +1 Y215,5 +1 Y215,6 +1 Y216,0 +1 Y216,1 +1 Y216,2 +1 Y216,3 +1 Y216,4 +1 Y216,5 +1 Y216,6
  +1 Y221,0 +1 Y221,1 +1 Y221,2 +1 Y221,3 +1 Y221,4 +1 Y221,5 +1 Y221,6 +1 Y225,0 +1 Y225,1 +1 Y225,2
  +1 Y225,3 +1 Y225,4 +1 Y225,5 +1 Y225,6 +1 Y229,0 +1 Y229,1 +1 Y229,2 +1 Y229,3 +1 Y229,4 +1 Y229,5
  +1 Y229,6 +1 Y230,0 +1 Y230,1 +1 Y230,2 +1 Y230,3 +1 Y230,4 +1 Y230,5 +1 Y230,6 +1 Y231,0 +1 Y231,1
  +1 Y231,2 +1 Y231,3 +1 Y231,4 +1 Y231,5 +1 Y231,6 +1 Y235,0 +1 Y235,1 +1 Y235,2 +1 Y235,3 +1 Y235,4
  +1 Y235,5 +1 Y235,6 +1 Y239,0 +1 Y239,1 +1 Y239,2 +1 Y239,3 +1 Y239,4 +1 Y239,5 +1 Y239,6 +1 Y240,0
  +1 Y240,1 +1 Y240,2 +1 Y240,3 +1 Y240,4 +1 Y240,5 +1 Y240,6 +1 Y241,0 +1 Y241,1 +1 Y241,2 +1 Y241,3
  +1 Y241,4 +1 Y241,5 +1 Y241,6 +1 Y245,0 +1 Y245,1 +1 Y245,2 +1 Y245,3 +1 Y245,4 +1 Y245,5 +1 Y245,6
  +1 Y246,0 +1 Y246,1 +1 Y246,2 +1 Y246,3 +1 Y246,4 +1 Y246,5 +1 Y246,6 +1 Y247,0 +1 Y247,1 +1 Y247,2
  +1 Y247,3 +1 Y247,4 +1 Y247,5 +1 Y247,6 +1 Y251,0 +1 Y251,1 +1 Y251,2 +1 Y251,3 +1 Y251,4 +1 Y251,5
  +1 Y251,6 +1 Y252,0 +1 Y252,1 +1 Y252,2 +1 Y252,3 +1 Y252,4 +1 Y252,5 +1 Y252,6 +1 Y253,0 +1 Y253,1
  +1 Y253,2 +1 Y253,3 +1 Y253,4 +1 Y253,5 +1 Y253,6 +1 Y256,0 +1 Y256,1 +1 Y256,2 +1 Y256,3 +1 Y256,4
  +1 Y256,5 +1 Y256,6 +1 Y261,0 +1 Y261,1 +1 Y261,2 +1 Y261,3 +1 Y261,4 +1 Y261,5 +1 Y261,6 +1 Y265,0
  +1 Y265,1 +1 Y265,2 +1 Y265,3 +1 Y265,4 +1 Y265,5 +1 Y265,6 +1 Y269,0 +1 Y269,1 +1 Y269,2 +1 Y269,3
  +1 Y269,4 +1 Y269,5 +1 Y269,6 +1 Y270,0 +1 Y270,1 +1 Y270,2 +1 Y270,3 +1 Y270,4 +1 Y270,5 +1 Y270,6
  +1 Y271,0 +1 Y271,1 +1 Y271,2 +1 Y271,3 +1 Y271,4 +1 Y271,5 +1 Y271,6 +1 Y276,0 +1 Y276,1 +1 Y276,2
  +1 Y276,3 +1 Y276,4 +1 Y276,5 +1 Y276,6 +1 Y280,0 +1 Y280,1 +1 Y280,2 +1 Y280,3 +1 Y280,4 +1 Y280,5
  +1 Y280,6 +1 Y284,0 +1 Y284,1 +1 Y284,2 +1 Y284,3 +1 Y284,4 +1 Y284,5 +1 Y284,6 +1 Y285,0 +1 Y285,1
  +1 Y285,2 +1 Y285,3 +1 Y285,4 +1 Y285,5 +1 Y285,6 +1 Y286,0 +1 Y286,1 +1 Y286,2 +1 Y286,3 +1 Y286,4
  +1 Y286,5 +1 Y286,6 +1 Y290,0 +1 Y290,1 +1 Y290,2 +1 Y290,3 +1 Y290,4 +1 Y290,5 +1 Y290,6 +1 Y294,0
  +1 Y294,1 +1 Y294,2 +1 Y294,3 +1 Y294,4 +1 Y294,5 +1 Y294,6 +1 Y295,0 +1 Y295,1 +1 Y295,2 +1 Y295,3
  +1 Y295,4 +1 Y295,5 +1 Y295,6 +1 Y296,0 +1 Y296,1 +1 Y296,2 +1 Y296,3 +1 Y296,4 +1 Y296,5 +1 Y296,6
  +1 Y300,0 +1 Y300,1 +1 Y300,2 +1 Y300,3 +1 Y300,4 +1 Y300,5 +1 Y300,6 +1 Y301,0 +1 Y301,1 +1 Y301,2
  +1 Y301,3 +1 Y301,4 +1 Y301,5 +1 Y301,6 +1 Y302,0 +1 Y302,1 +1 Y302,2 +1 Y302,3 +1 Y302,4 +1 Y302,5
  +1 Y302,6 +1 Y306,0 +1 Y306,1 +1 Y306,2 +1 Y306,3 +1 Y306,4 +1 Y306,5 +1 Y306,6 +1 Y307,0 +1 Y307,1
  +1 Y307,2 +1 Y307,3 +1 Y307,4 +1 Y307,5 +1 Y307,6 +1 Y308,0 +1 Y308,1 +1 Y308,2 +1 Y308,3 +1 Y308,4
  +1 Y308,5 +1 Y308,6 +1 Y310,0 +1 Y310,1 +1 Y310,2 +1 Y310,3 +1 Y310,4 +1 Y310,5 +1 Y310,6 +1 Y314,0
  +1 Y314,1 +1 Y314,2 +1 Y314,3 +1 Y314,4 +1 Y314,5 +1 Y314,6 +1 Y316,0 +1 Y316,1 +1 Y316,2 +1 Y316,3
  +1 Y316,4 +1 Y316,5 +1 Y316,6 +1 Y317,0 +1 Y317,1 +1 Y317,2 +1 Y317,3 +1 Y317,4 +1 Y317,5 +1 Y317,6
  +1 Y318,0 +1 Y318,1 +1 Y318,2 +1 Y318,3 +1 Y318,4 +1 Y318,5 +1 Y318,6 +1 Y322,0 +1 Y322,1 +1 Y322,2
  +1 Y322,3 +1 Y322,4 +1 Y322,5 +1 Y322,6 +1 Y326,0 +1 Y326,1 +1 Y326,2 +1 Y326,3 +1 Y326,4 +1 Y326,5
  +1 Y326,6 +1 Y327,0 +1 Y327,1 +1 Y327,2 +1 Y327,3 +1 Y327,4 +1 Y327,5 +1 Y327,6 +1 Y328,0 +1 Y328,1
  +1 Y328,2 +1 Y328,3 +1 Y328,4 +1 Y328,5 +1 Y328,6 +1 Y332,0 +1 Y332,1 +1 Y332,2 +1 Y332,3 +1 Y332,4
  +1 Y332,5 +1 Y332,6 +1 Y333,0 +1 Y333,1 +1 Y333,2 +1 Y333,3 +1 Y333,4 +1 Y333,5 +1 Y333,6 +1 Y334,0
  +1 Y334,1 +1 Y334,2 +1 Y334,3 +1 Y334,4 +1 Y334,5 +1 Y334,6 +1 Y338,0 +1 Y338,1 +1 Y338,2 +1 Y338,3
  +1 Y338,4 +1 Y338,5 +1 Y338,6 +1 Y339,0 +1 Y339,1 +1 Y339,2 +1 Y339,3 +1 Y339,4 +1 Y339,5 +1 Y339,6
  +1 Y340,0 +1 Y340,1 +1 Y340,2 +1 Y340,3 +1 Y340,4 +1 Y340,5 +1 Y340,6 +1 Y342,0 +1 Y342,1 +1 Y342,2
  +1 Y342,3 +1 Y342,4 +1 Y342,5 +1 Y342,6 +1 Y346,0 +1 Y346,1 +1 Y346,2 +1 Y346,3 +1 Y346,4 +1 Y346,5
  +1 Y346,6 +1 Y347,0 +1 Y347,1 +1 Y347,2 +1 Y347,3 +1 Y347,4 +1 Y347,5 +1 Y347,6 +1 Y348,0 +1 Y348,1
  +1 Y348,2 +1 Y348,3 +1 Y348,4 +1 Y348,5 +1 Y348,6 +1 Y352,0 +1 Y352,1 +1 Y352,2 +1 Y352,3 +1 Y352,4
  +1 Y352,5 +1 Y352,6 +1 Y353,0 +1 Y353,1 +1 Y353,2 +1 Y353,3 +1 Y353,4 +1 Y353,5 +1 Y353,6 +1 Y354,0
  +1 Y354,1 +1 Y354,2 +1 Y354,3 +1 Y354,4 +1 Y354,5 +1 Y354,6 +1 Y358,0 +1 Y358,1 +1 Y358,2 +1 Y358,3
  +1 Y358,4 +1 Y358,5 +1 Y358,6 +1 Y359,0 +1 Y359,1 +1 Y359,2 +1 Y359,3 +1 Y359,4 +1 Y359,5 +1 Y359,6
  +1 Y360,0 +1 Y360,1 +1 Y360,2 +1 Y360,3 +1 Y360,4 +1 Y360,5 +1 Y360,6 +1 Y362,0 +1 Y362,1 +1 Y362,2
  +1 Y362,3 +1 Y362,4 +1 Y362,5 +1 Y362,6 +1 Y363,0 +1 Y363,1 +1 Y363,2 +1 Y363,3 +1 Y363,4 +1 Y363,5
  +1 Y363,6 +1 Y364,0 +1 Y364,1 +1 Y364,2 +1 Y364,3 +1 Y364,4 +1 Y364,5 +1 Y364,6 +1 Y368,0 +1 Y368,1
  +1 Y368,2 +1 Y368,3 +1 Y368,4 +1 Y368,5 +1 Y368,6 +1 Y369,0 +1 Y369,1 +1 Y369,2 +1 Y369,3 +1 Y369,4
  +1 Y369,5 +1 Y369,6 +1 Y370,0 +1 Y370,1 +1 Y370,2 +1 Y370,3 +1 Y370,4 +1 Y370,5 +1 Y370,6 +1 Y372,0
  +1 Y372,1 +1 Y372,2 +1 Y372,3 +1 Y372,4 +1 Y372,5 +1 Y372,6 +1 Y373,0 +1 Y373,1 +1 Y373,2 +1 Y373,3
  +1 Y373,4 +1 Y373,5 +1 Y373,6 +1 Y374,0 +1 Y374,1 +1 Y374,2 +1 Y374,3 +1 Y374,4 +1 Y374,5 +1 Y374,6
  +1 Y376,0 +1 Y376,1 +1 Y376,2 +1 Y376,3 +1 Y376,4 +1 Y376,5 +1 Y376,6 +1 Y377,0 +1 Y377,1 +1 Y377,2
  +1 Y377,3 +1 Y377,4 +1 Y377,5 +1 Y377,6 +1 Y378,0 +1 Y378,1 +1 Y378,2 +1 Y378,3 +1 Y378,4 +1 Y378,5
  +1 Y378,6 +1 Y379,0 +1 Y379,1 +1 Y379,2 +1 Y379,3 +1 Y379,4 +1 Y379,5 +1 Y379,6 +1 Y380,0 +1 Y380,1
  +1 Y380,2 +1 Y380,3 +1 Y380,4 +1 Y380,5 +1 Y380,6 +1 Y381,0 +1 Y381,1 +1 Y381,2 +1 Y381,3 +1 Y381,4
  +1 Y381,5 +1 Y381,6 +1 Y382,0 +1 Y382,1 +1 Y382,2 +1 Y382,3 +1 Y382,4 +1 Y382,5 +1 Y382,6 +1 Y386,0
  +1 Y386,1 +1 Y386,2 +1 Y386,3 +1 Y386,4 +1 Y386,5 +1 Y386,6 +1 Y387,0 +1 Y387,1 +1 Y387,2 +1 Y387,3
  +1 Y387,4 +1 Y387,5 +1 Y387,6 +1 Y388,0 +1 Y388,1 +1 Y388,2 +1 Y388,3 +1 Y388,4 +1 Y388,5 +1 Y388,6
  +1 Y389,0 +1 Y389,1 +1 Y389,2 +1 Y389,3 +1 Y389,4 +1 Y389,5 +1 Y389,6 +1 Y391,0 +1 Y391,1 +1 Y391,2
  +1 Y391,3 +1 Y391,4 +1 Y391,5 +1 Y391,6 +1 Y392,0 +1 Y392,1 +1 Y392,2 +1 Y392,3 +1 Y392,4 +1 Y392,5
  +1 Y392,6 +1 Y393,0 +1 Y393,1 +1 Y393,2 +1 Y393,3 +1 Y393,4 +1 Y393,5 +1 Y393,6 +1 Y397,0 +1 Y397,1
  +1 Y397,2 +1 Y397,3 +1 Y397,4 +1 Y397,5 +1 Y397,6 +1 Y398,0 +1 Y398,1 +1 Y398,2 +1 Y398,3 +1 Y398,4
  +1 Y398,5 +1 Y398,6 +1 Y399,0 +1 Y399,1 +1 Y399,2 +1 Y399,3 +1 Y399,4 +1 Y399,5 +1 Y399,6 +1 Y401,0
  +1 Y401,1 +1 Y401,2 +1 Y401,3 +1 Y401,4 +1 Y401,5 +1 Y401,6 +1 Y402,0 +1 Y402,1 +1 Y402,2 +1 Y402,3
  +1 Y402,4 +1 Y402,5 +1 Y402,6 +1 Y403,0 +1 Y403,1 +1 Y403,2 +1 Y403,3 +1 Y403,4 +1 Y403,5 +1 Y403,6
  +1 Y407,0 +1 Y407,1 +1 Y407,2 +1 Y407,3 +1 Y407,4 +1 Y407,5 +1 Y407,6 +1 Y408,0 +1 Y408,1 +1 Y408,2
  +1 Y408,3 +1 Y408,4 +1 Y408,5 +1 Y408,6 +1 Y409,0 +1 Y409,1 +1 Y409,2 +1 Y409,3 +1 Y409,4 +1 Y409,5
  +1 Y409,6 +1 Y411,0 +1 Y411,1 +1 Y411,2 +1 Y411,3 +1 Y411,4 +1 Y411,5 +1 Y411,6 +1 Y412,0 +1 Y412,1
  +1 Y412,2 +1 Y412,3 +1 Y412,4 +1 Y412,5 +1 Y412,6 +1 Y413,0 +1 Y413,1 +1 Y413,2 +1 Y413,3 +1 Y413,4
  +1 Y413,5 +1 Y413,6 +1 Y417,0 +1 Y417,1 +1 Y417,2 +1 Y417,3 +1 Y417,4 +1 Y417,5 +1 Y417,6 +1 Y418,0
  +1 Y418,1 +1 Y418,2 +1 Y418,3 +1 Y418,4 +1 Y418,5 +1 Y418,6 +1 Y419,0 +1 Y419,1 +1 Y419,2 +1 Y419,3
  +1 Y419,4 +1 Y419,5 +1 Y419,6 +1 Y421,0 +1 Y421,1 +1 Y421,2 +1 Y421,3 +1 Y421,4 +1 Y421,5 +1 Y421,6
  +1 Y422,0 +1 Y422,1 +1 Y422,2 +1 Y422,3 +1 Y422,4 +1 Y422,5 +1 Y422,6 +1 Y423,0 +1 Y423,1 +1 Y423,2
  +1 Y423,3 +1 Y423,4 +1 Y423,5 +1 Y423,6 +1 Y425,0 +1 Y425,1 +1 Y425,2 +1 Y425,3 +1 Y425,4 +1 Y425,5
  +1 Y425,6 +1 Y426,0 +1 Y426,1 +1 Y426,2 +1 Y426,3 +1 Y426,4 +1 Y426,5 +1 Y426,6 +1 Y427,0 +1 Y427,1
  +1 Y427,2 +1 Y427,3 +1 Y427,4 +1 Y427,5 +1 Y427,6 +1 Y428,0 +1 Y428,1 +1 Y428,2 +1 Y428,3 +1 Y428,4
  +1 Y428,5 +1 Y428,6 +1 Y432,0 +1 Y432,1 +1 Y432,2 +1 Y432,3 +1 Y432,4 +1 Y432,5 +1 Y432,6 +1 Y433,0
  +1 Y433,1 +1 Y433,2 +1 Y433,3 +1 Y433,4 +1 Y433,5 +1 Y433,6 +1 Y434,0 +1 Y434,1 +1 Y434,2 +1 Y434,3
  +1 Y434,4 +1 Y434,5 +1 Y434,6 +1 Y436,0 +1 Y436,1 +1 Y436,2 +1 Y436,3 +1 Y436,4 +1 Y436,5 +1 Y436,6
  +1 Y437,0 +1 Y437,1 +1 Y437,2 +1 Y437,3 +1 Y437,4 +1 Y437,5 +1 Y437,6 +1 Y438,0 +1 Y438,1 +1 Y438,2
  +1 Y438,3 +1 Y438,4 +1 Y438,5 +1 Y438,6 +1 Y442,0 +1 Y442,1 +1 Y442,2 +1 Y442,3 +1 Y442,4 +1 Y442,5
  +1 Y442,6 +1 Y443,0 +1 Y443,1 +1 Y443,2 +1 Y443,3 +1 Y443,4 +1 Y443,5 +1 Y443,6 +1 Y444,0 +1 Y444,1
  +1 Y444,2 +1 Y444,3 +1 Y444,4 +1 Y444,5 +1 Y444,6 +1 Y446,0 +1 Y446,1 +1 Y446,2 +1 Y446,3 +1 Y446,4
  +1 Y446,5 +1 Y446,6 +1 Y447,0 +1 Y447,1 +1 Y447,2 +1 Y447,3 +1 Y447,4 +1 Y447,5 +1 Y447,6 +1 Y448,0
  +1 Y448,1 +1 Y448,2 +1 Y448,3 +1 Y448,4 +1 Y448,5 +1 Y448,6 +1 Y452,0 +1 Y452,1 +1 Y452,2 +1 Y452,3
  +1 Y452,4 +1 Y452,5 +1 Y452,6 +1 Y453,0 +1 Y453,1 +1 Y453,2 +1 Y453,3 +1 Y453,4 +1 Y453,5 +1 Y453,6
  +1 Y454,0 +1 Y454,1 +1 Y454,2 +1 Y454,3 +1 Y454,4 +1 Y454,5 +1 Y454,6 +1 Y456,0 +1 Y456,1 +1 Y456,2
  +1 Y456,3 +1 Y456,4 +1 Y456,5 +1 Y456,6 +1 Y457,0 +1 Y457,1 +1 Y457,2 +1 Y457,3 +1 Y457,4 +1 Y457,5
  +1 Y457,6 +1 Y458,0 +1 Y458,1 +1 Y458,2 +1 Y458,3 +1 Y458,4 +1 Y458,5 +1 Y458,6 +1 Y460,0 +1 Y460,1
  +1 Y460,2 +1 Y460,3 +1 Y460,4 +1 Y460,5 +1 Y460,6 +1 Y461,0 +1 Y461,1 +1 Y461,2 +1 Y461,3 +1 Y461,4
  +1 Y461,5 +1 Y461,6 +1 Y462,0 +1 Y462,1 +1 Y462,2 +1 Y462,3 +1 Y462,4 +1 Y462,5 +1 Y462,6 +1 Y463,0
  +1 Y463,1 +1 Y463,2 +1 Y463,3 +1 Y463,4 +1 Y463,5 +1 Y463,6 +1 Y467,0 +1 Y467,1 +1 Y467,2 +1 Y467,3
  +1 Y467,4 +1 Y467,5 +1 Y467,6 +1 Y468,0 +1 Y468,1 +1 Y468,2 +1 Y468,3 +1 Y468,4 +1 Y468,5 +1 Y468,6
  +1 Y469,0 +1 Y469,1 +1 Y469,2 +1 Y469,3 +1 Y469,4 +1 Y469,5 +1 Y469,6 +1 Y471,0 +1 Y471,1 +1 Y471,2
  +1 Y471,3 +1 Y471,4 +1 Y471,5 +1 Y471,6 +1 Y472,0 +1 Y472,1 +1 Y472,2 +1 Y472,3 +1 Y472,4 +1 Y472,5
  +1 Y472,6 +1 Y473,0 +1 Y473,1 +1 Y473,2 +1 Y473,3 +1 Y473,4 +1 Y473,5 +1 Y473,6 +1 Y477,0 +1 Y477,1
  +1 Y477,2 +1 Y477,3 +1 Y477,4 +1 Y477,5 +1 Y477,6 +1 Y478,0 +1 Y478,1 +1 Y478,2 +1 Y478,3 +1 Y478,4
  +1 Y478,5 +1 Y478,6 +1 Y479,0 +1 Y479,1 +1 Y479,2 +1 Y479,3 +1 Y479,4 +1 Y479,5 +1 Y479,6 +1 Y481,0
  +1 Y481,1 +1 Y481,2 +1 Y481,3 +1 Y481,4 +1 Y481,5 +1 Y481,6 +1 Y482,0 +1 Y482,1 +1 Y482,2 +1 Y482,3
  +1 Y482,4 +1 Y482,5 +1 Y482,6 +1 Y483,0 +1 Y483,1 +1 Y483,2 +1 Y483,3 +1 Y483,4 +1 Y483,5 +1 Y483,6
  +1 Y485,0 +1 Y485,1 +1 Y485,2 +1 Y485,3 +1 Y485,4 +1 Y485,5 +1 Y485,6 +1 Y486,0 +1 Y486,1 +1 Y486,2
  +1 Y486,3 +1 Y486,4 +1 Y486,5 +1 Y486,6 +1 Y487,0 +1 Y487,1 +1 Y487,2 +1 Y487,3 +1 Y487,4 +1 Y487,5
  +1 Y487,6 +1 Y488,0 +1 Y488,1 +1 Y488,2 +1 Y488,3 +1 Y488,4 +1 Y488,5 +1 Y488,6 +1 Y492,0 +1 Y492,1
  +1 Y492,2 +1 Y492,3 +1 Y492,4 +1 Y492,5 +1 Y492,6 +1 Y493,0 +1 Y493,1 +1 Y493,2 +1 Y493,3 +1 Y493,4
  +1 Y493,5 +1 Y493,6 +1 Y494,0 +1 Y494,1 +1 Y494,2 +1 Y494,3 +1 Y494,4 +1 Y494,5 +1 Y494,6 +1 Y496,0
  +1 Y496,1 +1 Y496,2 +1 Y496,3 +1 Y496,4 +1 Y496,5 +1 Y496,6 +1 Y497,0 +1 Y497,1 +1 Y497,2 +1 Y497,3
  +1 Y497,4 +1 Y497,5 +1 Y497,6 +1 Y498,0 +1 Y498,1 +1 Y498,2 +1 Y498,3 +1 Y498,4 +1 Y498,5 +1 Y498,6
  +1 Y500,0 +1 Y500,1 +1 Y500,2 +1 Y500,3 +1 Y500,4 +1 Y500,5 +1 Y500,6 +1 Y501,0 +1 Y501,1 +1 Y501,2
  +1 Y501,3 +1 Y501,4 +1 Y501,5 +1 Y501,6 +1 Y502,0 +1 Y502,1 +1 Y502,2 +1 Y502,3 +1 Y502,4 +1 Y502,5
  +1 Y502,6 +1 Y503,0 +1 Y503,1 +1 Y503,2 +1 Y503,3 +1 Y503,4 +1 Y503,5 +1 Y503,6 +1 Y505,0 +1 Y505,1
  +1 Y505,2 +1 Y505,3 +1 Y505,4 +1 Y505,5 +1 Y505,6 +1 Y506,0 +1 Y506,1 +1 Y506,2 +1 Y506,3 +1 Y506,4
  +1 Y506,5 +1 Y506,6 +1 Y507,0 +1 Y507,1 +1 Y507,2 +1 Y507,3 +1 Y507,4 +1 Y507,5 +1 Y507,6 +1 Y508,0
  +1 Y508,1 +1 Y508,2 +1 Y508,3 +1 Y508,4 +1 Y508,5 +1 Y508,6 +1 Y509,0 +1 Y509,1 +1 Y509,2 +1 Y509,3
  +1 Y509,4 +1 Y509,5 +1 Y509,6 +1 Y511,0 +1 Y511,1 +1 Y511,2 +1 Y511,3 +1 Y511,4 +1 Y511,5 +1 Y511,6
  +1 Y512,0 +1 Y512,1 +1 Y512,2 +1 Y512,3 +1 Y512,4 +1 Y512,5 +1 Y512,6 +1 Y513,0 +1 Y513,1 +1 Y513,2
  +1 Y513,3 +1 Y513,4 +1 Y513,5 +1 Y513,6 +1 Y514,0 +1 Y514,1 +1 Y514,2 +1 Y514,3 +1 Y514,4 +1 Y514,5
  +1 Y514,6 +1 Y515,0 +1 Y515,1 +1 Y515,2 +1 Y515,3 +1 Y515,4 +1 Y515,5 +1 Y515,6 +1 Y516,0 +1 Y516,1
  +1 Y516,2 +1 Y516,3 +1 Y516,4 +1 Y516,5 +1 Y516,6 +1 Y517,0 +1 Y517,1 +1 Y517,2 +1 Y517,3 +1 Y517,4
  +1 Y517,5 +1 Y517,6 +1 Y518,0 +1 Y518,1 +1 Y518,2 +1 Y518,3 +1 Y518,4 +1 Y518,5 +1 Y518,6 +1 Y519,0
  +1 Y519,1 +1 Y519,2 +1 Y519,3 +1 Y519,4 +1 Y519,5 +1 Y519,6 +1 Y520,0 +1 Y520,1 +1 Y520,2 +1 Y520,3
  +1 Y520,4 +1 Y520,5 +1 Y520,6 +1 Y521,0 +1 Y521,1 +1 Y521,2 +1 Y521,3 +1 Y521,4 +1 Y521,5 +1 Y521,6
  +1 Y522,0 +1 Y522,1 +1 Y522,2 +1 Y522,3 +1 Y522,4 +1 Y522,5 +1 Y522,6 +1 Y523,0 +1 Y523,1 +1 Y523,2
  +1 Y523,3 +1 Y523,4 +1 Y523,5 +1 Y523,6 +1 Y524,0 +1 Y524,1 +1 Y524,2 +1 Y524,3 +1 Y524,4 +1 Y524,5
  +1 Y524,6 +1 Y525,0 +1 Y525,1 +1 Y525,2 +1 Y525,3 +1 Y525,4 +1 Y525,5 +1 Y525,6 +1 Y526,0 +1 Y526,1
  +1 Y526,2 +1 Y526,3 +1 Y526,4 +1 Y526,5 +1 Y526,6 +1 Y527,0 +1 Y527,1 +1 Y527,2 +1 Y527,3 +1 Y527,4
  +1 Y527,5 +1 Y527,6 +1 Y528,0 +1 Y528,1 +1 Y528,2 +1 Y528,3 +1 Y528,4 +1 Y528,5 +1 Y528,6 +1 Y529,0
  +1 Y529,1 +1 Y529,2 +1 Y529,3 +1 Y529,4 +1 Y529,5 +1 Y529,6 +1 Y530,0 +1 Y530,1 +1 Y530,2 +1 Y530,3
  +1 Y530,4 +1 Y530,5 +1 Y530,6 +1 Y531,0 +1 Y531,1 +1 Y531,2 +1 Y531,3 +1 Y531,4 +1 Y531,5 +1 Y531,6
  +1 Y532,0 +1 Y532,1 +1 Y532,2 +1 Y532,3 +1 Y532,4 +1 Y532,5 +1 Y532,6 +1 Y533,0 +1 Y533,1 +1 Y533,2
  +1 Y533,3 +1 Y533,4 +1 Y533,5 +1 Y533,6 +1 Y534,0 +1 Y534,1 +1 Y534,2 +1 Y534,3 +1 Y534,4 +1 Y534,5
  +1 Y534,6 +1 Y535,0 +1 Y535,1 +1 Y535,2 +1 Y535,3 +1 Y535,4 +1 Y535,5 +1 Y535,6 +1 Y536,0 +1 Y536,1
  +1 Y536,2 +1 Y536,3 +1 Y536,4 +1 Y536,5 +1 Y536,6 +1 Y537,0 +1 Y537,1 +1 Y537,2 +1 Y537,3 +1 Y537,4
  +1 Y537,5 +1 Y537,6 +1 Y538,0 +1 Y538,1 +1 Y538,2 +1 Y538,3 +1 Y538,4 +1 Y538,5 +1 Y538,6 +1 Y539,0
  +1 Y539,1 +1 Y539,2 +1 Y539,3 +1 Y539,4 +1 Y539,5 +1 Y539,6 +1 Y540,0 +1 Y540,1 +1 Y540,2 +1 Y540,3
  +1 Y540,4 +1 Y540,5 +1 Y540,6 = +1
 c24: +1 Y543,0 +1 Y543,1 +1 Y543,2 +1 Y543,3 +1 Y543,4 +1 Y543,5 +1 Y543,6 +1 Y545,0 +1 Y545,1 +1 Y545,2
  +1 Y545,3 +1 Y545,4 +1 Y545,5 +1 Y545,6 +1 Y546,0 +1 Y546,1 +1 Y546,2 +1 Y546,3 +1 Y546,4 +1 Y546,5
  +1 Y546,6 +1 Y547,0 +1 Y547,1 +1 Y547,2 +1 Y547,3 +1 Y547,4 +1 Y547,5 +1 Y547,6 = +1
 c25: +1 Y886,0 +1 Y886,1 +1 Y886,2 +1 Y886,3 +1 Y886,4 +1 Y886,5 +1 Y886,6 +1 Y888,0 +1 Y888,1 +1 Y888,2
  +1 Y888,3 +1 Y888,4 +1 Y888,5 +1 Y888,6 = +1
 c26: +1 Y759,0 +1 Y759,1 +1 Y759,2 +1 Y759,3 +1 Y759,4 +1 Y759,5 +1 Y759,6 +1 Y765,0 +1 Y765,1 +1 Y765,2
  +1 Y765,3 +1 Y765,4 +1 Y765,5 +1 Y765,6 +1 Y771,0 +1 Y771,1 +1 Y771,2 +1 Y771,3 +1 Y771,4 +1 Y771,5
  +1 Y771,6 +1 Y772,0 +1 Y772,1 +1 Y772,2 +1 Y772,3 +1 Y772,4 +1 Y772,5 +1 Y772,6 +1 Y773,0 +1 Y773,1
  +1 Y773,2 +1 Y773,3 +1 Y773,4 +1 Y773,5 +1 Y773,6 +1 Y774,0 +1 Y774,1 +1 Y774,2 +1 Y774,3 +1 Y774,4
  +1 Y774,5 +1 Y774,6 +1 Y775,0 +1 Y775,1 +1 Y775,2 +1 Y775,3 +1 Y775,4 +1 Y775,5 +1 Y775,6 +1 Y786,0
  +1 Y786,1 +1 Y786,2 +1 Y786,3 +1 Y786,4 +1 Y786,5 +1 Y786,6 +1 Y787,0 +1 Y787,1 +1 Y787,2 +1 Y787,3
  +1 Y787,4 +1 Y787,5 +1 Y787,6 +1 Y788,0 +1 Y788,1 +1 Y788,2 +1 Y788,3 +1 Y788,4 +1 Y788,5 +1 Y788,6
  +1 Y789,0 +1 Y789,1 +1 Y789,2 +1 Y789,3 +1 Y789,4 +1 Y789,5 +1 Y789,6 +1 Y790,0 +1 Y790,1 +1 Y790,2
  +1 Y790,3 +1 Y790,4 +1 Y790,5 +1 Y790,6 +1 Y801,0 +1 Y801,1 +1 Y801,2 +1 Y801,3 +1 Y801,4 +1 Y801,5
  +1 Y801,6 +1 Y802,0 +1 Y802,1 +1 Y802,2 +1 Y802,3 +1 Y802,4 +1 Y802,5 +1 Y802,6 +1 Y803,0 +1 Y803,1
  +1 Y803,2 +1 Y803,3 +1 Y803,4 +1 Y803,5 +1 Y803,6 +1 Y804,0 +1 Y804,1 +1 Y804,2 +1 Y804,3 +1 Y804,4
  +1 Y804,5 +1 Y804,6 +1 Y805,0 +1 Y805,1 +1 Y805,2 +1 Y805,3 +1 Y805,4 +1 Y805,5 +1 Y805,6 +1 Y806,0
  +1 Y806,1 +1 Y806,2 +1 Y806,3 +1 Y806,4 +1 Y806,5 +1 Y806,6 +1 Y807,0 +1 Y807,1 +1 Y807,2 +1 Y807,3
  +1 Y807,4 +1 Y807,5 +1 Y807,6 +1 Y808,0 +1 Y808,1 +1 Y808,2 +1 Y808,3 +1 Y808,4 +1 Y808,5 +1 Y808,6
  +1 Y809,0 +1 Y809,1 +1 Y809,2 +1 Y809,3 +1 Y809,4 +1 Y809,5 +1 Y809,6 +1 Y810,0 +1 Y810,1 +1 Y810,2
  +1 Y810,3 +1 Y810,4 +1 Y810,5 +1 Y810,6 +1 Y821,0 +1 Y821,1 +1 Y821,2 +1 Y821,3 +1 Y821,4 +1 Y821,5
  +1 Y821,6 +1 Y822,0 +1 Y822,1 +1 Y822,2 +1 Y822,3 +1 Y822,4 +1 Y822,5 +1 Y822,6 +1 Y823,0 +1 Y823,1
  +1 Y823,2 +1 Y823,3 +1 Y823,4 +1 Y823,5 +1 Y823,6 +1 Y824,0 +1 Y824,1 +1 Y824,2 +1 Y824,3 +1 Y824,4
  +1 Y824,5 +1 Y824,6 +1 Y825,0 +1 Y825,1 +1 Y825,2 +1 Y825,3 +1 Y825,4 +1 Y825,5 +1 Y825,6 +1 Y826,0
  +1 Y826,1 +1 Y826,2 +1 Y826,3 +1 Y826,4 +1 Y826,5 +1 Y826,6 +1 Y827,0 +1 Y827,1 +1 Y827,2 +1 Y827,3
  +1 Y827,4 +1 Y827,5 +1 Y827,6 +1 Y828,0 +1 Y828,1 +1 Y828,2 +1 Y828,3 +1 Y828,4 +1 Y828,5 +1 Y828,6
  +1 Y829,0 +1 Y829,1 +1 Y829,2 +1 Y829,3 +1 Y829,4 +1 Y829,5 +1 Y829,6 +1 Y830,0 +1 Y830,1 +1 Y830,2
  +1 Y830,3 +1 Y830,4 +1 Y830,5 +1 Y830,6 +1 Y841,0 +1 Y841,1 +1 Y841,2 +1 Y841,3 +1 Y841,4 +1 Y841,5
  +1 Y841,6 +1 Y842,0 +1 Y842,1 +1 Y842,2 +1 Y842,3 +1 Y842,4 +1 Y842,5 +1 Y842,6 +1 Y843,0 +1 Y843,1
  +1 Y843,2 +1 Y843,3 +1 Y843,4 +1 Y843,5 +1 Y843,6 +1 Y844,0 +1 Y844,1 +1 Y844,2 +1 Y844,3 +1 Y844,4
  +1 Y844,5 +1 Y844,6 +1 Y845,0 +1 Y845,1 +1 Y845,2 +1 Y845,3 +1 Y845,4 +1 Y845,5 +1 Y845,6 +1 Y846,0
  +1 Y846,1 +1 Y846,2 +1 Y846,3 +1 Y846,4 +1 Y846,5 +1 Y846,6 +1 Y847,0 +1 Y847,1 +1 Y847,2 +1 Y847,3
  +1 Y847,4 +1 Y847,5 +1 Y847,6 +1 Y848,0 +1 Y848,1 +1 Y848,2 +1 Y848,3 +1 Y848,4 +1 Y848,5 +1 Y848,6
  +1 Y849,0 +1 Y849,1 +1 Y849,2 +1 Y849,3 +1 Y849,4 +1 Y849,5 +1 Y849,6 +1 Y850,0 +1 Y850,1 +1 Y850,2
  +1 Y850,3 +1 Y850,4 +1 Y850,5 +1 Y850,6 +1 Y856,0 +1 Y856,1 +1 Y856,2 +1 Y856,3 +1 Y856,4 +1 Y856,5
  +1 Y856,6 +1 Y857,0 +1 Y857,1 +1 Y857,2 +1 Y857,3 +1 Y857,4 +1 Y857,5 +1 Y857,6 +1 Y858,0 +1 Y858,1
  +1 Y858,2 +1 Y858,3 +1 Y858,4 +1 Y858,5 +1 Y858,6 +1 Y859,0 +1 Y859,1 +1 Y859,2 +1 Y859,3 +1 Y859,4
  +1 Y859,5 +1 Y859,6 +1 Y860,0 +1 Y860,1 +1 Y860,2 +1 Y860,3 +1 Y860,4 +1 Y860,5 +1 Y860,6 +1 Y861,0
  +1 Y861,1 +1 Y861,2 +1 Y861,3 +1 Y861,4 +1 Y861,5 +1 Y861,6 +1 Y862,0 +1 Y862,1 +1 Y862,2 +1 Y862,3
  +1 Y862,4 +1 Y862,5 +1 Y862,6 +1 Y863,0 +1 Y863,1 +1 Y863,2 +1 Y863,3 +1 Y863,4 +1 Y863,5 +1 Y863,6
  +1 Y864,0 +1 Y864,1 +1 Y864,2 +1 Y864,3 +1 Y864,4 +1 Y864,5 +1 Y864,6 +1 Y865,0 +1 Y865,1 +1 Y865,2
  +1 Y865,3 +1 Y865,4 +1 Y865,5 +1 Y865,6 +1 Y871,0 +1 Y871,1 +1 Y871,2 +1 Y871,3 +1 Y871,4 +1 Y871,5
  +1 Y871,6 +1 Y872,0 +1 Y872,1 +1 Y872,2 +1 Y872,3 +1 Y872,4 +1 Y872,5 +1 Y872,6 +1 Y873,0 +1 Y873,1
  +1 Y873,2 +1 Y873,3 +1 Y873,4 +1 Y873,5 +1 Y873,6 +1 Y874,0 +1 Y874,1 +1 Y874,2 +1 Y874,3 +1 Y874,4
  +1 Y874,5 +1 Y874,6 +1 Y875,0 +1 Y875,1 +1 Y875,2 +1 Y875,3 +1 Y875,4 +1 Y875,5 +1 Y875,6 +1 Y877,0
  +1 Y877,1 +1 Y877,2 +1 Y877,3 +1 Y877,4 +1 Y877,5 +1 Y877,6 = +1
 c27: +1 Y699,0 +1 Y699,1 +1 Y699,2 +1 Y699,3 +1 Y699,4 +1 Y699,5 +1 Y699,6 +1 Y702,0 +1 Y702,1 +1 Y702,2
  +1 Y702,3 +1 Y702,4 +1 Y702,5 +1 Y702,6 +1 Y704,0 +1 Y704,1 +1 Y704,2 +1 Y704,3 +1 Y704,4 +1 Y704,5
  +1 Y704,6 +1 Y706,0 +1 Y706,1 +1 Y706,2 +1 Y706,3 +1 Y706,4 +1 Y706,5 +1 Y706,6 +1 Y707,0 +1 Y707,1
  +1 Y707,2 +1 Y707,3 +1 Y707,4 +1 Y707,5 +1 Y707,6 +1 Y709,0 +1 Y709,1 +1 Y709,2 +1 Y709,3 +1 Y709,4
  +1 Y709,5 +1 Y709,6 +1 Y710,0 +1 Y710,1 +1 Y710,2 +1 Y710,3 +1 Y710,4 +1 Y710,5 +1 Y710,6 +1 Y711,0
  +1 Y711,1 +1 Y711,2 +1 Y711,3 +1 Y711,4 +1 Y711,5 +1 Y711,6 = +1
 c28: +1 Y582,0 +1 Y582,1 +1 Y582,2 +1 Y582,3 +1 Y582,4 +1 Y582,5 +1 Y582,6 +1 Y588,0 +1 Y588,1 +1 Y588,2
  +1 Y588,3 +1 Y588,4 +1 Y588,5 +1 Y588,6 +1 Y593,0 +1 Y593,1 +1 Y593,2 +1 Y593,3 +1 Y593,4 +1 Y593,5
  +1 Y593,6 +1 Y597,0 +1 Y597,1 +1 Y597,2 +1 Y597,3 +1 Y597,4 +1 Y597,5 +1 Y597,6 +1 Y601,0 +1 Y601,1
  +1 Y601,2 +1 Y601,3 +1 Y601,4 +1 Y601,5 +1 Y601,6 +1 Y602,0 +1 Y602,1 +1 Y602,2 +1 Y602,3 +1 Y602,4
  +1 Y602,5 +1 Y602,6 +1 Y603,0 +1 Y603,1 +1 Y603,2 +1 Y603,3 +1 Y603,4 +1 Y603,5 +1 Y603,6 +1 Y608,0
  +1 Y608,1 +1 Y608,2 +1 Y608,3 +1 Y608,4 +1 Y608,5 +1 Y608,6 +1 Y612,0 +1 Y612,1 +1 Y612,2 +1 Y612,3
  +1 Y612,4 +1 Y612,5 +1 Y612,6 +1 Y616,0 +1 Y616,1 +1 Y616,2 +1 Y616,3 +1 Y616,4 +1 Y616,5 +1 Y616,6
  +1 Y617,0 +1 Y617,1 +1 Y617,2 +1 Y617,3 +1 Y617,4 +1 Y617,5 +1 Y617,6 +1 Y618,0 +1 Y618,1 +1 Y618,2
  +1 Y618,3 +1 Y618,4 +1 Y618,5 +1 Y618,6 +1 Y622,0 +1 Y622,1 +1 Y622,2 +1 Y622,3 +1 Y622,4 +1 Y622,5
  +1 Y622,6 +1 Y626,0 +1 Y626,1 +1 Y626,2 +1 Y626,3 +1 Y626,4 +1 Y626,5 +1 Y626,6 +1 Y627,0 +1 Y627,1
  +1 Y627,2 +1 Y627,3 +1 Y627,4 +1 Y627,5 +1 Y627,6 +1 Y628,0 +1 Y628,1 +1 Y628,2 +1 Y628,3 +1 Y628,4
  +1 Y628,5 +1 Y628,6 +1 Y632,0 +1 Y632,1 +1 Y632,2 +1 Y632,3 +1 Y632,4 +1 Y632,5 +1 Y632,6 +1 Y633,0
  +1 Y633,1 +1 Y633,2 +1 Y633,3 +1 Y633,4 +1 Y633,5 +1 Y633,6 +1 Y634,0 +1 Y634,1 +1 Y634,2 +1 Y634,3
  +1 Y634,4 +1 Y634,5 +1 Y634,6 +1 Y638,0 +1 Y638,1 +1 Y638,2 +1 Y638,3 +1 Y638,4 +1 Y638,5 +1 Y638,6
  +1 Y639,0 +1 Y639,1 +1 Y639,2 +1 Y639,3 +1 Y639,4 +1 Y639,5 +1 Y639,6 +1 Y640,0 +1 Y640,1 +1 Y640,2
  +1 Y640,3 +1 Y640,4 +1 Y640,5 +1 Y640,6 +1 Y642,0 +1 Y642,1 +1 Y642,2 +1 Y642,3 +1 Y642,4 +1 Y642,5
  +1 Y642,6 +1 Y646,0 +1 Y646,1 +1 Y646,2 +1 Y646,3 +1 Y646,4 +1 Y646,5 +1 Y646,6 +1 Y647,0 +1 Y647,1
  +1 Y647,2 +1 Y647,3 +1 Y647,4 +1 Y647,5 +1 Y647,6 +1 Y648,0 +1 Y648,1 +1 Y648,2 +1 Y648,3 +1 Y648,4
  +1 Y648,5 +1 Y648,6 +1 Y652,0 +1 Y652,1 +1 Y652,2 +1 Y652,3 +1 Y652,4 +1 Y652,5 +1 Y652,6 +1 Y653,0
  +1 Y653,1 +1 Y653,2 +1 Y653,3 +1 Y653,4 +1 Y653,5 +1 Y653,6 +1 Y654,0 +1 Y654,1 +1 Y654,2 +1 Y654,3
  +1 Y654,4 +1 Y654,5 +1 Y654,6 +1 Y658,0 +1 Y658,1 +1 Y658,2 +1 Y658,3 +1 Y658,4 +1 Y658,5 +1 Y658,6
  +1 Y659,0 +1 Y659,1 +1 Y659,2 +1 Y659,3 +1 Y659,4 +1 Y659,5 +1 Y659,6 +1 Y660,0 +1 Y660,1 +1 Y660,2
  +1 Y660,3 +1 Y660,4 +1 Y660,5 +1 Y660,6 +1 Y662,0 +1 Y662,1 +1 Y662,2 +1 Y662,3 +1 Y662,4 +1 Y662,5
  +1 Y662,6 +1 Y663,0 +1 Y663,1 +1 Y663,2 +1 Y663,3 +1 Y663,4 +1 Y663,5 +1 Y663,6 +1 Y664,0 +1 Y664,1
  +1 Y664,2 +1 Y664,3 +1 Y664,4 +1 Y664,5 +1 Y664,6 +1 Y668,0 +1 Y668,1 +1 Y668,2 +1 Y668,3 +1 Y668,4
  +1 Y668,5 +1 Y668,6 +1 Y669,0 +1 Y669,1 +1 Y669,2 +1 Y669,3 +1 Y669,4 +1 Y669,5 +1 Y669,6 +1 Y670,0
  +1 Y670,1 +1 Y670,2 +1 Y670,3 +1 Y670,4 +1 Y670,5 +1 Y670,6 +1 Y672,0 +1 Y672,1 +1 Y672,2 +1 Y672,3
  +1 Y672,4 +1 Y672,5 +1 Y672,6 +1 Y673,0 +1 Y673,1 +1 Y673,2 +1 Y673,3 +1 Y673,4 +1 Y673,5 +1 Y673,6
  +1 Y674,0 +1 Y674,1 +1 Y674,2 +1 Y674,3 +1 Y674,4 +1 Y674,5 +1 Y674,6 +1 Y676,0 +1 Y676,1 +1 Y676,2
  +1 Y676,3 +1 Y676,4 +1 Y676,5 +1 Y676,6 +1 Y677,0 +1 Y677,1 +1 Y677,2 +1 Y677,3 +1 Y677,4 +1 Y677,5
  +1 Y677,6 +1 Y678,0 +1 Y678,1 +1 Y678,2 +1 Y678,3 +1 Y678,4 +1 Y678,5 +1 Y678,6 +1 Y679,0 +1 Y679,1
  +1 Y679,2 +1 Y679,3 +1 Y679,4 +1 Y679,5 +1 Y679,6 +1 Y683,0 +1 Y683,1 +1 Y683,2 +1 Y683,3 +1 Y683,4
  +1 Y683,5 +1 Y683,6 +1 Y684,0 +1 Y684,1 +1 Y684,2 +1 Y684,3 +1 Y684,4 +1 Y684,5 +1 Y684,6 +1 Y685,0
  +1 Y685,1 +1 Y685,2 +1 Y685,3 +1 Y685,4 +1 Y685,5 +1 Y685,6 +1 Y687,0 +1 Y687,1 +1 Y687,2 +1 Y687,3
  +1 Y687,4 +1 Y687,5 +1 Y687,6 +1 Y688,0 +1 Y688,1 +1 Y688,2 +1 Y688,3 +1 Y688,4 +1 Y688,5 +1 Y688,6
  +1 Y689,0 +1 Y689,1 +1 Y689,2 +1 Y689,3 +1 Y689,4 +1 Y689,5 +1 Y689,6 +1 Y690,0 +1 Y690,1 +1 Y690,2
  +1 Y690,3 +1 Y690,4 +1 Y690,5 +1 Y690,6 +1 Y691,0 +1 Y691,1 +1 Y691,2 +1 Y691,3 +1 Y691,4 +1 Y691,5
  +1 Y691,6 +1 Y692,0 +1 Y692,1 +1 Y692,2 +1 Y692,3 +1 Y692,4 +1 Y692,5 +1 Y692,6 +1 Y694,0 +1 Y694,1
  +1 Y694,2 +1 Y694,3 +1 Y694,4 +1 Y694,5 +1 Y694,6 +1 Y695,0 +1 Y695,1 +1 Y695,2 +1 Y695,3 +1 Y695,4
  +1 Y695,5 +1 Y695,6 +1 Y696,0 +1 Y696,1 +1 Y696,2 +1 Y696,3 +1 Y696,4 +1 Y696,5 +1 Y696,6 = +1
 c29: +1 Y551,0 +1 Y551,1 +1 Y551,2 +1 Y551,3 +1 Y551,4 +1 Y551,5 +1 Y551,6 +1 Y555,0 +1 Y555,1 +1 Y555,2
  +1 Y555,3 +1 Y555,4 +1 Y555,5 +1 Y555,6 +1 Y558,0 +1 Y558,1 +1 Y558,2 +1 Y558,3 +1 Y558,4 +1 Y558,5
  +1 Y558,6 +1 Y560,0 +1 Y560,1 +1 Y560,2 +1 Y560,3 +1 Y560,4 +1 Y560,5 +1 Y560,6 +1 Y562,0 +1 Y562,1
  +1 Y562,2 +1 Y562,3 +1 Y562,4 +1 Y562,5 +1 Y562,6 +1 Y564,0 +1 Y564,1 +1 Y564,2 +1 Y564,3 +1 Y564,4
  +1 Y564,5 +1 Y564,6 +1 Y566,0 +1 Y566,1 +1 Y566,2 +1 Y566,3 +1 Y566,4 +1 Y566,5 +1 Y566,6 +1 Y568,0
  +1 Y568,1 +1 Y568,2 +1 Y568,3 +1 Y568,4 +1 Y568,5 +1 Y568,6 +1 Y569,0 +1 Y569,1 +1 Y569,2 +1 Y569,3
  +1 Y569,4 +1 Y569,5 +1 Y569,6 +1 Y571,0 +1 Y571,1 +1 Y571,2 +1 Y571,3 +1 Y571,4 +1 Y571,5 +1 Y571,6
  +1 Y572,0 +1 Y572,1 +1 Y572,2 +1 Y572,3 +1 Y572,4 +1 Y572,5 +1 Y572,6 +1 Y573,0 +1 Y573,1 +1 Y573,2
  +1 Y573,3 +1 Y573,4 +1 Y573,5 +1 Y573,6 +1 Y575,0 +1 Y575,1 +1 Y575,2 +1 Y575,3 +1 Y575,4 +1 Y575,5
  +1 Y575,6 +1 Y576,0 +1 Y576,1 +1 Y576,2 +1 Y576,3 +1 Y576,4 +1 Y576,5 +1 Y576,6 +1 Y577,0 +1 Y577,1
  +1 Y577,2 +1 Y577,3 +1 Y577,4 +1 Y577,5 +1 Y577,6 +1 Y578,0 +1 Y578,1 +1 Y578,2 +1 Y578,3 +1 Y578,4
  +1 Y578,5 +1 Y578,6 = +1
 c30: +1 Y7,0 +1 Y7,1 +1 Y7,2 +1 Y7,3 +1 Y7,4 +1 Y7,5 +1 Y7,6 +1 Y16,0 +1 Y16,1 +1 Y16,2 +1 Y16,3 +1 Y16,4
  +1 Y16,5 +1 Y16,6 +1 Y24,0 +1 Y24,1 +1 Y24,2 +1 Y24,3 +1 Y24,4 +1 Y24,5 +1 Y24,6 +1 Y31,0 +1 Y31,1 +1 Y31,2
  +1 Y31,3 +1 Y31,4 +1 Y31,5 +1 Y31,6 +1 Y37,0 +1 Y37,1 +1 Y37,2 +1 Y37,3 +1 Y37,4 +1 Y37,5 +1 Y37,6 +1 Y42,0
  +1 Y42,1 +1 Y42,2 +1 Y42,3 +1 Y42,4 +1 Y42,5 +1 Y42,6 +1 Y46,0 +1 Y46,1 +1 Y46,2 +1 Y46,3 +1 Y46,4 +1 Y46,5
  +1 Y46,6 +1 Y49,0 +1 Y49,1 +1 Y49,2 +1 Y49,3 +1 Y49,4 +1 Y49,5 +1 Y49,6 +1 Y52,0 +1 Y52,1 +1 Y52,2 +1 Y52,3
  +1 Y52,4 +1 Y52,5 +1 Y52,6 +1 Y53,0 +1 Y53,1 +1 Y53,2 +1 Y53,3 +1 Y53,4 +1 Y53,5 +1 Y53,6 +1 Y60,0 +1 Y60,1
  +1 Y60,2 +1 Y60,3 +1 Y60,4 +1 Y60,5 +1 Y60,6 +1 Y67,0 +1 Y67,1 +1 Y67,2 +1 Y67,3 +1 Y67,4 +1 Y67,5 +1 Y67,6
  +1 Y73,0 +1 Y73,1 +1 Y73,2 +1 Y73,3 +1 Y73,4 +1 Y73,5 +1 Y73,6 +1 Y78,0 +1 Y78,1 +1 Y78,2 +1 Y78,3 +1 Y78,4
  +1 Y78,5 +1 Y78,6 +1 Y82,0 +1 Y82,1 +1 Y82,2 +1 Y82,3 +1 Y82,4 +1 Y82,5 +1 Y82,6 +1 Y85,0 +1 Y85,1 +1 Y85,2
  +1 Y85,3 +1 Y85,4 +1 Y85,5 +1 Y85,6 +1 Y88,0 +1 Y88,1 +1 Y88,2 +1 Y88,3 +1 Y88,4 +1 Y88,5 +1 Y88,6 +1 Y89,0
  +1 Y89,1 +1 Y89,2 +1 Y89,3 +1 Y89,4 +1 Y89,5 +1 Y89,6 +1 Y95,0 +1 Y95,1 +1 Y95,2 +1 Y95,3 +1 Y95,4 +1 Y95,5
  +1 Y95,6 +1 Y101,0 +1 Y101,1 +1 Y101,2 +1 Y101,3 +1 Y101,4 +1 Y101,5 +1 Y101,6 +1 Y106,0 +1 Y106,1 +1 Y106,2
  +1 Y106,3 +1 Y106,4 +1 Y106,5 +1 Y106,6 +1 Y110,0 +1 Y110,1 +1 Y110,2 +1 Y110,3 +1 Y110,4 +1 Y110,5
  +1 Y110,6 +1 Y113,0 +1 Y113,1 +1 Y113,2 +1 Y113,3 +1 Y113,4 +1 Y113,5 +1 Y113,6 +1 Y116,0 +1 Y116,1
  +1 Y116,2 +1 Y116,3 +1 Y116,4 +1 Y116,5 +1 Y116,6 +1 Y117,0 +1 Y117,1 +1 Y117,2 +1 Y117,3 +1 Y117,4
  +1 Y117,5 +1 Y117,6 +1 Y122,0 +1 Y122,1 +1 Y122,2 +1 Y122,3 +1 Y122,4 +1 Y122,5 +1 Y122,6 +1 Y127,0
  +1 Y127,1 +1 Y127,2 +1 Y127,3 +1 Y127,4 +1 Y127,5 +1 Y127,6 +1 Y131,0 +1 Y131,1 +1 Y131,2 +1 Y131,3
  +1 Y131,4 +1 Y131,5 +1 Y131,6 +1 Y134,0 +1 Y134,1 +1 Y134,2 +1 Y134,3 +1 Y134,4 +1 Y134,5 +1 Y134,6
  +1 Y137,0 +1 Y137,1 +1 Y137,2 +1 Y137,3 +1 Y137,4 +1 Y137,5 +1 Y137,6 +1 Y138,0 +1 Y138,1 +1 Y138,2
  +1 Y138,3 +1 Y138,4 +1 Y138,5 +1 Y138,6 +1 Y142,0 +1 Y142,1 +1 Y142,2 +1 Y142,3 +1 Y142,4 +1 Y142,5
  +1 Y142,6 +1 Y146,0 +1 Y146,1 +1 Y146,2 +1 Y146,3 +1 Y146,4 +1 Y146,5 +1 Y146,6 +1 Y149,0 +1 Y149,1
  +1 Y149,2 +1 Y149,3 +1 Y149,4 +1 Y149,5 +1 Y149,6 +1 Y152,0 +1 Y152,1 +1 Y152,2 +1 Y152,3 +1 Y152,4
  +1 Y152,5 +1 Y152,6 +1 Y153,0 +1 Y153,1 +1 Y153,2 +1 Y153,3 +1 Y153,4 +1 Y153,5 +1 Y153,6 +1 Y156,0
  +1 Y156,1 +1 Y156,2 +1 Y156,3 +1 Y156,4 +1 Y156,5 +1 Y156,6 +1 Y159,0 +1 Y159,1 +1 Y159,2 +1 Y159,3
  +1 Y159,4 +1 Y159,5 +1 Y159,6 +1 Y162,0 +1 Y162,1 +1 Y162,2 +1 Y162,3 +1 Y162,4 +1 Y162,5 +1 Y162,6
  +1 Y163,0 +1 Y163,1 +1 Y163,2 +1 Y163,3 +1 Y163,4 +1 Y163,5 +1 Y163,6 +1 Y165,0 +1 Y165,1 +1 Y165,2
  +1 Y165,3 +1 Y165,4 +1 Y165,5 +1 Y165,6 +1 Y168,0 +1 Y168,1 +1 Y168,2 +1 Y168,3 +1 Y168,4 +1 Y168,5
  +1 Y168,6 +1 Y169,0 +1 Y169,1 +1 Y169,2 +1 Y169,3 +1 Y169,4 +1 Y169,5 +1 Y169,6 +1 Y171,0 +1 Y171,1
  +1 Y171,2 +1 Y171,3 +1 Y171,4 +1 Y171,5 +1 Y171,6 +1 Y172,0 +1 Y172,1 +1 Y172,2 +1 Y172,3 +1 Y172,4
  +1 Y172,5 +1 Y172,6 +1 Y174,0 +1 Y174,1 +1 Y174,2 +1 Y174,3 +1 Y174,4 +1 Y174,5 +1 Y174,6 +1 Y177,0
  +1 Y177,1 +1 Y177,2 +1 Y177,3 +1 Y177,4 +1 Y177,5 +1 Y177,6 +1 Y182,0 +1 Y182,1 +1 Y182,2 +1 Y182,3
  +1 Y182,4 +1 Y182,5 +1 Y182,6 +1 Y187,0 +1 Y187,1 +1 Y187,2 +1 Y187,3 +1 Y187,4 +1 Y187,5 +1 Y187,6
  +1 Y191,0 +1 Y191,1 +1 Y191,2 +1 Y191,3 +1 Y191,4 +1 Y191,5 +1 Y191,6 +1 Y194,0 +1 Y194,1 +1 Y194,2
  +1 Y194,3 +1 Y194,4 +1 Y194,5 +1 Y194,6 +1 Y197,0 +1 Y197,1 +1 Y197,2 +1 Y197,3 +1 Y197,4 +1 Y197,5
  +1 Y197,6 +1 Y198,0 +1 Y198,1 +1 Y198,2 +1 Y198,3 +1 Y198,4 +1 Y198,5 +1 Y198,6 +1 Y202,0 +1 Y202,1
  +1 Y202,2 +1 Y202,3 +1 Y202,4 +1 Y202,5 +1 Y202,6 +1 Y207,0 +1 Y207,1 +1 Y207,2 +1 Y207,3 +1 Y207,4
  +1 Y207,5 +1 Y207,6 +1 Y211,0 +1 Y211,1 +1 Y211,2 +1 Y211,3 +1 Y211,4 +1 Y211,5 +1 Y211,6 +1 Y214,0
  +1 Y214,1 +1 Y214,2 +1 Y214,3 +1 Y214,4 +1 Y214,5 +1 Y214,6 +1 Y217,0 +1 Y217,1 +1 Y217,2 +1 Y217,3
  +1 Y217,4 +1 Y217,5 +1 Y217,6 +1 Y218,0 +1 Y218,1 +1 Y218,2 +1 Y218,3 +1 Y218,4 +1 Y218,5 +1 Y218,6
  +1 Y222,0 +1 Y222,1 +1 Y222,2 +1 Y222,3 +1 Y222,4 +1 Y222,5 +1 Y222,6 +1 Y226,0 +1 Y226,1 +1 Y226,2
  +1 Y226,3 +1 Y226,4 +1 Y226,5 +1 Y226,6 +1 Y229,0 +1 Y229,1 +1 Y229,2 +1 Y229,3 +1 Y229,4 +1 Y229,5
  +1 Y229,6 +1 Y232,0 +1 Y232,1 +1 Y232,2 +1 Y232,3 +1 Y232,4 +1 Y232,5 +1 Y232,6 +1 Y233,0 +1 Y233,1
  +1 Y233,2 +1 Y233,3 +1 Y233,4 +1 Y233,5 +1 Y233,6 +1 Y236,0 +1 Y236,1 +1 Y236,2 +1 Y236,3 +1 Y236,4
  +1 Y236,5 +1 Y236,6 +1 Y239,0 +1 Y239,1 +1 Y239,2 +1 Y239,3 +1 Y239,4 +1 Y239,5 +1 Y239,6 +1 Y242,0
  +1 Y242,1 +1 Y242,2 +1 Y242,3 +1 Y242,4 +1 Y242,5 +1 Y242,6 +1 Y243,0 +1 Y243,1 +1 Y243,2 +1 Y243,3
  +1 Y243,4 +1 Y243,5 +1 Y243,6 +1 Y245,0 +1 Y245,1 +1 Y245,2 +1 Y245,3 +1 Y245,4 +1 Y245,5 +1 Y245,6
  +1 Y248,0 +1 Y248,1 +1 Y248,2 +1 Y248,3 +1 Y248,4 +1 Y248,5 +1 Y248,6 +1 Y249,0 +1 Y249,1 +1 Y249,2
  +1 Y249,3 +1 Y249,4 +1 Y249,5 +1 Y249,6 +1 Y251,0 +1 Y251,1 +1 Y251,2 +1 Y251,3 +1 Y251,4 +1 Y251,5
  +1 Y251,6 +1 Y252,0 +1 Y252,1 +1 Y252,2 +1 Y252,3 +1 Y252,4 +1 Y252,5 +1 Y252,6 +1 Y254,0 +1 Y254,1
  +1 Y254,2 +1 Y254,3 +1 Y254,4 +1 Y254,5 +1 Y254,6 +1 Y257,0 +1 Y257,1 +1 Y257,2 +1 Y257,3 +1 Y257,4
  +1 Y257,5 +1 Y257,6 +1 Y262,0 +1 Y262,1 +1 Y262,2 +1 Y262,3 +1 Y262,4 +1 Y262,5 +1 Y262,6 +1 Y266,0
  +1 Y266,1 +1 Y266,2 +1 Y266,3 +1 Y266,4 +1 Y266,5 +1 Y266,6 +1 Y269,0 +1 Y269,1 +1 Y269,2 +1 Y269,3
  +1 Y269,4 +1 Y269,5 +1 Y269,6 +1 Y272,0 +1 Y272,1 +1 Y272,2 +1 Y272,3 +1 Y272,4 +1 Y272,5 +1 Y272,6
  +1 Y273,0 +1 Y273,1 +1 Y273,2 +1 Y273,3 +1 Y273,4 +1 Y273,5 +1 Y273,6 +1 Y277,0 +1 Y277,1 +1 Y277,2
  +1 Y277,3 +1 Y277,4 +1 Y277,5 +1 Y277,6 +1 Y281,0 +1 Y281,1 +1 Y281,2 +1 Y281,3 +1 Y281,4 +1 Y281,5
  +1 Y281,6 +1 Y284,0 +1 Y284,1 +1 Y284,2 +1 Y284,3 +1 Y284,4 +1 Y284,5 +1 Y284,6 +1 Y287,0 +1 Y287,1
  +1 Y287,2 +1 Y287,3 +1 Y287,4 +1 Y287,5 +1 Y287,6 +1 Y288,0 +1 Y288,1 +1 Y288,2 +1 Y288,3 +1 Y288,4
  +1 Y288,5 +1 Y288,6 +1 Y291,0 +1 Y291,1 +1 Y291,2 +1 Y291,3 +1 Y291,4 +1 Y291,5 +1 Y291,6 +1 Y294,0
  +1 Y294,1 +1 Y294,2 +1 Y294,3 +1 Y294,4 +1 Y294,5 +1 Y294,6 +1 Y297,0 +1 Y297,1 +1 Y297,2 +1 Y297,3
  +1 Y297,4 +1 Y297,5 +1 Y297,6 +1 Y298,0 +1 Y298,1 +1 Y298,2 +1 Y298,3 +1 Y298,4 +1 Y298,5 +1 Y298,6
  +1 Y300,0 +1 Y300,1 +1 Y300,2 +1 Y300,3 +1 Y300,4 +1 Y300,5 +1 Y300,6 +1 Y303,0 +1 Y303,1 +1 Y303,2
  +1 Y303,3 +1 Y303,4 +1 Y303,5 +1 Y303,6 +1 Y304,0 +1 Y304,1 +1 Y304,2 +1 Y304,3 +1 Y304,4 +1 Y304,5
  +1 Y304,6 +1 Y306,0 +1 Y306,1 +1 Y306,2 +1 Y306,3 +1 Y306,4 +1 Y306,5 +1 Y306,6 +1 Y307,0 +1 Y307,1
  +1 Y307,2 +1 Y307,3 +1 Y307,4 +1 Y307,5 +1 Y307,6 +1 Y309,0 +1 Y309,1 +1 Y309,2 +1 Y309,3 +1 Y309,4
  +1 Y309,5 +1 Y309,6 +1 Y311,0 +1 Y311,1 +1 Y311,2 +1 Y311,3 +1 Y311,4 +1 Y311,5 +1 Y311,6 +1 Y316,0
  +1 Y316,1 +1 Y316,2 +1 Y316,3 +1 Y316,4 +1 Y316,5 +1 Y316,6 +1 Y319,0 +1 Y319,1 +1 Y319,2 +1 Y319,3
  +1 Y319,4 +1 Y319,5 +1 Y319,6 +1 Y320,0 +1 Y320,1 +1 Y320,2 +1 Y320,3 +1 Y320,4 +1 Y320,5 +1 Y320,6
  +1 Y323,0 +1 Y323,1 +1 Y323,2 +1 Y323,3 +1 Y323,4 +1 Y323,5 +1 Y323,6 +1 Y326,0 +1 Y326,1 +1 Y326,2
  +1 Y326,3 +1 Y326,4 +1 Y326,5 +1 Y326,6 +1 Y329,0 +1 Y329,1 +1 Y329,2 +1 Y329,3 +1 Y329,4 +1 Y329,5
  +1 Y329,6 +1 Y330,0 +1 Y330,1 +1 Y330,2 +1 Y330,3 +1 Y330,4 +1 Y330,5 +1 Y330,6 +1 Y332,0 +1 Y332,1
  +1 Y332,2 +1 Y332,3 +1 Y332,4 +1 Y332,5 +1 Y332,6 +1 Y335,0 +1 Y335,1 +1 Y335,2 +1 Y335,3 +1 Y335,4
  +1 Y335,5 +1 Y335,6 +1 Y336,0 +1 Y336,1 +1 Y336,2 +1 Y336,3 +1 Y336,4 +1 Y336,5 +1 Y336,6 +1 Y338,0
  +1 Y338,1 +1 Y338,2 +1 Y338,3 +1 Y338,4 +1 Y338,5 +1 Y338,6 +1 Y339,0 +1 Y339,1 +1 Y339,2 +1 Y339,3
  +1 Y339,4 +1 Y339,5 +1 Y339,6 +1 Y341,0 +1 Y341,1 +1 Y341,2 +1 Y341,3 +1 Y341,4 +1 Y341,5 +1 Y341,6
  +1 Y343,0 +1 Y343,1 +1 Y343,2 +1 Y343,3 +1 Y343,4 +1 Y343,5 +1 Y343,6 +1 Y346,0 +1 Y346,1 +1 Y346,2
  +1 Y346,3 +1 Y346,4 +1 Y346,5 +1 Y346,6 +1 Y349,0 +1 Y349,1 +1 Y349,2 +1 Y349,3 +1 Y349,4 +1 Y349,5
  +1 Y349,6 +1 Y350,0 +1 Y350,1 +1 Y350,2 +1 Y350,3 +1 Y350,4 +1 Y350,5 +1 Y350,6 +1 Y352,0 +1 Y352,1
  +1 Y352,2 +1 Y352,3 +1 Y352,4 +1 Y352,5 +1 Y352,6 +1 Y355,0 +1 Y355,1 +1 Y355,2 +1 Y355,3 +1 Y355,4
  +1 Y355,5 +1 Y355,6 +1 Y356,0 +1 Y356,1 +1 Y356,2 +1 Y356,3 +1 Y356,4 +1 Y356,5 +1 Y356,6 +1 Y358,0
  +1 Y358,1 +1 Y358,2 +1 Y358,3 +1 Y358,4 +1 Y358,5 +1 Y358,6 +1 Y359,0 +1 Y359,1 +1 Y359,2 +1 Y359,3
  +1 Y359,4 +1 Y359,5 +1 Y359,6 +1 Y361,0 +1 Y361,1 +1 Y361,2 +1 Y361,3 +1 Y361,4 +1 Y361,5 +1 Y361,6
  +1 Y362,0 +1 Y362,1 +1 Y362,2 +1 Y362,3 +1 Y362,4 +1 Y362,5 +1 Y362,6 +1 Y365,0 +1 Y365,1 +1 Y365,2
  +1 Y365,3 +1 Y365,4 +1 Y365,5 +1 Y365,6 +1 Y366,0 +1 Y366,1 +1 Y366,2 +1 Y366,3 +1 Y366,4 +1 Y366,5
  +1 Y366,6 +1 Y368,0 +1 Y368,1 +1 Y368,2 +1 Y368,3 +1 Y368,4 +1 Y368,5 +1 Y368,6 +1 Y369,0 +1 Y369,1
  +1 Y369,2 +1 Y369,3 +1 Y369,4 +1 Y369,5 +1 Y369,6 +1 Y371,0 +1 Y371,1 +1 Y371,2 +1 Y371,3 +1 Y371,4
  +1 Y371,5 +1 Y371,6 +1 Y372,0 +1 Y372,1 +1 Y372,2 +1 Y372,3 +1 Y372,4 +1 Y372,5 +1 Y372,6 +1 Y373,0
  +1 Y373,1 +1 Y373,2 +1 Y373,3 +1 Y373,4 +1 Y373,5 +1 Y373,6 +1 Y375,0 +1 Y375,1 +1 Y375,2 +1 Y375,3
  +1 Y375,4 +1 Y375,5 +1 Y375,6 +1 Y376,0 +1 Y376,1 +1 Y376,2 +1 Y376,3 +1 Y376,4 +1 Y376,5 +1 Y376,6
  +1 Y380,0 +1 Y380,1 +1 Y380,2 +1 Y380,3 +1 Y380,4 +1 Y380,5 +1 Y380,6 +1 Y383,0 +1 Y383,1 +1 Y383,2
  +1 Y383,3 +1 Y383,4 +1 Y383,5 +1 Y383,6 +1 Y384,0 +1 Y384,1 +1 Y384,2 +1 Y384,3 +1 Y384,4 +1 Y384,5
  +1 Y384,6 +1 Y387,0 +1 Y387,1 +1 Y387,2 +1 Y387,3 +1 Y387,4 +1 Y387,5 +1 Y387,6 +1 Y388,0 +1 Y388,1
  +1 Y388,2 +1 Y388,3 +1 Y388,4 +1 Y388,5 +1 Y388,6 +1 Y390,0 +1 Y390,1 +1 Y390,2 +1 Y390,3 +1 Y390,4
  +1 Y390,5 +1 Y390,6 +1 Y391,0 +1 Y391,1 +1 Y391,2 +1 Y391,3 +1 Y391,4 +1 Y391,5 +1 Y391,6 +1 Y394,0
  +1 Y394,1 +1 Y394,2 +1 Y394,3 +1 Y394,4 +1 Y394,5 +1 Y394,6 +1 Y395,0 +1 Y395,1 +1 Y395,2 +1 Y395,3
  +1 Y395,4 +1 Y395,5 +1 Y395,6 +1 Y397,0 +1 Y397,1 +1 Y397,2 +1 Y397,3 +1 Y397,4 +1 Y397,5 +1 Y397,6
  +1 Y398,0 +1 Y398,1 +1 Y398,2 +1 Y398,3 +1 Y398,4 +1 Y398,5 +1 Y398,6 +1 Y400,0 +1 Y400,1 +1 Y400,2
  +1 Y400,3 +1 Y400,4 +1 Y400,5 +1 Y400,6 +1 Y401,0 +1 Y401,1 +1 Y401,2 +1 Y401,3 +1 Y401,4 +1 Y401,5
  +1 Y401,6 +1 Y404,0 +1 Y404,1 +1 Y404,2 +1 Y404,3 +1 Y404,4 +1 Y404,5 +1 Y404,6 +1 Y405,0 +1 Y405,1
  +1 Y405,2 +1 Y405,3 +1 Y405,4 +1 Y405,5 +1 Y405,6 +1 Y407,0 +1 Y407,1 +1 Y407,2 +1 Y407,3 +1 Y407,4
  +1 Y407,5 +1 Y407,6 +1 Y408,0 +1 Y408,1 +1 Y408,2 +1 Y408,3 +1 Y408,4 +1 Y408,5 +1 Y408,6 +1 Y410,0
  +1 Y410,1 +1 Y410,2 +1 Y410,3 +1 Y410,4 +1 Y410,5 +1 Y410,6 +1 Y411,0 +1 Y411,1 +1 Y411,2 +1 Y411,3
  +1 Y411,4 +1 Y411,5 +1 Y411,6 +1 Y414,0 +1 Y414,1 +1 Y414,2 +1 Y414,3 +1 Y414,4 +1 Y414,5 +1 Y414,6
  +1 Y415,0 +1 Y415,1 +1 Y415,2 +1 Y415,3 +1 Y415,4 +1 Y415,5 +1 Y415,6 +1 Y417,0 +1 Y417,1 +1 Y417,2
  +1 Y417,3 +1 Y417,4 +1 Y417,5 +1 Y417,6 +1 Y418,0 +1 Y418,1 +1 Y418,2 +1 Y418,3 +1 Y418,4 +1 Y418,5
  +1 Y418,6 +1 Y420,0 +1 Y420,1 +1 Y420,2 +1 Y420,3 +1 Y420,4 +1 Y420,5 +1 Y420,6 +1 Y421,0 +1 Y421,1
  +1 Y421,2 +1 Y421,3 +1 Y421,4 +1 Y421,5 +1 Y421,6 +1 Y422,0 +1 Y422,1 +1 Y422,2 +1 Y422,3 +1 Y422,4
  +1 Y422,5 +1 Y422,6 +1 Y424,0 +1 Y424,1 +1 Y424,2 +1 Y424,3 +1 Y424,4 +1 Y424,5 +1 Y424,6 +1 Y425,0
  +1 Y425,1 +1 Y425,2 +1 Y425,3 +1 Y425,4 +1 Y425,5 +1 Y425,6 +1 Y426,0 +1 Y426,1 +1 Y426,2 +1 Y426,3
  +1 Y426,4 +1 Y426,5 +1 Y426,6 +1 Y429,0 +1 Y429,1 +1 Y429,2 +1 Y429,3 +1 Y429,4 +1 Y429,5 +1 Y429,6
  +1 Y430,0 +1 Y430,1 +1 Y430,2 +1 Y430,3 +1 Y430,4 +1 Y430,5 +1 Y430,6 +1 Y432,0 +1 Y432,1 +1 Y432,2
  +1 Y432,3 +1 Y432,4 +1 Y432,5 +1 Y432,6 +1 Y433,0 +1 Y433,1 +1 Y433,2 +1 Y433,3 +1 Y433,4 +1 Y433,5
  +1 Y433,6 +1 Y435,0 +1 Y435,1 +1 Y435,2 +1 Y435,3 +1 Y435,4 +1 Y435,5 +1 Y435,6 +1 Y436,0 +1 Y436,1
  +1 Y436,2 +1 Y436,3 +1 Y436,4 +1 Y436,5 +1 Y436,6 +1 Y439,0 +1 Y439,1 +1 Y439,2 +1 Y439,3 +1 Y439,4
  +1 Y439,5 +1 Y439,6 +1 Y440,0 +1 Y440,1 +1 Y440,2 +1 Y440,3 +1 Y440,4 +1 Y440,5 +1 Y440,6 +1 Y442,0
  +1 Y442,1 +1 Y442,2 +1 Y442,3 +1 Y442,4 +1 Y442,5 +1 Y442,6 +1 Y443,0 +1 Y443,1 +1 Y443,2 +1 Y443,3
  +1 Y443,4 +1 Y443,5 +1 Y443,6 +1 Y445,0 +1 Y445,1 +1 Y445,2 +1 Y445,3 +1 Y445,4 +1 Y445,5 +1 Y445,6
  +1 Y446,0 +1 Y446,1 +1 Y446,2 +1 Y446,3 +1 Y446,4 +1 Y446,5 +1 Y446,6 +1 Y449,0 +1 Y449,1 +1 Y449,2
  +1 Y449,3 +1 Y449,4 +1 Y449,5 +1 Y449,6 +1 Y450,0 +1 Y450,1 +1 Y450,2 +1 Y450,3 +1 Y450,4 +1 Y450,5
  +1 Y450,6 +1 Y452,0 +1 Y452,1 +1 Y452,2 +1 Y452,3 +1 Y452,4 +1 Y452,5 +1 Y452,6 +1 Y453,0 +1 Y453,1
  +1 Y453,2 +1 Y453,3 +1 Y453,4 +1 Y453,5 +1 Y453,6 +1 Y455,0 +1 Y455,1 +1 Y455,2 +1 Y455,3 +1 Y455,4
  +1 Y455,5 +1 Y455,6 +1 Y456,0 +1 Y456,1 +1 Y456,2 +1 Y456,3 +1 Y456,4 +1 Y456,5 +1 Y456,6 +1 Y457,0
  +1 Y457,1 +1 Y457,2 +1 Y457,3 +1 Y457,4 +1 Y457,5 +1 Y457,6 +1 Y459,0 +1 Y459,1 +1 Y459,2 +1 Y459,3
  +1 Y459,4 +1 Y459,5 +1 Y459,6 +1 Y460,0 +1 Y460,1 +1 Y460,2 +1 Y460,3 +1 Y460,4 +1 Y460,5 +1 Y460,6
  +1 Y461,0 +1 Y461,1 +1 Y461,2 +1 Y461,3 +1 Y461,4 +1 Y461,5 +1 Y461,6 +1 Y464,0 +1 Y464,1 +1 Y464,2
  +1 Y464,3 +1 Y464,4 +1 Y464,5 +1 Y464,6 +1 Y465,0 +1 Y465,1 +1 Y465,2 +1 Y465,3 +1 Y465,4 +1 Y465,5
  +1 Y465,6 +1 Y467,0 +1 Y467,1 +1 Y467,2 +1 Y467,3 +1 Y467,4 +1 Y467,5 +1 Y467,6 +1 Y468,0 +1 Y468,1
  +1 Y468,2 +1 Y468,3 +1 Y468,4 +1 Y468,5 +1 Y468,6 +1 Y470,0 +1 Y470,1 +1 Y470,2 +1 Y470,3 +1 Y470,4
  +1 Y470,5 +1 Y470,6 +1 Y471,0 +1 Y471,1 +1 Y471,2 +1 Y471,3 +1 Y471,4 +1 Y471,5 +1 Y471,6 +1 Y474,0
  +1 Y474,1 +1 Y474,2 +1 Y474,3 +1 Y474,4 +1 Y474,5 +1 Y474,6 +1 Y475,0 +1 Y475,1 +1 Y475,2 +1 Y475,3
  +1 Y475,4 +1 Y475,5 +1 Y475,6 +1 Y477,0 +1 Y477,1 +1 Y477,2 +1 Y477,3 +1 Y477,4 +1 Y477,5 +1 Y477,6
  +1 Y478,0 +1 Y478,1 +1 Y478,2 +1 Y478,3 +1 Y478,4 +1 Y478,5 +1 Y478,6 +1 Y480,0 +1 Y480,1 +1 Y480,2
  +1 Y480,3 +1 Y480,4 +1 Y480,5 +1 Y480,6 +1 Y481,0 +1 Y481,1 +1 Y481,2 +1 Y481,3 +1 Y481,4 +1 Y481,5
  +1 Y481,6 +1 Y482,0 +1 Y482,1 +1 Y482,2 +1 Y482,3 +1 Y482,4 +1 Y482,5 +1 Y482,6 +1 Y484,0 +1 Y484,1
  +1 Y484,2 +1 Y484,3 +1 Y484,4 +1 Y484,5 +1 Y484,6 +1 Y485,0 +1 Y485,1 +1 Y485,2 +1 Y485,3 +1 Y485,4
  +1 Y485,5 +1 Y485,6 +1 Y486,0 +1 Y486,1 +1 Y486,2 +1 Y486,3 +1 Y486,4 +1 Y486,5 +1 Y486,6 +1 Y489,0
  +1 Y489,1 +1 Y489,2 +1 Y489,3 +1 Y489,4 +1 Y489,5 +1 Y489,6 +1 Y490,0 +1 Y490,1 +1 Y490,2 +1 Y490,3
  +1 Y490,4 +1 Y490,5 +1 Y490,6 +1 Y492,0 +1 Y492,1 +1 Y492,2 +1 Y492,3 +1 Y492,4 +1 Y492,5 +1 Y492,6
  +1 Y493,0 +1 Y493,1 +1 Y493,2 +1 Y493,3 +1 Y493,4 +1 Y493,5 +1 Y493,6 +1 Y495,0 +1 Y495,1 +1 Y495,2
  +1 Y495,3 +1 Y495,4 +1 Y495,5 +1 Y495,6 +1 Y496,0 +1 Y496,1 +1 Y496,2 +1 Y496,3 +1 Y496,4 +1 Y496,5
  +1 Y496,6 +1 Y497,0 +1 Y497,1 +1 Y497,2 +1 Y497,3 +1 Y497,4 +1 Y497,5 +1 Y497,6 +1 Y499,0 +1 Y499,1
  +1 Y499,2 +1 Y499,3 +1 Y499,4 +1 Y499,5 +1 Y499,6 +1 Y500,0 +1 Y500,1 +1 Y500,2 +1 Y500,3 +1 Y500,4
  +1 Y500,5 +1 Y500,6 +1 Y501,0 +1 Y501,1 +1 Y501,2 +1 Y501,3 +1 Y501,4 +1 Y501,5 +1 Y501,6 +1 Y502,0
  +1 Y502,1 +1 Y502,2 +1 Y502,3 +1 Y502,4 +1 Y502,5 +1 Y502,6 +1 Y504,0 +1 Y504,1 +1 Y504,2 +1 Y504,3
  +1 Y504,4 +1 Y504,5 +1 Y504,6 +1 Y505,0 +1 Y505,1 +1 Y505,2 +1 Y505,3 +1 Y505,4 +1 Y505,5 +1 Y505,6
  +1 Y506,0 +1 Y506,1 +1 Y506,2 +1 Y506,3 +1 Y506,4 +1 Y506,5 +1 Y506,6 +1 Y507,0 +1 Y507,1 +1 Y507,2
  +1 Y507,3 +1 Y507,4 +1 Y507,5 +1 Y507,6 +1 Y508,0 +1 Y508,1 +1 Y508,2 +1 Y508,3 +1 Y508,4 +1 Y508,5
  +1 Y508,6 +1 Y510,0 +1 Y510,1 +1 Y510,2 +1 Y510,3 +1 Y510,4 +1 Y510,5 +1 Y510,6 +1 Y511,0 +1 Y511,1
  +1 Y511,2 +1 Y511,3 +1 Y511,4 +1 Y511,5 +1 Y511,6 +1 Y512,0 +1 Y512,1 +1 Y512,2 +1 Y512,3 +1 Y512,4
  +1 Y512,5 +1 Y512,6 +1 Y513,0 +1 Y513,1 +1 Y513,2 +1 Y513,3 +1 Y513,4 +1 Y513,5 +1 Y513,6 +1 Y515,0
  +1 Y515,1 +1 Y515,2 +1 Y515,3 +1 Y515,4 +1 Y515,5 +1 Y515,6 +1 Y516,0 +1 Y516,1 +1 Y516,2 +1 Y516,3
  +1 Y516,4 +1 Y516,5 +1 Y516,6 +1 Y518,0 +1 Y518,1 +1 Y518,2 +1 Y518,3 +1 Y518,4 +1 Y518,5 +1 Y518,6
  +1 Y519,0 +1 Y519,1 +1 Y519,2 +1 Y519,3 +1 Y519,4 +1 Y519,5 +1 Y519,6 +1 Y520,0 +1 Y520,1 +1 Y520,2
  +1 Y520,3 +1 Y520,4 +1 Y520,5 +1 Y520,6 +1 Y522,0 +1 Y522,1 +1 Y522,2 +1 Y522,3 +1 Y522,4 +1 Y522,5
  +1 Y522,6 +1 Y523,0 +1 Y523,1 +1 Y523,2 +1 Y523,3 +1 Y523,4 +1 Y523,5 +1 Y523,6 +1 Y524,0 +1 Y524,1
  +1 Y524,2 +1 Y524,3 +1 Y524,4 +1 Y524,5 +1 Y524,6 +1 Y525,0 +1 Y525,1 +1 Y525,2 +1 Y525,3 +1 Y525,4
  +1 Y525,5 +1 Y525,6 +1 Y527,0 +1 Y527,1 +1 Y527,2 +1 Y527,3 +1 Y527,4 +1 Y527,5 +1 Y527,6 +1 Y528,0
  +1 Y528,1 +1 Y528,2 +1 Y528,3 +1 Y528,4 +1 Y528,5 +1 Y528,6 +1 Y530,0 +1 Y530,1 +1 Y530,2 +1 Y530,3
  +1 Y530,4 +1 Y530,5 +1 Y530,6 +1 Y531,0 +1 Y531,1 +1 Y531,2 +1 Y531,3 +1 Y531,4 +1 Y531,5 +1 Y531,6
  +1 Y532,0 +1 Y532,1 +1 Y532,2 +1 Y532,3 +1 Y532,4 +1 Y532,5 +1 Y532,6 +1 Y534,0 +1 Y534,1 +1 Y534,2
  +1 Y534,3 +1 Y534,4 +1 Y534,5 +1 Y534,6 +1 Y535,0 +1 Y535,1 +1 Y535,2 +1 Y535,3 +1 Y535,4 +1 Y535,5
  +1 Y535,6 +1 Y536,0 +1 Y536,1 +1 Y536,2 +1 Y536,3 +1 Y536,4 +1 Y536,5 +1 Y536,6 +1 Y537,0 +1 Y537,1
  +1 Y537,2 +1 Y537,3 +1 Y537,4 +1 Y537,5 +1 Y537,6 +1 Y538,0 +1 Y538,1 +1 Y538,2 +1 Y538,3 +1 Y538,4
  +1 Y538,5 +1 Y538,6 +1 Y539,0 +1 Y539,1 +1 Y539,2 +1 Y539,3 +1 Y539,4 +1 Y539,5 +1 Y539,6 +1 Y540,0
  +1 Y540,1 +1 Y540,2 +1 Y540,3 +1 Y540,4 +1 Y540,5 +1 Y540,6 = +1
 c31: +1 Y700,0 +1 Y700,1 +1 Y700,2 +1 Y700,3 +1 Y700,4 +1 Y700,5 +1 Y700,6 +1 Y703,0 +1 Y703,1 +1 Y703,2
  +1 Y703,3 +1 Y703,4 +1 Y703,5 +1 Y703,6 +1 Y705,0 +1 Y705,1 +1 Y705,2 +1 Y705,3 +1 Y705,4 +1 Y705,5
  +1 Y705,6 +1 Y706,0 +1 Y706,1 +1 Y706,2 +1 Y706,3 +1 Y706,4 +1 Y706,5 +1 Y706,6 +1 Y708,0 +1 Y708,1
  +1 Y708,2 +1 Y708,3 +1 Y708,4 +1 Y708,5 +1 Y708,6 +1 Y709,0 +1 Y709,1 +1 Y709,2 +1 Y709,3 +1 Y709,4
  +1 Y709,5 +1 Y709,6 +1 Y710,0 +1 Y710,1 +1 Y710,2 +1 Y710,3 +1 Y710,4 +1 Y710,5 +1 Y710,6 +1 Y711,0
  +1 Y711,1 +1 Y711,2 +1 Y711,3 +1 Y711,4 +1 Y711,5 +1 Y711,6 = +1
 c32: +1 Y8,0 +1 Y8,1 +1 Y8,2 +1 Y8,3 +1 Y8,4 +1 Y8,5 +1 Y8,6 +1 Y17,0 +1 Y17,1 +1 Y17,2 +1 Y17,3 +1 Y17,4
  +1 Y17,5 +1 Y17,6 +1 Y25,0 +1 Y25,1 +1 Y25,2 +1 Y25,3 +1 Y25,4 +1 Y25,5 +1 Y25,6 +1 Y32,0 +1 Y32,1 +1 Y32,2
  +1 Y32,3 +1 Y32,4 +1 Y32,5 +1 Y32,6 +1 Y38,0 +1 Y38,1 +1 Y38,2 +1 Y38,3 +1 Y38,4 +1 Y38,5 +1 Y38,6 +1 Y43,0
  +1 Y43,1 +1 Y43,2 +1 Y43,3 +1 Y43,4 +1 Y43,5 +1 Y43,6 +1 Y47,0 +1 Y47,1 +1 Y47,2 +1 Y47,3 +1 Y47,4 +1 Y47,5
  +1 Y47,6 +1 Y50,0 +1 Y50,1 +1 Y50,2 +1 Y50,3 +1 Y50,4 +1 Y50,5 +1 Y50,6 +1 Y52,0 +1 Y52,1 +1 Y52,2 +1 Y52,3
  +1 Y52,4 +1 Y52,5 +1 Y52,6 +1 Y54,0 +1 Y54,1 +1 Y54,2 +1 Y54,3 +1 Y54,4 +1 Y54,5 +1 Y54,6 +1 Y61,0 +1 Y61,1
  +1 Y61,2 +1 Y61,3 +1 Y61,4 +1 Y61,5 +1 Y61,6 +1 Y68,0 +1 Y68,1 +1 Y68,2 +1 Y68,3 +1 Y68,4 +1 Y68,5 +1 Y68,6
  +1 Y74,0 +1 Y74,1 +1 Y74,2 +1 Y74,3 +1 Y74,4 +1 Y74,5 +1 Y74,6 +1 Y79,0 +1 Y79,1 +1 Y79,2 +1 Y79,3 +1 Y79,4
  +1 Y79,5 +1 Y79,6 +1 Y83,0 +1 Y83,1 +1 Y83,2 +1 Y83,3 +1 Y83,4 +1 Y83,5 +1 Y83,6 +1 Y86,0 +1 Y86,1 +1 Y86,2
  +1 Y86,3 +1 Y86,4 +1 Y86,5 +1 Y86,6 +1 Y88,0 +1 Y88,1 +1 Y88,2 +1 Y88,3 +1 Y88,4 +1 Y88,5 +1 Y88,6 +1 Y90,0
  +1 Y90,1 +1 Y90,2 +1 Y90,3 +1 Y90,4 +1 Y90,5 +1 Y90,6 +1 Y96,0 +1 Y96,1 +1 Y96,2 +1 Y96,3 +1 Y96,4 +1 Y96,5
  +1 Y96,6 +1 Y102,0 +1 Y102,1 +1 Y102,2 +1 Y102,3 +1 Y102,4 +1 Y102,5 +1 Y102,6 +1 Y107,0 +1 Y107,1 +1 Y107,2
  +1 Y107,3 +1 Y107,4 +1 Y107,5 +1 Y107,6 +1 Y111,0 +1 Y111,1 +1 Y111,2 +1 Y111,3 +1 Y111,4 +1 Y111,5
  +1 Y111,6 +1 Y114,0 +1 Y114,1 +1 Y114,2 +1 Y114,3 +1 Y114,4 +1 Y114,5 +1 Y114,6 +1 Y116,0 +1 Y116,1
  +1 Y116,2 +1 Y116,3 +1 Y116,4 +1 Y116,5 +1 Y116,6 +1 Y118,0 +1 Y118,1 +1 Y118,2 +1 Y118,3 +1 Y118,4
  +1 Y118,5 +1 Y118,6 +1 Y123,0 +1 Y123,1 +1 Y123,2 +1 Y123,3 +1 Y123,4 +1 Y123,5 +1 Y123,6 +1 Y128,0
  +1 Y128,1 +1 Y128,2 +1 Y128,3 +1 Y128,4 +1 Y128,5 +1 Y128,6 +1 Y132,0 +1 Y132,1 +1 Y132,2 +1 Y132,3
  +1 Y132,4 +1 Y132,5 +1 Y132,6 +1 Y135,0 +1 Y135,1 +1 Y135,2 +1 Y135,3 +1 Y135,4 +1 Y135,5 +1 Y135,6
  +1 Y137,0 +1 Y137,1 +1 Y137,2 +1 Y137,3 +1 Y137,4 +1 Y137,5 +1 Y137,6 +1 Y139,0 +1 Y139,1 +1 Y139,2
  +1 Y139,3 +1 Y139,4 +1 Y139,5 +1 Y139,6 +1 Y143,0 +1 Y143,1 +1 Y143,2 +1 Y143,3 +1 Y143,4 +1 Y143,5
  +1 Y143,6 +1 Y147,0 +1 Y147,1 +1 Y147,2 +1 Y147,3 +1 Y147,4 +1 Y147,5 +1 Y147,6 +1 Y150,0 +1 Y150,1
  +1 Y150,2 +1 Y150,3 +1 Y150,4 +1 Y150,5 +1 Y150,6 +1 Y152,0 +1 Y152,1 +1 Y152,2 +1 Y152,3 +1 Y152,4
  +1 Y152,5 +1 Y152,6 +1 Y154,0 +1 Y154,1 +1 Y154,2 +1 Y154,3 +1 Y154,4 +1 Y154,5 +1 Y154,6 +1 Y157,0
  +1 Y157,1 +1 Y157,2 +1 Y157,3 +1 Y157,4 +1 Y157,5 +1 Y157,6 +1 Y160,0 +1 Y160,1 +1 Y160,2 +1 Y160,3
  +1 Y160,4 +1 Y160,5 +1 Y160,6 +1 Y162,0 +1 Y162,1 +1 Y162,2 +1 Y162,3 +1 Y162,4 +1 Y162,5 +1 Y162,6
  +1 Y164,0 +1 Y164,1 +1 Y164,2 +1 Y164,3 +1 Y164,4 +1 Y164,5 +1 Y164,6 +1 Y166,0 +1 Y166,1 +1 Y166,2
  +1 Y166,3 +1 Y166,4 +1 Y166,5 +1 Y166,6 +1 Y168,0 +1 Y168,1 +1 Y168,2 +1 Y168,3 +1 Y168,4 +1 Y168,5
  +1 Y168,6 +1 Y170,0 +1 Y170,1 +1 Y170,2 +1 Y170,3 +1 Y170,4 +1 Y170,5 +1 Y170,6 +1 Y171,0 +1 Y171,1
  +1 Y171,2 +1 Y171,3 +1 Y171,4 +1 Y171,5 +1 Y171,6 +1 Y173,0 +1 Y173,1 +1 Y173,2 +1 Y173,3 +1 Y173,4
  +1 Y173,5 +1 Y173,6 +1 Y174,0 +1 Y174,1 +1 Y174,2 +1 Y174,3 +1 Y174,4 +1 Y174,5 +1 Y174,6 +1 Y178,0
  +1 Y178,1 +1 Y178,2 +1 Y178,3 +1 Y178,4 +1 Y178,5 +1 Y178,6 +1 Y183,0 +1 Y183,1 +1 Y183,2 +1 Y183,3
  +1 Y183,4 +1 Y183,5 +1 Y183,6 +1 Y188,0 +1 Y188,1 +1 Y188,2 +1 Y188,3 +1 Y188,4 +1 Y188,5 +1 Y188,6
  +1 Y192,0 +1 Y192,1 +1 Y192,2 +1 Y192,3 +1 Y192,4 +1 Y192,5 +1 Y192,6 +1 Y195,0 +1 Y195,1 +1 Y195,2
  +1 Y195,3 +1 Y195,4 +1 Y195,5 +1 Y195,6 +1 Y197,0 +1 Y197,1 +1 Y197,2 +1 Y197,3 +1 Y197,4 +1 Y197,5
  +1 Y197,6 +1 Y199,0 +1 Y199,1 +1 Y199,2 +1 Y199,3 +1 Y199,4 +1 Y199,5 +1 Y199,6 +1 Y203,0 +1 Y203,1
  +1 Y203,2 +1 Y203,3 +1 Y203,4 +1 Y203,5 +1 Y203,6 +1 Y208,0 +1 Y208,1 +1 Y208,2 +1 Y208,3 +1 Y208,4
  +1 Y208,5 +1 Y208,6 +1 Y212,0 +1 Y212,1 +1 Y212,2 +1 Y212,3 +1 Y212,4 +1 Y212,5 +1 Y212,6 +1 Y215,0
  +1 Y215,1 +1 Y215,2 +1 Y215,3 +1 Y215,4 +1 Y215,5 +1 Y215,6 +1 Y217,0 +1 Y217,1 +1 Y217,2 +1 Y217,3
  +1 Y217,4 +1 Y217,5 +1 Y217,6 +1 Y219,0 +1 Y219,1 +1 Y219,2 +1 Y219,3 +1 Y219,4 +1 Y219,5 +1 Y219,6
  +1 Y223,0 +1 Y223,1 +1 Y223,2 +1 Y223,3 +1 Y223,4 +1 Y223,5 +1 Y223,6 +1 Y227,0 +1 Y227,1 +1 Y227,2
  +1 Y227,3 +1 Y227,4 +1 Y227,5 +1 Y227,6 +1 Y230,0 +1 Y230,1 +1 Y230,2 +1 Y230,3 +1 Y230,4 +1 Y230,5
  +1 Y230,6 +1 Y232,0 +1 Y232,1 +1 Y232,2 +1 Y232,3 +1 Y232,4 +1 Y232,5 +1 Y232,6 +1 Y234,0 +1 Y234,1
  +1 Y234,2 +1 Y234,3 +1 Y234,4 +1 Y234,5 +1 Y234,6 +1 Y237,0 +1 Y237,1 +1 Y237,2 +1 Y237,3 +1 Y237,4
  +1 Y237,5 +1 Y237,6 +1 Y240,0 +1 Y240,1 +1 Y240,2 +1 Y240,3 +1 Y240,4 +1 Y240,5 +1 Y240,6 +1 Y242,0
  +1 Y242,1 +1 Y242,2 +1 Y242,3 +1 Y242,4 +1 Y242,5 +1 Y242,6 +1 Y244,0 +1 Y244,1 +1 Y244,2 +1 Y244,3
  +1 Y244,4 +1 Y244,5 +1 Y244,6 +1 Y246,0 +1 Y246,1 +1 Y246,2 +1 Y246,3 +1 Y246,4 +1 Y246,5 +1 Y246,6
  +1 Y248,0 +1 Y248,1 +1 Y248,2 +1 Y248,3 +1 Y248,4 +1 Y248,5 +1 Y248,6 +1 Y250,0 +1 Y250,1 +1 Y250,2
  +1 Y250,3 +1 Y250,4 +1 Y250,5 +1 Y250,6 +1 Y251,0 +1 Y251,1 +1 Y251,2 +1 Y251,3 +1 Y251,4 +1 Y251,5
  +1 Y251,6 +1 Y253,0 +1 Y253,1 +1 Y253,2 +1 Y253,3 +1 Y253,4 +1 Y253,5 +1 Y253,6 +1 Y254,0 +1 Y254,1
  +1 Y254,2 +1 Y254,3 +1 Y254,4 +1 Y254,5 +1 Y254,6 +1 Y258,0 +1 Y258,1 +1 Y258,2 +1 Y258,3 +1 Y258,4
  +1 Y258,5 +1 Y258,6 +1 Y263,0 +1 Y263,1 +1 Y263,2 +1 Y263,3 +1 Y263,4 +1 Y263,5 +1 Y263,6 +1 Y267,0
  +1 Y267,1 +1 Y267,2 +1 Y267,3 +1 Y267,4 +1 Y267,5 +1 Y267,6 +1 Y270,0 +1 Y270,1 +1 Y270,2 +1 Y270,3
  +1 Y270,4 +1 Y270,5 +1 Y270,6 +1 Y272,0 +1 Y272,1 +1 Y272,2 +1 Y272,3 +1 Y272,4 +1 Y272,5 +1 Y272,6
  +1 Y274,0 +1 Y274,1 +1 Y274,2 +1 Y274,3 +1 Y274,4 +1 Y274,5 +1 Y274,6 +1 Y278,0 +1 Y278,1 +1 Y278,2
  +1 Y278,3 +1 Y278,4 +1 Y278,5 +1 Y278,6 +1 Y282,0 +1 Y282,1 +1 Y282,2 +1 Y282,3 +1 Y282,4 +1 Y282,5
  +1 Y282,6 +1 Y285,0 +1 Y285,1 +1 Y285,2 +1 Y285,3 +1 Y285,4 +1 Y285,5 +1 Y285,6 +1 Y287,0 +1 Y287,1
  +1 Y287,2 +1 Y287,3 +1 Y287,4 +1 Y287,5 +1 Y287,6 +1 Y289,0 +1 Y289,1 +1 Y289,2 +1 Y289,3 +1 Y289,4
  +1 Y289,5 +1 Y289,6 +1 Y292,0 +1 Y292,1 +1 Y292,2 +1 Y292,3 +1 Y292,4 +1 Y292,5 +1 Y292,6 +1 Y295,0
  +1 Y295,1 +1 Y295,2 +1 Y295,3 +1 Y295,4 +1 Y295,5 +1 Y295,6 +1 Y297,0 +1 Y297,1 +1 Y297,2 +1 Y297,3
  +1 Y297,4 +1 Y297,5 +1 Y297,6 +1 Y299,0 +1 Y299,1 +1 Y299,2 +1 Y299,3 +1 Y299,4 +1 Y299,5 +1 Y299,6
  +1 Y301,0 +1 Y301,1 +1 Y301,2 +1 Y301,3 +1 Y301,4 +1 Y301,5 +1 Y301,6 +1 Y303,0 +1 Y303,1 +1 Y303,2
  +1 Y303,3 +1 Y303,4 +1 Y303,5 +1 Y303,6 +1 Y305,0 +1 Y305,1 +1 Y305,2 +1 Y305,3 +1 Y305,4 +1 Y305,5
  +1 Y305,6 +1 Y306,0 +1 Y306,1 +1 Y306,2 +1 Y306,3 +1 Y306,4 +1 Y306,5 +1 Y306,6 +1 Y308,0 +1 Y308,1
  +1 Y308,2 +1 Y308,3 +1 Y308,4 +1 Y308,5 +1 Y308,6 +1 Y309,0 +1 Y309,1 +1 Y309,2 +1 Y309,3 +1 Y309,4
  +1 Y309,5 +1 Y309,6 +1 Y312,0 +1 Y312,1 +1 Y312,2 +1 Y312,3 +1 Y312,4 +1 Y312,5 +1 Y312,6 +1 Y315,0
  +1 Y315,1 +1 Y315,2 +1 Y315,3 +1 Y315,4 +1 Y315,5 +1 Y315,6 +1 Y317,0 +1 Y317,1 +1 Y317,2 +1 Y317,3
  +1 Y317,4 +1 Y317,5 +1 Y317,6 +1 Y319,0 +1 Y319,1 +1 Y319,2 +1 Y319,3 +1 Y319,4 +1 Y319,5 +1 Y319,6
  +1 Y321,0 +1 Y321,1 +1 Y321,2 +1 Y321,3 +1 Y321,4 +1 Y321,5 +1 Y321,6 +1 Y324,0 +1 Y324,1 +1 Y324,2
  +1 Y324,3 +1 Y324,4 +1 Y324,5 +1 Y324,6 +1 Y327,0 +1 Y327,1 +1 Y327,2 +1 Y327,3 +1 Y327,4 +1 Y327,5
  +1 Y327,6 +1 Y329,0 +1 Y329,1 +1 Y329,2 +1 Y329,3 +1 Y329,4 +1 Y329,5 +1 Y329,6 +1 Y331,0 +1 Y331,1
  +1 Y331,2 +1 Y331,3 +1 Y331,4 +1 Y331,5 +1 Y331,6 +1 Y333,0 +1 Y333,1 +1 Y333,2 +1 Y333,3 +1 Y333,4
  +1 Y333,5 +1 Y333,6 +1 Y335,0 +1 Y335,1 +1 Y335,2 +1 Y335,3 +1 Y335,4 +1 Y335,5 +1 Y335,6 +1 Y337,0
  +1 Y337,1 +1 Y337,2 +1 Y337,3 +1 Y337,4 +1 Y337,5 +1 Y337,6 +1 Y338,0 +1 Y338,1 +1 Y338,2 +1 Y338,3
  +1 Y338,4 +1 Y338,5 +1 Y338,6 +1 Y340,0 +1 Y340,1 +1 Y340,2 +1 Y340,3 +1 Y340,4 +1 Y340,5 +1 Y340,6
  +1 Y341,0 +1 Y341,1 +1 Y341,2 +1 Y341,3 +1 Y341,4 +1 Y341,5 +1 Y341,6 +1 Y344,0 +1 Y344,1 +1 Y344,2
  +1 Y344,3 +1 Y344,4 +1 Y344,5 +1 Y344,6 +1 Y347,0 +1 Y347,1 +1 Y347,2 +1 Y347,3 +1 Y347,4 +1 Y347,5
  +1 Y347,6 +1 Y349,0 +1 Y349,1 +1 Y349,2 +1 Y349,3 +1 Y349,4 +1 Y349,5 +1 Y349,6 +1 Y351,0 +1 Y351,1
  +1 Y351,2 +1 Y351,3 +1 Y351,4 +1 Y351,5 +1 Y351,6 +1 Y353,0 +1 Y353,1 +1 Y353,2 +1 Y353,3 +1 Y353,4
  +1 Y353,5 +1 Y353,6 +1 Y355,0 +1 Y355,1 +1 Y355,2 +1 Y355,3 +1 Y355,4 +1 Y355,5 +1 Y355,6 +1 Y357,0
  +1 Y357,1 +1 Y357,2 +1 Y357,3 +1 Y357,4 +1 Y357,5 +1 Y357,6 +1 Y358,0 +1 Y358,1 +1 Y358,2 +1 Y358,3
  +1 Y358,4 +1 Y358,5 +1 Y358,6 +1 Y360,0 +1 Y360,1 +1 Y360,2 +1 Y360,3 +1 Y360,4 +1 Y360,5 +1 Y360,6
  +1 Y361,0 +1 Y361,1 +1 Y361,2 +1 Y361,3 +1 Y361,4 +1 Y361,5 +1 Y361,6 +1 Y363,0 +1 Y363,1 +1 Y363,2
  +1 Y363,3 +1 Y363,4 +1 Y363,5 +1 Y363,6 +1 Y365,0 +1 Y365,1 +1 Y365,2 +1 Y365,3 +1 Y365,4 +1 Y365,5
  +1 Y365,6 +1 Y367,0 +1 Y367,1 +1 Y367,2 +1 Y367,3 +1 Y367,4 +1 Y367,5 +1 Y367,6 +1 Y368,0 +1 Y368,1
  +1 Y368,2 +1 Y368,3 +1 Y368,4 +1 Y368,5 +1 Y368,6 +1 Y370,0 +1 Y370,1 +1 Y370,2 +1 Y370,3 +1 Y370,4
  +1 Y370,5 +1 Y370,6 +1 Y371,0 +1 Y371,1 +1 Y371,2 +1 Y371,3 +1 Y371,4 +1 Y371,5 +1 Y371,6 +1 Y372,0
  +1 Y372,1 +1 Y372,2 +1 Y372,3 +1 Y372,4 +1 Y372,5 +1 Y372,6 +1 Y374,0 +1 Y374,1 +1 Y374,2 +1 Y374,3
  +1 Y374,4 +1 Y374,5 +1 Y374,6 +1 Y375,0 +1 Y375,1 +1 Y375,2 +1 Y375,3 +1 Y375,4 +1 Y375,5 +1 Y375,6
  +1 Y376,0 +1 Y376,1 +1 Y376,2 +1 Y376,3 +1 Y376,4 +1 Y376,5 +1 Y376,6 +1 Y377,0 +1 Y377,1 +1 Y377,2
  +1 Y377,3 +1 Y377,4 +1 Y377,5 +1 Y377,6 +1 Y379,0 +1 Y379,1 +1 Y379,2 +1 Y379,3 +1 Y379,4 +1 Y379,5
  +1 Y379,6 +1 Y381,0 +1 Y381,1 +1 Y381,2 +1 Y381,3 +1 Y381,4 +1 Y381,5 +1 Y381,6 +1 Y383,0 +1 Y383,1
  +1 Y383,2 +1 Y383,3 +1 Y383,4 +1 Y383,5 +1 Y383,6 +1 Y385,0 +1 Y385,1 +1 Y385,2 +1 Y385,3 +1 Y385,4
  +1 Y385,5 +1 Y385,6 +1 Y386,0 +1 Y386,1 +1 Y386,2 +1 Y386,3 +1 Y386,4 +1 Y386,5 +1 Y386,6 +1 Y387,0
  +1 Y387,1 +1 Y387,2 +1 Y387,3 +1 Y387,4 +1 Y387,5 +1 Y387,6 +1 Y389,0 +1 Y389,1 +1 Y389,2 +1 Y389,3
  +1 Y389,4 +1 Y389,5 +1 Y389,6 +1 Y390,0 +1 Y390,1 +1 Y390,2 +1 Y390,3 +1 Y390,4 +1 Y390,5 +1 Y390,6
  +1 Y392,0 +1 Y392,1 +1 Y392,2 +1 Y392,3 +1 Y392,4 +1 Y392,5 +1 Y392,6 +1 Y394,0 +1 Y394,1 +1 Y394,2
  +1 Y394,3 +1 Y394,4 +1 Y394,5 +1 Y394,6 +1 Y396,0 +1 Y396,1 +1 Y396,2 +1 Y396,3 +1 Y396,4 +1 Y396,5
  +1 Y396,6 +1 Y397,0 +1 Y397,1 +1 Y397,2 +1 Y397,3 +1 Y397,4 +1 Y397,5 +1 Y397,6 +1 Y399,0 +1 Y399,1
  +1 Y399,2 +1 Y399,3 +1 Y399,4 +1 Y399,5 +1 Y399,6 +1 Y400,0 +1 Y400,1 +1 Y400,2 +1 Y400,3 +1 Y400,4
  +1 Y400,5 +1 Y400,6 +1 Y402,0 +1 Y402,1 +1 Y402,2 +1 Y402,3 +1 Y402,4 +1 Y402,5 +1 Y402,6 +1 Y404,0
  +1 Y404,1 +1 Y404,2 +1 Y404,3 +1 Y404,4 +1 Y404,5 +1 Y404,6 +1 Y406,0 +1 Y406,1 +1 Y406,2 +1 Y406,3
  +1 Y406,4 +1 Y406,5 +1 Y406,6 +1 Y407,0 +1 Y407,1 +1 Y407,2 +1 Y407,3 +1 Y407,4 +1 Y407,5 +1 Y407,6
  +1 Y409,0 +1 Y409,1 +1 Y409,2 +1 Y409,3 +1 Y409,4 +1 Y409,5 +1 Y409,6 +1 Y410,0 +1 Y410,1 +1 Y410,2
  +1 Y410,3 +1 Y410,4 +1 Y410,5 +1 Y410,6 +1 Y412,0 +1 Y412,1 +1 Y412,2 +1 Y412,3 +1 Y412,4 +1 Y412,5
  +1 Y412,6 +1 Y414,0 +1 Y414,1 +1 Y414,2 +1 Y414,3 +1 Y414,4 +1 Y414,5 +1 Y414,6 +1 Y416,0 +1 Y416,1
  +1 Y416,2 +1 Y416,3 +1 Y416,4 +1 Y416,5 +1 Y416,6 +1 Y417,0 +1 Y417,1 +1 Y417,2 +1 Y417,3 +1 Y417,4
  +1 Y417,5 +1 Y417,6 +1 Y419,0 +1 Y419,1 +1 Y419,2 +1 Y419,3 +1 Y419,4 +1 Y419,5 +1 Y419,6 +1 Y420,0
  +1 Y420,1 +1 Y420,2 +1 Y420,3 +1 Y420,4 +1 Y420,5 +1 Y420,6 +1 Y421,0 +1 Y421,1 +1 Y421,2 +1 Y421,3
  +1 Y421,4 +1 Y421,5 +1 Y421,6 +1 Y423,0 +1 Y423,1 +1 Y423,2 +1 Y423,3 +1 Y423,4 +1 Y423,5 +1 Y423,6
  +1 Y424,0 +1 Y424,1 +1 Y424,2 +1 Y424,3 +1 Y424,4 +1 Y424,5 +1 Y424,6 +1 Y425,0 +1 Y425,1 +1 Y425,2
  +1 Y425,3 +1 Y425,4 +1 Y425,5 +1 Y425,6 +1 Y427,0 +1 Y427,1 +1 Y427,2 +1 Y427,3 +1 Y427,4 +1 Y427,5
  +1 Y427,6 +1 Y429,0 +1 Y429,1 +1 Y429,2 +1 Y429,3 +1 Y429,4 +1 Y429,5 +1 Y429,6 +1 Y431,0 +1 Y431,1
  +1 Y431,2 +1 Y431,3 +1 Y431,4 +1 Y431,5 +1 Y431,6 +1 Y432,0 +1 Y432,1 +1 Y432,2 +1 Y432,3 +1 Y432,4
  +1 Y432,5 +1 Y432,6 +1 Y434,0 +1 Y434,1 +1 Y434,2 +1 Y434,3 +1 Y434,4 +1 Y434,5 +1 Y434,6 +1 Y435,0
  +1 Y435,1 +1 Y435,2 +1 Y435,3 +1 Y435,4 +1 Y435,5 +1 Y435,6 +1 Y437,0 +1 Y437,1 +1 Y437,2 +1 Y437,3
  +1 Y437,4 +1 Y437,5 +1 Y437,6 +1 Y439,0 +1 Y439,1 +1 Y439,2 +1 Y439,3 +1 Y439,4 +1 Y439,5 +1 Y439,6
  +1 Y441,0 +1 Y441,1 +1 Y441,2 +1 Y441,3 +1 Y441,4 +1 Y441,5 +1 Y441,6 +1 Y442,0 +1 Y442,1 +1 Y442,2
  +1 Y442,3 +1 Y442,4 +1 Y442,5 +1 Y442,6 +1 Y444,0 +1 Y444,1 +1 Y444,2 +1 Y444,3 +1 Y444,4 +1 Y444,5
  +1 Y444,6 +1 Y445,0 +1 Y445,1 +1 Y445,2 +1 Y445,3 +1 Y445,4 +1 Y445,5 +1 Y445,6 +1 Y447,0 +1 Y447,1
  +1 Y447,2 +1 Y447,3 +1 Y447,4 +1 Y447,5 +1 Y447,6 +1 Y449,0 +1 Y449,1 +1 Y449,2 +1 Y449,3 +1 Y449,4
  +1 Y449,5 +1 Y449,6 +1 Y451,0 +1 Y451,1 +1 Y451,2 +1 Y451,3 +1 Y451,4 +1 Y451,5 +1 Y451,6 +1 Y452,0
  +1 Y452,1 +1 Y452,2 +1 Y452,3 +1 Y452,4 +1 Y452,5 +1 Y452,6 +1 Y454,0 +1 Y454,1 +1 Y454,2 +1 Y454,3
  +1 Y454,4 +1 Y454,5 +1 Y454,6 +1 Y455,0 +1 Y455,1 +1 Y455,2 +1 Y455,3 +1 Y455,4 +1 Y455,5 +1 Y455,6
  +1 Y456,0 +1 Y456,1 +1 Y456,2 +1 Y456,3 +1 Y456,4 +1 Y456,5 +1 Y456,6 +1 Y458,0 +1 Y458,1 +1 Y458,2
  +1 Y458,3 +1 Y458,4 +1 Y458,5 +1 Y458,6 +1 Y459,0 +1 Y459,1 +1 Y459,2 +1 Y459,3 +1 Y459,4 +1 Y459,5
  +1 Y459,6 +1 Y460,0 +1 Y460,1 +1 Y460,2 +1 Y460,3 +1 Y460,4 +1 Y460,5 +1 Y460,6 +1 Y462,0 +1 Y462,1
  +1 Y462,2 +1 Y462,3 +1 Y462,4 +1 Y462,5 +1 Y462,6 +1 Y464,0 +1 Y464,1 +1 Y464,2 +1 Y464,3 +1 Y464,4
  +1 Y464,5 +1 Y464,6 +1 Y466,0 +1 Y466,1 +1 Y466,2 +1 Y466,3 +1 Y466,4 +1 Y466,5 +1 Y466,6 +1 Y467,0
  +1 Y467,1 +1 Y467,2 +1 Y467,3 +1 Y467,4 +1 Y467,5 +1 Y467,6 +1 Y469,0 +1 Y469,1 +1 Y469,2 +1 Y469,3
  +1 Y469,4 +1 Y469,5 +1 Y469,6 +1 Y470,0 +1 Y470,1 +1 Y470,2 +1 Y470,3 +1 Y470,4 +1 Y470,5 +1 Y470,6
  +1 Y472,0 +1 Y472,1 +1 Y472,2 +1 Y472,3 +1 Y472,4 +1 Y472,5 +1 Y472,6 +1 Y474,0 +1 Y474,1 +1 Y474,2
  +1 Y474,3 +1 Y474,4 +1 Y474,5 +1 Y474,6 +1 Y476,0 +1 Y476,1 +1 Y476,2 +1 Y476,3 +1 Y476,4 +1 Y476,5
  +1 Y476,6 +1 Y477,0 +1 Y477,1 +1 Y477,2 +1 Y477,3 +1 Y477,4 +1 Y477,5 +1 Y477,6 +1 Y479,0 +1 Y479,1
  +1 Y479,2 +1 Y479,3 +1 Y479,4 +1 Y479,5 +1 Y479,6 +1 Y480,0 +1 Y480,1 +1 Y480,2 +1 Y480,3 +1 Y480,4
  +1 Y480,5 +1 Y480,6 +1 Y481,0 +1 Y481,1 +1 Y481,2 +1 Y481,3 +1 Y481,4 +1 Y481,5 +1 Y481,6 +1 Y483,0
  +1 Y483,1 +1 Y483,2 +1 Y483,3 +1 Y483,4 +1 Y483,5 +1 Y483,6 +1 Y484,0 +1 Y484,1 +1 Y484,2 +1 Y484,3
  +1 Y484,4 +1 Y484,5 +1 Y484,6 +1 Y485,0 +1 Y485,1 +1 Y485,2 +1 Y485,3 +1 Y485,4 +1 Y485,5 +1 Y485,6
  +1 Y487,0 +1 Y487,1 +1 Y487,2 +1 Y487,3 +1 Y487,4 +1 Y487,5 +1 Y487,6 +1 Y489,0 +1 Y489,1 +1 Y489,2
  +1 Y489,3 +1 Y489,4 +1 Y489,5 +1 Y489,6 +1 Y491,0 +1 Y491,1 +1 Y491,2 +1 Y491,3 +1 Y491,4 +1 Y491,5
  +1 Y491,6 +1 Y492,0 +1 Y492,1 +1 Y492,2 +1 Y492,3 +1 Y492,4 +1 Y492,5 +1 Y492,6 +1 Y494,0 +1 Y494,1
  +1 Y494,2 +1 Y494,3 +1 Y494,4 +1 Y494,5 +1 Y494,6 +1 Y495,0 +1 Y495,1 +1 Y495,2 +1 Y495,3 +1 Y495,4
  +1 Y495,5 +1 Y495,6 +1 Y496,0 +1 Y496,1 +1 Y496,2 +1 Y496,3 +1 Y496,4 +1 Y496,5 +1 Y496,6 +1 Y498,0
  +1 Y498,1 +1 Y498,2 +1 Y498,3 +1 Y498,4 +1 Y498,5 +1 Y498,6 +1 Y499,0 +1 Y499,1 +1 Y499,2 +1 Y499,3
  +1 Y499,4 +1 Y499,5 +1 Y499,6 +1 Y500,0 +1 Y500,1 +1 Y500,2 +1 Y500,3 +1 Y500,4 +1 Y500,5 +1 Y500,6
  +1 Y501,0 +1 Y501,1 +1 Y501,2 +1 Y501,3 +1 Y501,4 +1 Y501,5 +1 Y501,6 +1 Y503,0 +1 Y503,1 +1 Y503,2
  +1 Y503,3 +1 Y503,4 +1 Y503,5 +1 Y503,6 +1 Y504,0 +1 Y504,1 +1 Y504,2 +1 Y504,3 +1 Y504,4 +1 Y504,5
  +1 Y504,6 +1 Y505,0 +1 Y505,1 +1 Y505,2 +1 Y505,3 +1 Y505,4 +1 Y505,5 +1 Y505,6 +1 Y506,0 +1 Y506,1
  +1 Y506,2 +1 Y506,3 +1 Y506,4 +1 Y506,5 +1 Y506,6 +1 Y507,0 +1 Y507,1 +1 Y507,2 +1 Y507,3 +1 Y507,4
  +1 Y507,5 +1 Y507,6 +1 Y509,0 +1 Y509,1 +1 Y509,2 +1 Y509,3 +1 Y509,4 +1 Y509,5 +1 Y509,6 +1 Y510,0
  +1 Y510,1 +1 Y510,2 +1 Y510,3 +1 Y510,4 +1 Y510,5 +1 Y510,6 +1 Y511,0 +1 Y511,1 +1 Y511,2 +1 Y511,3
  +1 Y511,4 +1 Y511,5 +1 Y511,6 +1 Y512,0 +1 Y512,1 +1 Y512,2 +1 Y512,3 +1 Y512,4 +1 Y512,5 +1 Y512,6
  +1 Y514,0 +1 Y514,1 +1 Y514,2 +1 Y514,3 +1 Y514,4 +1 Y514,5 +1 Y514,6 +1 Y515,0 +1 Y515,1 +1 Y515,2
  +1 Y515,3 +1 Y515,4 +1 Y515,5 +1 Y515,6 +1 Y516,0 +1 Y516,1 +1 Y516,2 +1 Y516,3 +1 Y516,4 +1 Y516,5
  +1 Y516,6 +1 Y517,0 +1 Y517,1 +1 Y517,2 +1 Y517,3 +1 Y517,4 +1 Y517,5 +1 Y517,6 +1 Y518,0 +1 Y518,1
  +1 Y518,2 +1 Y518,3 +1 Y518,4 +1 Y518,5 +1 Y518,6 +1 Y519,0 +1 Y519,1 +1 Y519,2 +1 Y519,3 +1 Y519,4
  +1 Y519,5 +1 Y519,6 +1 Y521,0 +1 Y521,1 +1 Y521,2 +1 Y521,3 +1 Y521,4 +1 Y521,5 +1 Y521,6 +1 Y522,0
  +1 Y522,1 +1 Y522,2 +1 Y522,3 +1 Y522,4 +1 Y522,5 +1 Y522,6 +1 Y523,0 +1 Y523,1 +1 Y523,2 +1 Y523,3
  +1 Y523,4 +1 Y523,5 +1 Y523,6 +1 Y524,0 +1 Y524,1 +1 Y524,2 +1 Y524,3 +1 Y524,4 +1 Y524,5 +1 Y524,6
  +1 Y526,0 +1 Y526,1 +1 Y526,2 +1 Y526,3 +1 Y526,4 +1 Y526,5 +1 Y526,6 +1 Y527,0 +1 Y527,1 +1 Y527,2
  +1 Y527,3 +1 Y527,4 +1 Y527,5 +1 Y527,6 +1 Y528,0 +1 Y528,1 +1 Y528,2 +1 Y528,3 +1 Y528,4 +1 Y528,5
  +1 Y528,6 +1 Y529,0 +1 Y529,1 +1 Y529,2 +1 Y529,3 +1 Y529,4 +1 Y529,5 +1 Y529,6 +1 Y530,0 +1 Y530,1
  +1 Y530,2 +1 Y530,3 +1 Y530,4 +1 Y530,5 +1 Y530,6 +1 Y531,0 +1 Y531,1 +1 Y531,2 +1 Y531,3 +1 Y531,4
  +1 Y531,5 +1 Y531,6 +1 Y533,0 +1 Y533,1 +1 Y533,2 +1 Y533,3 +1 Y533,4 +1 Y533,5 +1 Y533,6 +1 Y534,0
  +1 Y534,1 +1 Y534,2 +1 Y534,3 +1 Y534,4 +1 Y534,5 +1 Y534,6 +1 Y535,0 +1 Y535,1 +1 Y535,2 +1 Y535,3
  +1 Y535,4 +1 Y535,5 +1 Y535,6 +1 Y536,0 +1 Y536,1 +1 Y536,2 +1 Y536,3 +1 Y536,4 +1 Y536,5 +1 Y536,6
  +1 Y537,0 +1 Y537,1 +1 Y537,2 +1 Y537,3 +1 Y537,4 +1 Y537,5 +1 Y537,6 +1 Y538,0 +1 Y538,1 +1 Y538,2
  +1 Y538,3 +1 Y538,4 +1 Y538,5 +1 Y538,6 +1 Y539,0 +1 Y539,1 +1 Y539,2 +1 Y539,3 +1 Y539,4 +1 Y539,5
  +1 Y539,6 +1 Y540,0 +1 Y540,1 +1 Y540,2 +1 Y540,3 +1 Y540,4 +1 Y540,5 +1 Y540,6 = +1
 c33: +1 Y880,0 +1 Y880,1 +1 Y880,2 +1 Y880,3 +1 Y880,4 +1 Y880,5 +1 Y880,6 +1 Y882,0 +1 Y882,1 +1 Y882,2
  +1 Y882,3 +1 Y882,4 +1 Y882,5 +1 Y882,6 +1 Y884,0 +1 Y884,1 +1 Y884,2 +1 Y884,3 +1 Y884,4 +1 Y884,5
  +1 Y884,6 +1 Y885,0 +1 Y885,1 +1 Y885,2 +1 Y885,3 +1 Y885,4 +1 Y885,5 +1 Y885,6 = +1
 c34: +1 Y728,0 +1 Y728,1 +1 Y728,2 +1 Y728,3 +1 Y728,4 +1 Y728,5 +1 Y728,6 +1 Y732,0 +1 Y732,1 +1 Y732,2
  +1 Y732,3 +1 Y732,4 +1 Y732,5 +1 Y732,6 +1 Y736,0 +1 Y736,1 +1 Y736,2 +1 Y736,3 +1 Y736,4 +1 Y736,5
  +1 Y736,6 +1 Y737,0 +1 Y737,1 +1 Y737,2 +1 Y737,3 +1 Y737,4 +1 Y737,5 +1 Y737,6 +1 Y738,0 +1 Y738,1
  +1 Y738,2 +1 Y738,3 +1 Y738,4 +1 Y738,5 +1 Y738,6 +1 Y742,0 +1 Y742,1 +1 Y742,2 +1 Y742,3 +1 Y742,4
  +1 Y742,5 +1 Y742,6 +1 Y743,0 +1 Y743,1 +1 Y743,2 +1 Y743,3 +1 Y743,4 +1 Y743,5 +1 Y743,6 +1 Y744,0
  +1 Y744,1 +1 Y744,2 +1 Y744,3 +1 Y744,4 +1 Y744,5 +1 Y744,6 +1 Y748,0 +1 Y748,1 +1 Y748,2 +1 Y748,3
  +1 Y748,4 +1 Y748,5 +1 Y748,6 +1 Y749,0 +1 Y749,1 +1 Y749,2 +1 Y749,3 +1 Y749,4 +1 Y749,5 +1 Y749,6
  +1 Y750,0 +1 Y750,1 +1 Y750,2 +1 Y750,3 +1 Y750,4 +1 Y750,5 +1 Y750,6 +1 Y752,0 +1 Y752,1 +1 Y752,2
  +1 Y752,3 +1 Y752,4 +1 Y752,5 +1 Y752,6 +1 Y753,0 +1 Y753,1 +1 Y753,2 +1 Y753,3 +1 Y753,4 +1 Y753,5
  +1 Y753,6 +1 Y754,0 +1 Y754,1 +1 Y754,2 +1 Y754,3 +1 Y754,4 +1 Y754,5 +1 Y754,6 +1 Y756,0 +1 Y756,1
  +1 Y756,2 +1 Y756,3 +1 Y756,4 +1 Y756,5 +1 Y756,6 +1 Y757,0 +1 Y757,1 +1 Y757,2 +1 Y757,3 +1 Y757,4
  +1 Y757,5 +1 Y757,6 = +1
 c35: +1 Y9,0 +1 Y9,1 +1 Y9,2 +1 Y9,3 +1 Y9,4 +1 Y9,5 +1 Y9,6 +1 Y18,0 +1 Y18,1 +1 Y18,2 +1 Y18,3 +1 Y18,4
  +1 Y18,5 +1 Y18,6 +1 Y26,0 +1 Y26,1 +1 Y26,2 +1 Y26,3 +1 Y26,4 +1 Y26,5 +1 Y26,6 +1 Y33,0 +1 Y33,1 +1 Y33,2
  +1 Y33,3 +1 Y33,4 +1 Y33,5 +1 Y33,6 +1 Y39,0 +1 Y39,1 +1 Y39,2 +1 Y39,3 +1 Y39,4 +1 Y39,5 +1 Y39,6 +1 Y44,0
  +1 Y44,1 +1 Y44,2 +1 Y44,3 +1 Y44,4 +1 Y44,5 +1 Y44,6 +1 Y48,0 +1 Y48,1 +1 Y48,2 +1 Y48,3 +1 Y48,4 +1 Y48,5
  +1 Y48,6 +1 Y51,0 +1 Y51,1 +1 Y51,2 +1 Y51,3 +1 Y51,4 +1 Y51,5 +1 Y51,6 +1 Y53,0 +1 Y53,1 +1 Y53,2 +1 Y53,3
  +1 Y53,4 +1 Y53,5 +1 Y53,6 +1 Y54,0 +1 Y54,1 +1 Y54,2 +1 Y54,3 +1 Y54,4 +1 Y54,5 +1 Y54,6 +1 Y62,0 +1 Y62,1
  +1 Y62,2 +1 Y62,3 +1 Y62,4 +1 Y62,5 +1 Y62,6 +1 Y69,0 +1 Y69,1 +1 Y69,2 +1 Y69,3 +1 Y69,4 +1 Y69,5 +1 Y69,6
  +1 Y75,0 +1 Y75,1 +1 Y75,2 +1 Y75,3 +1 Y75,4 +1 Y75,5 +1 Y75,6 +1 Y80,0 +1 Y80,1 +1 Y80,2 +1 Y80,3 +1 Y80,4
  +1 Y80,5 +1 Y80,6 +1 Y84,0 +1 Y84,1 +1 Y84,2 +1 Y84,3 +1 Y84,4 +1 Y84,5 +1 Y84,6 +1 Y87,0 +1 Y87,1 +1 Y87,2
  +1 Y87,3 +1 Y87,4 +1 Y87,5 +1 Y87,6 +1 Y89,0 +1 Y89,1 +1 Y89,2 +1 Y89,3 +1 Y89,4 +1 Y89,5 +1 Y89,6 +1 Y90,0
  +1 Y90,1 +1 Y90,2 +1 Y90,3 +1 Y90,4 +1 Y90,5 +1 Y90,6 +1 Y97,0 +1 Y97,1 +1 Y97,2 +1 Y97,3 +1 Y97,4 +1 Y97,5
  +1 Y97,6 +1 Y103,0 +1 Y103,1 +1 Y103,2 +1 Y103,3 +1 Y103,4 +1 Y103,5 +1 Y103,6 +1 Y108,0 +1 Y108,1 +1 Y108,2
  +1 Y108,3 +1 Y108,4 +1 Y108,5 +1 Y108,6 +1 Y112,0 +1 Y112,1 +1 Y112,2 +1 Y112,3 +1 Y112,4 +1 Y112,5
  +1 Y112,6 +1 Y115,0 +1 Y115,1 +1 Y115,2 +1 Y115,3 +1 Y115,4 +1 Y115,5 +1 Y115,6 +1 Y117,0 +1 Y117,1
  +1 Y117,2 +1 Y117,3 +1 Y117,4 +1 Y117,5 +1 Y117,6 +1 Y118,0 +1 Y118,1 +1 Y118,2 +1 Y118,3 +1 Y118,4
  +1 Y118,5 +1 Y118,6 +1 Y124,0 +1 Y124,1 +1 Y124,2 +1 Y124,3 +1 Y124,4 +1 Y124,5 +1 Y124,6 +1 Y129,0
  +1 Y129,1 +1 Y129,2 +1 Y129,3 +1 Y129,4 +1 Y129,5 +1 Y129,6 +1 Y133,0 +1 Y133,1 +1 Y133,2 +1 Y133,3
  +1 Y133,4 +1 Y133,5 +1 Y133,6 +1 Y136,0 +1 Y136,1 +1 Y136,2 +1 Y136,3 +1 Y136,4 +1 Y136,5 +1 Y136,6
  +1 Y138,0 +1 Y138,1 +1 Y138,2 +1 Y138,3 +1 Y138,4 +1 Y138,5 +1 Y138,6 +1 Y139,0 +1 Y139,1 +1 Y139,2
  +1 Y139,3 +1 Y139,4 +1 Y139,5 +1 Y139,6 +1 Y144,0 +1 Y144,1 +1 Y144,2 +1 Y144,3 +1 Y144,4 +1 Y144,5
  +1 Y144,6 +1 Y148,0 +1 Y148,1 +1 Y148,2 +1 Y148,3 +1 Y148,4 +1 Y148,5 +1 Y148,6 +1 Y151,0 +1 Y151,1
  +1 Y151,2 +1 Y151,3 +1 Y151,4 +1 Y151,5 +1 Y151,6 +1 Y153,0 +1 Y153,1 +1 Y153,2 +1 Y153,3 +1 Y153,4
  +1 Y153,5 +1 Y153,6 +1 Y154,0 +1 Y154,1 +1 Y154,2 +1 Y154,3 +1 Y154,4 +1 Y154,5 +1 Y154,6 +1 Y158,0
  +1 Y158,1 +1 Y158,2 +1 Y158,3 +1 Y158,4 +1 Y158,5 +1 Y158,6 +1 Y161,0 +1 Y161,1 +1 Y161,2 +1 Y161,3
  +1 Y161,4 +1 Y161,5 +1 Y161,6 +1 Y163,0 +1 Y163,1 +1 Y163,2 +1 Y163,3 +1 Y163,4 +1 Y163,5 +1 Y163,6
  +1 Y164,0 +1 Y164,1 +1 Y164,2 +1 Y164,3 +1 Y164,4 +1 Y164,5 +1 Y164,6 +1 Y167,0 +1 Y167,1 +1 Y167,2
  +1 Y167,3 +1 Y167,4 +1 Y167,5 +1 Y167,6 +1 Y169,0 +1 Y169,1 +1 Y169,2 +1 Y169,3 +1 Y169,4 +1 Y169,5
  +1 Y169,6 +1 Y170,0 +1 Y170,1 +1 Y170,2 +1 Y170,3 +1 Y170,4 +1 Y170,5 +1 Y170,6 +1 Y172,0 +1 Y172,1
  +1 Y172,2 +1 Y172,3 +1 Y172,4 +1 Y172,5 +1 Y172,6 +1 Y173,0 +1 Y173,1 +1 Y173,2 +1 Y173,3 +1 Y173,4
  +1 Y173,5 +1 Y173,6 +1 Y174,0 +1 Y174,1 +1 Y174,2 +1 Y174,3 +1 Y174,4 +1 Y174,5 +1 Y174,6 +1 Y179,0
  +1 Y179,1 +1 Y179,2 +1 Y179,3 +1 Y179,4 +1 Y179,5 +1 Y179,6 +1 Y184,0 +1 Y184,1 +1 Y184,2 +1 Y184,3
  +1 Y184,4 +1 Y184,5 +1 Y184,6 +1 Y189,0 +1 Y189,1 +1 Y189,2 +1 Y189,3 +1 Y189,4 +1 Y189,5 +1 Y189,6
  +1 Y193,0 +1 Y193,1 +1 Y193,2 +1 Y193,3 +1 Y193,4 +1 Y193,5 +1 Y193,6 +1 Y196,0 +1 Y196,1 +1 Y196,2
  +1 Y196,3 +1 Y196,4 +1 Y196,5 +1 Y196,6 +1 Y198,0 +1 Y198,1 +1 Y198,2 +1 Y198,3 +1 Y198,4 +1 Y198,5
  +1 Y198,6 +1 Y199,0 +1 Y199,1 +1 Y199,2 +1 Y199,3 +1 Y199,4 +1 Y199,5 +1 Y199,6 +1 Y204,0 +1 Y204,1
  +1 Y204,2 +1 Y204,3 +1 Y204,4 +1 Y204,5 +1 Y204,6 +1 Y209,0 +1 Y209,1 +1 Y209,2 +1 Y209,3 +1 Y209,4
  +1 Y209,5 +1 Y209,6 +1 Y213,0 +1 Y213,1 +1 Y213,2 +1 Y213,3 +1 Y213,4 +1 Y213,5 +1 Y213,6 +1 Y216,0
  +1 Y216,1 +1 Y216,2 +1 Y216,3 +1 Y216,4 +1 Y216,5 +1 Y216,6 +1 Y218,0 +1 Y218,1 +1 Y218,2 +1 Y218,3
  +1 Y218,4 +1 Y218,5 +1 Y218,6 +1 Y219,0 +1 Y219,1 +1 Y219,2 +1 Y219,3 +1 Y219,4 +1 Y219,5 +1 Y219,6
  +1 Y224,0 +1 Y224,1 +1 Y224,2 +1 Y224,3 +1 Y224,4 +1 Y224,5 +1 Y224,6 +1 Y228,0 +1 Y228,1 +1 Y228,2
  +1 Y228,3 +1 Y228,4 +1 Y228,5 +1 Y228,6 +1 Y231,0 +1 Y231,1 +1 Y231,2 +1 Y231,3 +1 Y231,4 +1 Y231,5
  +1 Y231,6 +1 Y233,0 +1 Y233,1 +1 Y233,2 +1 Y233,3 +1 Y233,4 +1 Y233,5 +1 Y233,6 +1 Y234,0 +1 Y234,1
  +1 Y234,2 +1 Y234,3 +1 Y234,4 +1 Y234,5 +1 Y234,6 +1 Y238,0 +1 Y238,1 +1 Y238,2 +1 Y238,3 +1 Y238,4
  +1 Y238,5 +1 Y238,6 +1 Y241,0 +1 Y241,1 +1 Y241,2 +1 Y241,3 +1 Y241,4 +1 Y241,5 +1 Y241,6 +1 Y243,0
  +1 Y243,1 +1 Y243,2 +1 Y243,3 +1 Y243,4 +1 Y243,5 +1 Y243,6 +1 Y244,0 +1 Y244,1 +1 Y244,2 +1 Y244,3
  +1 Y244,4 +1 Y244,5 +1 Y244,6 +1 Y247,0 +1 Y247,1 +1 Y247,2 +1 Y247,3 +1 Y247,4 +1 Y247,5 +1 Y247,6
  +1 Y249,0 +1 Y249,1 +1 Y249,2 +1 Y249,3 +1 Y249,4 +1 Y249,5 +1 Y249,6 +1 Y250,0 +1 Y250,1 +1 Y250,2
  +1 Y250,3 +1 Y250,4 +1 Y250,5 +1 Y250,6 +1 Y252,0 +1 Y252,1 +1 Y252,2 +1 Y252,3 +1 Y252,4 +1 Y252,5
  +1 Y252,6 +1 Y253,0 +1 Y253,1 +1 Y253,2 +1 Y253,3 +1 Y253,4 +1 Y253,5 +1 Y253,6 +1 Y254,0 +1 Y254,1
  +1 Y254,2 +1 Y254,3 +1 Y254,4 +1 Y254,5 +1 Y254,6 +1 Y259,0 +1 Y259,1 +1 Y259,2 +1 Y259,3 +1 Y259,4
  +1 Y259,5 +1 Y259,6 +1 Y264,0 +1 Y264,1 +1 Y264,2 +1 Y264,3 +1 Y264,4 +1 Y264,5 +1 Y264,6 +1 Y268,0
  +1 Y268,1 +1 Y268,2 +1 Y268,3 +1 Y268,4 +1 Y268,5 +1 Y268,6 +1 Y271,0 +1 Y271,1 +1 Y271,2 +1 Y271,3
  +1 Y271,4 +1 Y271,5 +1 Y271,6 +1 Y273,0 +1 Y273,1 +1 Y273,2 +1 Y273,3 +1 Y273,4 +1 Y273,5 +1 Y273,6
  +1 Y274,0 +1 Y274,1 +1 Y274,2 +1 Y274,3 +1 Y274,4 +1 Y274,5 +1 Y274,6 +1 Y279,0 +1 Y279,1 +1 Y279,2
  +1 Y279,3 +1 Y279,4 +1 Y279,5 +1 Y279,6 +1 Y283,0 +1 Y283,1 +1 Y283,2 +1 Y283,3 +1 Y283,4 +1 Y283,5
  +1 Y283,6 +1 Y286,0 +1 Y286,1 +1 Y286,2 +1 Y286,3 +1 Y286,4 +1 Y286,5 +1 Y286,6 +1 Y288,0 +1 Y288,1
  +1 Y288,2 +1 Y288,3 +1 Y288,4 +1 Y288,5 +1 Y288,6 +1 Y289,0 +1 Y289,1 +1 Y289,2 +1 Y289,3 +1 Y289,4
  +1 Y289,5 +1 Y289,6 +1 Y293,0 +1 Y293,1 +1 Y293,2 +1 Y293,3 +1 Y293,4 +1 Y293,5 +1 Y293,6 +1 Y296,0
  +1 Y296,1 +1 Y296,2 +1 Y296,3 +1 Y296,4 +1 Y296,5 +1 Y296,6 +1 Y298,0 +1 Y298,1 +1 Y298,2 +1 Y298,3
  +1 Y298,4 +1 Y298,5 +1 Y298,6 +1 Y299,0 +1 Y299,1 +1 Y299,2 +1 Y299,3 +1 Y299,4 +1 Y299,5 +1 Y299,6
  +1 Y302,0 +1 Y302,1 +1 Y302,2 +1 Y302,3 +1 Y302,4 +1 Y302,5 +1 Y302,6 +1 Y304,0 +1 Y304,1 +1 Y304,2
  +1 Y304,3 +1 Y304,4 +1 Y304,5 +1 Y304,6 +1 Y305,0 +1 Y305,1 +1 Y305,2 +1 Y305,3 +1 Y305,4 +1 Y305,5
  +1 Y305,6 +1 Y307,0 +1 Y307,1 +1 Y307,2 +1 Y307,3 +1 Y307,4 +1 Y307,5 +1 Y307,6 +1 Y308,0 +1 Y308,1
  +1 Y308,2 +1 Y308,3 +1 Y308,4 +1 Y308,5 +1 Y308,6 +1 Y309,0 +1 Y309,1 +1 Y309,2 +1 Y309,3 +1 Y309,4
  +1 Y309,5 +1 Y309,6 +1 Y313,0 +1 Y313,1 +1 Y313,2 +1 Y313,3 +1 Y313,4 +1 Y313,5 +1 Y313,6 +1 Y318,0
  +1 Y318,1 +1 Y318,2 +1 Y318,3 +1 Y318,4 +1 Y318,5 +1 Y318,6 +1 Y320,0 +1 Y320,1 +1 Y320,2 +1 Y320,3
  +1 Y320,4 +1 Y320,5 +1 Y320,6 +1 Y321,0 +1 Y321,1 +1 Y321,2 +1 Y321,3 +1 Y321,4 +1 Y321,5 +1 Y321,6
  +1 Y325,0 +1 Y325,1 +1 Y325,2 +1 Y325,3 +1 Y325,4 +1 Y325,5 +1 Y325,6 +1 Y328,0 +1 Y328,1 +1 Y328,2
  +1 Y328,3 +1 Y328,4 +1 Y328,5 +1 Y328,6 +1 Y330,0 +1 Y330,1 +1 Y330,2 +1 Y330,3 +1 Y330,4 +1 Y330,5
  +1 Y330,6 +1 Y331,0 +1 Y331,1 +1 Y331,2 +1 Y331,3 +1 Y331,4 +1 Y331,5 +1 Y331,6 +1 Y334,0 +1 Y334,1
  +1 Y334,2 +1 Y334,3 +1 Y334,4 +1 Y334,5 +1 Y334,6 +1 Y336,0 +1 Y336,1 +1 Y336,2 +1 Y336,3 +1 Y336,4
  +1 Y336,5 +1 Y336,6 +1 Y337,0 +1 Y337,1 +1 Y337,2 +1 Y337,3 +1 Y337,4 +1 Y337,5 +1 Y337,6 +1 Y339,0
  +1 Y339,1 +1 Y339,2 +1 Y339,3 +1 Y339,4 +1 Y339,5 +1 Y339,6 +1 Y340,0 +1 Y340,1 +1 Y340,2 +1 Y340,3
  +1 Y340,4 +1 Y340,5 +1 Y340,6 +1 Y341,0 +1 Y341,1 +1 Y341,2 +1 Y341,3 +1 Y341,4 +1 Y341,5 +1 Y341,6
  +1 Y345,0 +1 Y345,1 +1 Y345,2 +1 Y345,3 +1 Y345,4 +1 Y345,5 +1 Y345,6 +1 Y348,0 +1 Y348,1 +1 Y348,2
  +1 Y348,3 +1 Y348,4 +1 Y348,5 +1 Y348,6 +1 Y350,0 +1 Y350,1 +1 Y350,2 +1 Y350,3 +1 Y350,4 +1 Y350,5
  +1 Y350,6 +1 Y351,0 +1 Y351,1 +1 Y351,2 +1 Y351,3 +1 Y351,4 +1 Y351,5 +1 Y351,6 +1 Y354,0 +1 Y354,1
  +1 Y354,2 +1 Y354,3 +1 Y354,4 +1 Y354,5 +1 Y354,6 +1 Y356,0 +1 Y356,1 +1 Y356,2 +1 Y356,3 +1 Y356,4
  +1 Y356,5 +1 Y356,6 +1 Y357,0 +1 Y357,1 +1 Y357,2 +1 Y357,3 +1 Y357,4 +1 Y357,5 +1 Y357,6 +1 Y359,0
  +1 Y359,1 +1 Y359,2 +1 Y359,3 +1 Y359,4 +1 Y359,5 +1 Y359,6 +1 Y360,0 +1 Y360,1 +1 Y360,2 +1 Y360,3
  +1 Y360,4 +1 Y360,5 +1 Y360,6 +1 Y361,0 +1 Y361,1 +1 Y361,2 +1 Y361,3 +1 Y361,4 +1 Y361,5 +1 Y361,6
  +1 Y364,0 +1 Y364,1 +1 Y364,2 +1 Y364,3 +1 Y364,4 +1 Y364,5 +1 Y364,6 +1 Y366,0 +1 Y366,1 +1 Y366,2
  +1 Y366,3 +1 Y366,4 +1 Y366,5 +1 Y366,6 +1 Y367,0 +1 Y367,1 +1 Y367,2 +1 Y367,3 +1 Y367,4 +1 Y367,5
  +1 Y367,6 +1 Y369,0 +1 Y369,1 +1 Y369,2 +1 Y369,3 +1 Y369,4 +1 Y369,5 +1 Y369,6 +1 Y370,0 +1 Y370,1
  +1 Y370,2 +1 Y370,3 +1 Y370,4 +1 Y370,5 +1 Y370,6 +1 Y371,0 +1 Y371,1 +1 Y371,2 +1 Y371,3 +1 Y371,4
  +1 Y371,5 +1 Y371,6 +1 Y373,0 +1 Y373,1 +1 Y373,2 +1 Y373,3 +1 Y373,4 +1 Y373,5 +1 Y373,6 +1 Y374,0
  +1 Y374,1 +1 Y374,2 +1 Y374,3 +1 Y374,4 +1 Y374,5 +1 Y374,6 +1 Y375,0 +1 Y375,1 +1 Y375,2 +1 Y375,3
  +1 Y375,4 +1 Y375,5 +1 Y375,6 +1 Y376,0 +1 Y376,1 +1 Y376,2 +1 Y376,3 +1 Y376,4 +1 Y376,5 +1 Y376,6
  +1 Y378,0 +1 Y378,1 +1 Y378,2 +1 Y378,3 +1 Y378,4 +1 Y378,5 +1 Y378,6 +1 Y382,0 +1 Y382,1 +1 Y382,2
  +1 Y382,3 +1 Y382,4 +1 Y382,5 +1 Y382,6 +1 Y384,0 +1 Y384,1 +1 Y384,2 +1 Y384,3 +1 Y384,4 +1 Y384,5
  +1 Y384,6 +1 Y385,0 +1 Y385,1 +1 Y385,2 +1 Y385,3 +1 Y385,4 +1 Y385,5 +1 Y385,6 +1 Y388,0 +1 Y388,1
  +1 Y388,2 +1 Y388,3 +1 Y388,4 +1 Y388,5 +1 Y388,6 +1 Y389,0 +1 Y389,1 +1 Y389,2 +1 Y389,3 +1 Y389,4
  +1 Y389,5 +1 Y389,6 +1 Y390,0 +1 Y390,1 +1 Y390,2 +1 Y390,3 +1 Y390,4 +1 Y390,5 +1 Y390,6 +1 Y393,0
  +1 Y393,1 +1 Y393,2 +1 Y393,3 +1 Y393,4 +1 Y393,5 +1 Y393,6 +1 Y395,0 +1 Y395,1 +1 Y395,2 +1 Y395,3
  +1 Y395,4 +1 Y395,5 +1 Y395,6 +1 Y396,0 +1 Y396,1 +1 Y396,2 +1 Y396,3 +1 Y396,4 +1 Y396,5 +1 Y396,6
  +1 Y398,0 +1 Y398,1 +1 Y398,2 +1 Y398,3 +1 Y398,4 +1 Y398,5 +1 Y398,6 +1 Y399,0 +1 Y399,1 +1 Y399,2
  +1 Y399,3 +1 Y399,4 +1 Y399,5 +1 Y399,6 +1 Y400,0 +1 Y400,1 +1 Y400,2 +1 Y400,3 +1 Y400,4 +1 Y400,5
  +1 Y400,6 +1 Y403,0 +1 Y403,1 +1 Y403,2 +1 Y403,3 +1 Y403,4 +1 Y403,5 +1 Y403,6 +1 Y405,0 +1 Y405,1
  +1 Y405,2 +1 Y405,3 +1 Y405,4 +1 Y405,5 +1 Y405,6 +1 Y406,0 +1 Y406,1 +1 Y406,2 +1 Y406,3 +1 Y406,4
  +1 Y406,5 +1 Y406,6 +1 Y408,0 +1 Y408,1 +1 Y408,2 +1 Y408,3 +1 Y408,4 +1 Y408,5 +1 Y408,6 +1 Y409,0
  +1 Y409,1 +1 Y409,2 +1 Y409,3 +1 Y409,4 +1 Y409,5 +1 Y409,6 +1 Y410,0 +1 Y410,1 +1 Y410,2 +1 Y410,3
  +1 Y410,4 +1 Y410,5 +1 Y410,6 +1 Y413,0 +1 Y413,1 +1 Y413,2 +1 Y413,3 +1 Y413,4 +1 Y413,5 +1 Y413,6
  +1 Y415,0 +1 Y415,1 +1 Y415,2 +1 Y415,3 +1 Y415,4 +1 Y415,5 +1 Y415,6 +1 Y416,0 +1 Y416,1 +1 Y416,2
  +1 Y416,3 +1 Y416,4 +1 Y416,5 +1 Y416,6 +1 Y418,0 +1 Y418,1 +1 Y418,2 +1 Y418,3 +1 Y418,4 +1 Y418,5
  +1 Y418,6 +1 Y419,0 +1 Y419,1 +1 Y419,2 +1 Y419,3 +1 Y419,4 +1 Y419,5 +1 Y419,6 +1 Y420,0 +1 Y420,1
  +1 Y420,2 +1 Y420,3 +1 Y420,4 +1 Y420,5 +1 Y420,6 +1 Y422,0 +1 Y422,1 +1 Y422,2 +1 Y422,3 +1 Y422,4
  +1 Y422,5 +1 Y422,6 +1 Y423,0 +1 Y423,1 +1 Y423,2 +1 Y423,3 +1 Y423,4 +1 Y423,5 +1 Y423,6 +1 Y424,0
  +1 Y424,1 +1 Y424,2 +1 Y424,3 +1 Y424,4 +1 Y424,5 +1 Y424,6 +1 Y425,0 +1 Y425,1 +1 Y425,2 +1 Y425,3
  +1 Y425,4 +1 Y425,5 +1 Y425,6 +1 Y428,0 +1 Y428,1 +1 Y428,2 +1 Y428,3 +1 Y428,4 +1 Y428,5 +1 Y428,6
  +1 Y430,0 +1 Y430,1 +1 Y430,2 +1 Y430,3 +1 Y430,4 +1 Y430,5 +1 Y430,6 +1 Y431,0 +1 Y431,1 +1 Y431,2
  +1 Y431,3 +1 Y431,4 +1 Y431,5 +1 Y431,6 +1 Y433,0 +1 Y433,1 +1 Y433,2 +1 Y433,3 +1 Y433,4 +1 Y433,5
  +1 Y433,6 +1 Y434,0 +1 Y434,1 +1 Y434,2 +1 Y434,3 +1 Y434,4 +1 Y434,5 +1 Y434,6 +1 Y435,0 +1 Y435,1
  +1 Y435,2 +1 Y435,3 +1 Y435,4 +1 Y435,5 +1 Y435,6 +1 Y438,0 +1 Y438,1 +1 Y438,2 +1 Y438,3 +1 Y438,4
  +1 Y438,5 +1 Y438,6 +1 Y440,0 +1 Y440,1 +1 Y440,2 +1 Y440,3 +1 Y440,4 +1 Y440,5 +1 Y440,6 +1 Y441,0
  +1 Y441,1 +1 Y441,2 +1 Y441,3 +1 Y441,4 +1 Y441,5 +1 Y441,6 +1 Y443,0 +1 Y443,1 +1 Y443,2 +1 Y443,3
  +1 Y443,4 +1 Y443,5 +1 Y443,6 +1 Y444,0 +1 Y444,1 +1 Y444,2 +1 Y444,3 +1 Y444,4 +1 Y444,5 +1 Y444,6
  +1 Y445,0 +1 Y445,1 +1 Y445,2 +1 Y445,3 +1 Y445,4 +1 Y445,5 +1 Y445,6 +1 Y448,0 +1 Y448,1 +1 Y448,2
  +1 Y448,3 +1 Y448,4 +1 Y448,5 +1 Y448,6 +1 Y450,0 +1 Y450,1 +1 Y450,2 +1 Y450,3 +1 Y450,4 +1 Y450,5
  +1 Y450,6 +1 Y451,0 +1 Y451,1 +1 Y451,2 +1 Y451,3 +1 Y451,4 +1 Y451,5 +1 Y451,6 +1 Y453,0 +1 Y453,1
  +1 Y453,2 +1 Y453,3 +1 Y453,4 +1 Y453,5 +1 Y453,6 +1 Y454,0 +1 Y454,1 +1 Y454,2 +1 Y454,3 +1 Y454,4
  +1 Y454,5 +1 Y454,6 +1 Y455,0 +1 Y455,1 +1 Y455,2 +1 Y455,3 +1 Y455,4 +1 Y455,5 +1 Y455,6 +1 Y457,0
  +1 Y457,1 +1 Y457,2 +1 Y457,3 +1 Y457,4 +1 Y457,5 +1 Y457,6 +1 Y458,0 +1 Y458,1 +1 Y458,2 +1 Y458,3
  +1 Y458,4 +1 Y458,5 +1 Y458,6 +1 Y459,0 +1 Y459,1 +1 Y459,2 +1 Y459,3 +1 Y459,4 +1 Y459,5 +1 Y459,6
  +1 Y460,0 +1 Y460,1 +1 Y460,2 +1 Y460,3 +1 Y460,4 +1 Y460,5 +1 Y460,6 +1 Y463,0 +1 Y463,1 +1 Y463,2
  +1 Y463,3 +1 Y463,4 +1 Y463,5 +1 Y463,6 +1 Y465,0 +1 Y465,1 +1 Y465,2 +1 Y465,3 +1 Y465,4 +1 Y465,5
  +1 Y465,6 +1 Y466,0 +1 Y466,1 +1 Y466,2 +1 Y466,3 +1 Y466,4 +1 Y466,5 +1 Y466,6 +1 Y468,0 +1 Y468,1
  +1 Y468,2 +1 Y468,3 +1 Y468,4 +1 Y468,5 +1 Y468,6 +1 Y469,0 +1 Y469,1 +1 Y469,2 +1 Y469,3 +1 Y469,4
  +1 Y469,5 +1 Y469,6 +1 Y470,0 +1 Y470,1 +1 Y470,2 +1 Y470,3 +1 Y470,4 +1 Y470,5 +1 Y470,6 +1 Y473,0
  +1 Y473,1 +1 Y473,2 +1 Y473,3 +1 Y473,4 +1 Y473,5 +1 Y473,6 +1 Y475,0 +1 Y475,1 +1 Y475,2 +1 Y475,3
  +1 Y475,4 +1 Y475,5 +1 Y475,6 +1 Y476,0 +1 Y476,1 +1 Y476,2 +1 Y476,3 +1 Y476,4 +1 Y476,5 +1 Y476,6
  +1 Y478,0 +1 Y478,1 +1 Y478,2 +1 Y478,3 +1 Y478,4 +1 Y478,5 +1 Y478,6 +1 Y479,0 +1 Y479,1 +1 Y479,2
  +1 Y479,3 +1 Y479,4 +1 Y479,5 +1 Y479,6 +1 Y480,0 +1 Y480,1 +1 Y480,2 +1 Y480,3 +1 Y480,4 +1 Y480,5
  +1 Y480,6 +1 Y482,0 +1 Y482,1 +1 Y482,2 +1 Y482,3 +1 Y482,4 +1 Y482,5 +1 Y482,6 +1 Y483,0 +1 Y483,1
  +1 Y483,2 +1 Y483,3 +1 Y483,4 +1 Y483,5 +1 Y483,6 +1 Y484,0 +1 Y484,1 +1 Y484,2 +1 Y484,3 +1 Y484,4
  +1 Y484,5 +1 Y484,6 +1 Y485,0 +1 Y485,1 +1 Y485,2 +1 Y485,3 +1 Y485,4 +1 Y485,5 +1 Y485,6 +1 Y488,0
  +1 Y488,1 +1 Y488,2 +1 Y488,3 +1 Y488,4 +1 Y488,5 +1 Y488,6 +1 Y490,0 +1 Y490,1 +1 Y490,2 +1 Y490,3
  +1 Y490,4 +1 Y490,5 +1 Y490,6 +1 Y491,0 +1 Y491,1 +1 Y491,2 +1 Y491,3 +1 Y491,4 +1 Y491,5 +1 Y491,6
  +1 Y493,0 +1 Y493,1 +1 Y493,2 +1 Y493,3 +1 Y493,4 +1 Y493,5 +1 Y493,6 +1 Y494,0 +1 Y494,1 +1 Y494,2
  +1 Y494,3 +1 Y494,4 +1 Y494,5 +1 Y494,6 +1 Y495,0 +1 Y495,1 +1 Y495,2 +1 Y495,3 +1 Y495,4 +1 Y495,5
  +1 Y495,6 +1 Y497,0 +1 Y497,1 +1 Y497,2 +1 Y497,3 +1 Y497,4 +1 Y497,5 +1 Y497,6 +1 Y498,0 +1 Y498,1
  +1 Y498,2 +1 Y498,3 +1 Y498,4 +1 Y498,5 +1 Y498,6 +1 Y499,0 +1 Y499,1 +1 Y499,2 +1 Y499,3 +1 Y499,4
  +1 Y499,5 +1 Y499,6 +1 Y500,0 +1 Y500,1 +1 Y500,2 +1 Y500,3 +1 Y500,4 +1 Y500,5 +1 Y500,6 +1 Y502,0
  +1 Y502,1 +1 Y502,2 +1 Y502,3 +1 Y502,4 +1 Y502,5 +1 Y502,6 +1 Y503,0 +1 Y503,1 +1 Y503,2 +1 Y503,3
  +1 Y503,4 +1 Y503,5 +1 Y503,6 +1 Y504,0 +1 Y504,1 +1 Y504,2 +1 Y504,3 +1 Y504,4 +1 Y504,5 +1 Y504,6
  +1 Y505,0 +1 Y505,1 +1 Y505,2 +1 Y505,3 +1 Y505,4 +1 Y505,5 +1 Y505,6 +1 Y506,0 +1 Y506,1 +1 Y506,2
  +1 Y506,3 +1 Y506,4 +1 Y506,5 +1 Y506,6 +1 Y508,0 +1 Y508,1 +1 Y508,2 +1 Y508,3 +1 Y508,4 +1 Y508,5
  +1 Y508,6 +1 Y509,0 +1 Y509,1 +1 Y509,2 +1 Y509,3 +1 Y509,4 +1 Y509,5 +1 Y509,6 +1 Y510,0 +1 Y510,1
  +1 Y510,2 +1 Y510,3 +1 Y510,4 +1 Y510,5 +1 Y510,6 +1 Y511,0 +1 Y511,1 +1 Y511,2 +1 Y511,3 +1 Y511,4
  +1 Y511,5 +1 Y511,6 +1 Y513,0 +1 Y513,1 +1 Y513,2 +1 Y513,3 +1 Y513,4 +1 Y513,5 +1 Y513,6 +1 Y514,0
  +1 Y514,1 +1 Y514,2 +1 Y514,3 +1 Y514,4 +1 Y514,5 +1 Y514,6 +1 Y515,0 +1 Y515,1 +1 Y515,2 +1 Y515,3
  +1 Y515,4 +1 Y515,5 +1 Y515,6 +1 Y517,0 +1 Y517,1 +1 Y517,2 +1 Y517,3 +1 Y517,4 +1 Y517,5 +1 Y517,6
  +1 Y518,0 +1 Y518,1 +1 Y518,2 +1 Y518,3 +1 Y518,4 +1 Y518,5 +1 Y518,6 +1 Y520,0 +1 Y520,1 +1 Y520,2
  +1 Y520,3 +1 Y520,4 +1 Y520,5 +1 Y520,6 +1 Y521,0 +1 Y521,1 +1 Y521,2 +1 Y521,3 +1 Y521,4 +1 Y521,5
  +1 Y521,6 +1 Y522,0 +1 Y522,1 +1 Y522,2 +1 Y522,3 +1 Y522,4 +1 Y522,5 +1 Y522,6 +1 Y523,0 +1 Y523,1
  +1 Y523,2 +1 Y523,3 +1 Y523,4 +1 Y523,5 +1 Y523,6 +1 Y525,0 +1 Y525,1 +1 Y525,2 +1 Y525,3 +1 Y525,4
  +1 Y525,5 +1 Y525,6 +1 Y526,0 +1 Y526,1 +1 Y526,2 +1 Y526,3 +1 Y526,4 +1 Y526,5 +1 Y526,6 +1 Y527,0
  +1 Y527,1 +1 Y527,2 +1 Y527,3 +1 Y527,4 +1 Y527,5 +1 Y527,6 +1 Y529,0 +1 Y529,1 +1 Y529,2 +1 Y529,3
  +1 Y529,4 +1 Y529,5 +1 Y529,6 +1 Y530,0 +1 Y530,1 +1 Y530,2 +1 Y530,3 +1 Y530,4 +1 Y530,5 +1 Y530,6
  +1 Y532,0 +1 Y532,1 +1 Y532,2 +1 Y532,3 +1 Y532,4 +1 Y532,5 +1 Y532,6 +1 Y533,0 +1 Y533,1 +1 Y533,2
  +1 Y533,3 +1 Y533,4 +1 Y533,5 +1 Y533,6 +1 Y534,0 +1 Y534,1 +1 Y534,2 +1 Y534,3 +1 Y534,4 +1 Y534,5
  +1 Y534,6 +1 Y535,0 +1 Y535,1 +1 Y535,2 +1 Y535,3 +1 Y535,4 +1 Y535,5 +1 Y535,6 +1 Y536,0 +1 Y536,1
  +1 Y536,2 +1 Y536,3 +1 Y536,4 +1 Y536,5 +1 Y536,6 +1 Y537,0 +1 Y537,1 +1 Y537,2 +1 Y537,3 +1 Y537,4
  +1 Y537,5 +1 Y537,6 +1 Y538,0 +1 Y538,1 +1 Y538,2 +1 Y538,3 +1 Y538,4 +1 Y538,5 +1 Y538,6 +1 Y539,0
  +1 Y539,1 +1 Y539,2 +1 Y539,3 +1 Y539,4 +1 Y539,5 +1 Y539,6 +1 Y540,0 +1 Y540,1 +1 Y540,2 +1 Y540,3
  +1 Y540,4 +1 Y540,5 +1 Y540,6 = +1
 c36: +1 Y887,0 +1 Y887,1 +1 Y887,2 +1 Y887,3 +1 Y887,4 +1 Y887,5 +1 Y887,6 +1 Y888,0 +1 Y888,1 +1 Y888,2
  +1 Y888,3 +1 Y888,4 +1 Y888,5 +1 Y888,6 = +1
 c37: +1 Y729,0 +1 Y729,1 +1 Y729,2 +1 Y729,3 +1 Y729,4 +1 Y729,5 +1 Y729,6 +1 Y733,0 +1 Y733,1 +1 Y733,2
  +1 Y733,3 +1 Y733,4 +1 Y733,5 +1 Y733,6 +1 Y736,0 +1 Y736,1 +1 Y736,2 +1 Y736,3 +1 Y736,4 +1 Y736,5
  +1 Y736,6 +1 Y739,0 +1 Y739,1 +1 Y739,2 +1 Y739,3 +1 Y739,4 +1 Y739,5 +1 Y739,6 +1 Y740,0 +1 Y740,1
  +1 Y740,2 +1 Y740,3 +1 Y740,4 +1 Y740,5 +1 Y740,6 +1 Y742,0 +1 Y742,1 +1 Y742,2 +1 Y742,3 +1 Y742,4
  +1 Y742,5 +1 Y742,6 +1 Y745,0 +1 Y745,1 +1 Y745,2 +1 Y745,3 +1 Y745,4 +1 Y745,5 +1 Y745,6 +1 Y746,0
  +1 Y746,1 +1 Y746,2 +1 Y746,3 +1 Y746,4 +1 Y746,5 +1 Y746,6 +1 Y748,0 +1 Y748,1 +1 Y748,2 +1 Y748,3
  +1 Y748,4 +1 Y748,5 +1 Y748,6 +1 Y749,0 +1 Y749,1 +1 Y749,2 +1 Y749,3 +1 Y749,4 +1 Y749,5 +1 Y749,6
  +1 Y751,0 +1 Y751,1 +1 Y751,2 +1 Y751,3 +1 Y751,4 +1 Y751,5 +1 Y751,6 +1 Y752,0 +1 Y752,1 +1 Y752,2
  +1 Y752,3 +1 Y752,4 +1 Y752,5 +1 Y752,6 +1 Y753,0 +1 Y753,1 +1 Y753,2 +1 Y753,3 +1 Y753,4 +1 Y753,5
  +1 Y753,6 +1 Y755,0 +1 Y755,1 +1 Y755,2 +1 Y755,3 +1 Y755,4 +1 Y755,5 +1 Y755,6 +1 Y756,0 +1 Y756,1
  +1 Y756,2 +1 Y756,3 +1 Y756,4 +1 Y756,5 +1 Y756,6 +1 Y757,0 +1 Y757,1 +1 Y757,2 +1 Y757,3 +1 Y757,4
  +1 Y757,5 +1 Y757,6 = +1
 c38: +1 Y760,0 +1 Y760,1 +1 Y760,2 +1 Y760,3 +1 Y760,4 +1 Y760,5 +1 Y760,6 +1 Y766,0 +1 Y766,1 +1 Y766,2
  +1 Y766,3 +1 Y766,4 +1 Y766,5 +1 Y766,6 +1 Y771,0 +1 Y771,1 +1 Y771,2 +1 Y771,3 +1 Y771,4 +1 Y771,5
  +1 Y771,6 +1 Y776,0 +1 Y776,1 +1 Y776,2 +1 Y776,3 +1 Y776,4 +1 Y776,5 +1 Y776,6 +1 Y777,0 +1 Y777,1
  +1 Y777,2 +1 Y777,3 +1 Y777,4 +1 Y777,5 +1 Y777,6 +1 Y778,0 +1 Y778,1 +1 Y778,2 +1 Y778,3 +1 Y778,4
  +1 Y778,5 +1 Y778,6 +1 Y779,0 +1 Y779,1 +1 Y779,2 +1 Y779,3 +1 Y779,4 +1 Y779,5 +1 Y779,6 +1 Y786,0
  +1 Y786,1 +1 Y786,2 +1 Y786,3 +1 Y786,4 +1 Y786,5 +1 Y786,6 +1 Y791,0 +1 Y791,1 +1 Y791,2 +1 Y791,3
  +1 Y791,4 +1 Y791,5 +1 Y791,6 +1 Y792,0 +1 Y792,1 +1 Y792,2 +1 Y792,3 +1 Y792,4 +1 Y792,5 +1 Y792,6
  +1 Y793,0 +1 Y793,1 +1 Y793,2 +1 Y793,3 +1 Y793,4 +1 Y793,5 +1 Y793,6 +1 Y794,0 +1 Y794,1 +1 Y794,2
  +1 Y794,3 +1 Y794,4 +1 Y794,5 +1 Y794,6 +1 Y801,0 +1 Y801,1 +1 Y801,2 +1 Y801,3 +1 Y801,4 +1 Y801,5
  +1 Y801,6 +1 Y802,0 +1 Y802,1 +1 Y802,2 +1 Y802,3 +1 Y802,4 +1 Y802,5 +1 Y802,6 +1 Y803,0 +1 Y803,1
  +1 Y803,2 +1 Y803,3 +1 Y803,4 +1 Y803,5 +1 Y803,6 +1 Y804,0 +1 Y804,1 +1 Y804,2 +1 Y804,3 +1 Y804,4
  +1 Y804,5 +1 Y804,6 +1 Y811,0 +1 Y811,1 +1 Y811,2 +1 Y811,3 +1 Y811,4 +1 Y811,5 +1 Y811,6 +1 Y812,0
  +1 Y812,1 +1 Y812,2 +1 Y812,3 +1 Y812,4 +1 Y812,5 +1 Y812,6 +1 Y813,0 +1 Y813,1 +1 Y813,2 +1 Y813,3
  +1 Y813,4 +1 Y813,5 +1 Y813,6 +1 Y814,0 +1 Y814,1 +1 Y814,2 +1 Y814,3 +1 Y814,4 +1 Y814,5 +1 Y814,6
  +1 Y815,0 +1 Y815,1 +1 Y815,2 +1 Y815,3 +1 Y815,4 +1 Y815,5 +1 Y815,6 +1 Y816,0 +1 Y816,1 +1 Y816,2
  +1 Y816,3 +1 Y816,4 +1 Y816,5 +1 Y816,6 +1 Y821,0 +1 Y821,1 +1 Y821,2 +1 Y821,3 +1 Y821,4 +1 Y821,5
  +1 Y821,6 +1 Y822,0 +1 Y822,1 +1 Y822,2 +1 Y822,3 +1 Y822,4 +1 Y822,5 +1 Y822,6 +1 Y823,0 +1 Y823,1
  +1 Y823,2 +1 Y823,3 +1 Y823,4 +1 Y823,5 +1 Y823,6 +1 Y824,0 +1 Y824,1 +1 Y824,2 +1 Y824,3 +1 Y824,4
  +1 Y824,5 +1 Y824,6 +1 Y831,0 +1 Y831,1 +1 Y831,2 +1 Y831,3 +1 Y831,4 +1 Y831,5 +1 Y831,6 +1 Y832,0
  +1 Y832,1 +1 Y832,2 +1 Y832,3 +1 Y832,4 +1 Y832,5 +1 Y832,6 +1 Y833,0 +1 Y833,1 +1 Y833,2 +1 Y833,3
  +1 Y833,4 +1 Y833,5 +1 Y833,6 +1 Y834,0 +1 Y834,1 +1 Y834,2 +1 Y834,3 +1 Y834,4 +1 Y834,5 +1 Y834,6
  +1 Y835,0 +1 Y835,1 +1 Y835,2 +1 Y835,3 +1 Y835,4 +1 Y835,5 +1 Y835,6 +1 Y836,0 +1 Y836,1 +1 Y836,2
  +1 Y836,3 +1 Y836,4 +1 Y836,5 +1 Y836,6 +1 Y841,0 +1 Y841,1 +1 Y841,2 +1 Y841,3 +1 Y841,4 +1 Y841,5
  +1 Y841,6 +1 Y842,0 +1 Y842,1 +1 Y842,2 +1 Y842,3 +1 Y842,4 +1 Y842,5 +1 Y842,6 +1 Y843,0 +1 Y843,1
  +1 Y843,2 +1 Y843,3 +1 Y843,4 +1 Y843,5 +1 Y843,6 +1 Y844,0 +1 Y844,1 +1 Y844,2 +1 Y844,3 +1 Y844,4
  +1 Y844,5 +1 Y844,6 +1 Y845,0 +1 Y845,1 +1 Y845,2 +1 Y845,3 +1 Y845,4 +1 Y845,5 +1 Y845,6 +1 Y846,0
  +1 Y846,1 +1 Y846,2 +1 Y846,3 +1 Y846,4 +1 Y846,5 +1 Y846,6 +1 Y851,0 +1 Y851,1 +1 Y851,2 +1 Y851,3
  +1 Y851,4 +1 Y851,5 +1 Y851,6 +1 Y852,0 +1 Y852,1 +1 Y852,2 +1 Y852,3 +1 Y852,4 +1 Y852,5 +1 Y852,6
  +1 Y853,0 +1 Y853,1 +1 Y853,2 +1 Y853,3 +1 Y853,4 +1 Y853,5 +1 Y853,6 +1 Y854,0 +1 Y854,1 +1 Y854,2
  +1 Y854,3 +1 Y854,4 +1 Y854,5 +1 Y854,6 +1 Y856,0 +1 Y856,1 +1 Y856,2 +1 Y856,3 +1 Y856,4 +1 Y856,5
  +1 Y856,6 +1 Y857,0 +1 Y857,1 +1 Y857,2 +1 Y857,3 +1 Y857,4 +1 Y857,5 +1 Y857,6 +1 Y858,0 +1 Y858,1
  +1 Y858,2 +1 Y858,3 +1 Y858,4 +1 Y858,5 +1 Y858,6 +1 Y859,0 +1 Y859,1 +1 Y859,2 +1 Y859,3 +1 Y859,4
  +1 Y859,5 +1 Y859,6 +1 Y860,0 +1 Y860,1 +1 Y860,2 +1 Y860,3 +1 Y860,4 +1 Y860,5 +1 Y860,6 +1 Y861,0
  +1 Y861,1 +1 Y861,2 +1 Y861,3 +1 Y861,4 +1 Y861,5 +1 Y861,6 +1 Y866,0 +1 Y866,1 +1 Y866,2 +1 Y866,3
  +1 Y866,4 +1 Y866,5 +1 Y866,6 +1 Y867,0 +1 Y867,1 +1 Y867,2 +1 Y867,3 +1 Y867,4 +1 Y867,5 +1 Y867,6
  +1 Y868,0 +1 Y868,1 +1 Y868,2 +1 Y868,3 +1 Y868,4 +1 Y868,5 +1 Y868,6 +1 Y869,0 +1 Y869,1 +1 Y869,2
  +1 Y869,3 +1 Y869,4 +1 Y869,5 +1 Y869,6 +1 Y871,0 +1 Y871,1 +1 Y871,2 +1 Y871,3 +1 Y871,4 +1 Y871,5
  +1 Y871,6 +1 Y872,0 +1 Y872,1 +1 Y872,2 +1 Y872,3 +1 Y872,4 +1 Y872,5 +1 Y872,6 +1 Y873,0 +1 Y873,1
  +1 Y873,2 +1 Y873,3 +1 Y873,4 +1 Y873,5 +1 Y873,6 +1 Y874,0 +1 Y874,1 +1 Y874,2 +1 Y874,3 +1 Y874,4
  +1 Y874,5 +1 Y874,6 +1 Y876,0 +1 Y876,1 +1 Y876,2 +1 Y876,3 +1 Y876,4 +1 Y876,5 +1 Y876,6 +1 Y877,0
  +1 Y877,1 +1 Y877,2 +1 Y877,3 +1 Y877,4 +1 Y877,5 +1 Y877,6 +1 Y878,0 +1 Y878,1 +1 Y878,2 +1 Y878,3
  +1 Y878,4 +1 Y878,5 +1 Y878,6 = +1
 c39: +1 Y583,0 +1 Y583,1 +1 Y583,2 +1 Y583,3 +1 Y583,4 +1 Y583,5 +1 Y583,6 +1 Y589,0 +1 Y589,1 +1 Y589,2
  +1 Y589,3 +1 Y589,4 +1 Y589,5 +1 Y589,6 +1 Y594,0 +1 Y594,1 +1 Y594,2 +1 Y594,3 +1 Y594,4 +1 Y594,5
  +1 Y594,6 +1 Y598,0 +1 Y598,1 +1 Y598,2 +1 Y598,3 +1 Y598,4 +1 Y598,5 +1 Y598,6 +1 Y601,0 +1 Y601,1
  +1 Y601,2 +1 Y601,3 +1 Y601,4 +1 Y601,5 +1 Y601,6 +1 Y604,0 +1 Y604,1 +1 Y604,2 +1 Y604,3 +1 Y604,4
  +1 Y604,5 +1 Y604,6 +1 Y605,0 +1 Y605,1 +1 Y605,2 +1 Y605,3 +1 Y605,4 +1 Y605,5 +1 Y605,6 +1 Y609,0
  +1 Y609,1 +1 Y609,2 +1 Y609,3 +1 Y609,4 +1 Y609,5 +1 Y609,6 +1 Y613,0 +1 Y613,1 +1 Y613,2 +1 Y613,3
  +1 Y613,4 +1 Y613,5 +1 Y613,6 +1 Y616,0 +1 Y616,1 +1 Y616,2 +1 Y616,3 +1 Y616,4 +1 Y616,5 +1 Y616,6
  +1 Y619,0 +1 Y619,1 +1 Y619,2 +1 Y619,3 +1 Y619,4 +1 Y619,5 +1 Y619,6 +1 Y620,0 +1 Y620,1 +1 Y620,2
  +1 Y620,3 +1 Y620,4 +1 Y620,5 +1 Y620,6 +1 Y623,0 +1 Y623,1 +1 Y623,2 +1 Y623,3 +1 Y623,4 +1 Y623,5
  +1 Y623,6 +1 Y626,0 +1 Y626,1 +1 Y626,2 +1 Y626,3 +1 Y626,4 +1 Y626,5 +1 Y626,6 +1 Y629,0 +1 Y629,1
  +1 Y629,2 +1 Y629,3 +1 Y629,4 +1 Y629,5 +1 Y629,6 +1 Y630,0 +1 Y630,1 +1 Y630,2 +1 Y630,3 +1 Y630,4
  +1 Y630,5 +1 Y630,6 +1 Y632,0 +1 Y632,1 +1 Y632,2 +1 Y632,3 +1 Y632,4 +1 Y632,5 +1 Y632,6 +1 Y635,0
  +1 Y635,1 +1 Y635,2 +1 Y635,3 +1 Y635,4 +1 Y635,5 +1 Y635,6 +1 Y636,0 +1 Y636,1 +1 Y636,2 +1 Y636,3
  +1 Y636,4 +1 Y636,5 +1 Y636,6 +1 Y638,0 +1 Y638,1 +1 Y638,2 +1 Y638,3 +1 Y638,4 +1 Y638,5 +1 Y638,6
  +1 Y639,0 +1 Y639,1 +1 Y639,2 +1 Y639,3 +1 Y639,4 +1 Y639,5 +1 Y639,6 +1 Y641,0 +1 Y641,1 +1 Y641,2
  +1 Y641,3 +1 Y641,4 +1 Y641,5 +1 Y641,6 +1 Y643,0 +1 Y643,1 +1 Y643,2 +1 Y643,3 +1 Y643,4 +1 Y643,5
  +1 Y643,6 +1 Y646,0 +1 Y646,1 +1 Y646,2 +1 Y646,3 +1 Y646,4 +1 Y646,5 +1 Y646,6 +1 Y649,0 +1 Y649,1
  +1 Y649,2 +1 Y649,3 +1 Y649,4 +1 Y649,5 +1 Y649,6 +1 Y650,0 +1 Y650,1 +1 Y650,2 +1 Y650,3 +1 Y650,4
  +1 Y650,5 +1 Y650,6 +1 Y652,0 +1 Y652,1 +1 Y652,2 +1 Y652,3 +1 Y652,4 +1 Y652,5 +1 Y652,6 +1 Y655,0
  +1 Y655,1 +1 Y655,2 +1 Y655,3 +1 Y655,4 +1 Y655,5 +1 Y655,6 +1 Y656,0 +1 Y656,1 +1 Y656,2 +1 Y656,3
  +1 Y656,4 +1 Y656,5 +1 Y656,6 +1 Y658,0 +1 Y658,1 +1 Y658,2 +1 Y658,3 +1 Y658,4 +1 Y658,5 +1 Y658,6
  +1 Y659,0 +1 Y659,1 +1 Y659,2 +1 Y659,3 +1 Y659,4 +1 Y659,5 +1 Y659,6 +1 Y661,0 +1 Y661,1 +1 Y661,2
  +1 Y661,3 +1 Y661,4 +1 Y661,5 +1 Y661,6 +1 Y662,0 +1 Y662,1 +1 Y662,2 +1 Y662,3 +1 Y662,4 +1 Y662,5
  +1 Y662,6 +1 Y665,0 +1 Y665,1 +1 Y665,2 +1 Y665,3 +1 Y665,4 +1 Y665,5 +1 Y665,6 +1 Y666,0 +1 Y666,1
  +1 Y666,2 +1 Y666,3 +1 Y666,4 +1 Y666,5 +1 Y666,6 +1 Y668,0 +1 Y668,1 +1 Y668,2 +1 Y668,3 +1 Y668,4
  +1 Y668,5 +1 Y668,6 +1 Y669,0 +1 Y669,1 +1 Y669,2 +1 Y669,3 +1 Y669,4 +1 Y669,5 +1 Y669,6 +1 Y671,0
  +1 Y671,1 +1 Y671,2 +1 Y671,3 +1 Y671,4 +1 Y671,5 +1 Y671,6 +1 Y672,0 +1 Y672,1 +1 Y672,2 +1 Y672,3
  +1 Y672,4 +1 Y672,5 +1 Y672,6 +1 Y673,0 +1 Y673,1 +1 Y673,2 +1 Y673,3 +1 Y673,4 +1 Y673,5 +1 Y673,6
  +1 Y675,0 +1 Y675,1 +1 Y675,2 +1 Y675,3 +1 Y675,4 +1 Y675,5 +1 Y675,6 +1 Y676,0 +1 Y676,1 +1 Y676,2
  +1 Y676,3 +1 Y676,4 +1 Y676,5 +1 Y676,6 +1 Y677,0 +1 Y677,1 +1 Y677,2 +1 Y677,3 +1 Y677,4 +1 Y677,5
  +1 Y677,6 +1 Y680,0 +1 Y680,1 +1 Y680,2 +1 Y680,3 +1 Y680,4 +1 Y680,5 +1 Y680,6 +1 Y681,0 +1 Y681,1
  +1 Y681,2 +1 Y681,3 +1 Y681,4 +1 Y681,5 +1 Y681,6 +1 Y683,0 +1 Y683,1 +1 Y683,2 +1 Y683,3 +1 Y683,4
  +1 Y683,5 +1 Y683,6 +1 Y684,0 +1 Y684,1 +1 Y684,2 +1 Y684,3 +1 Y684,4 +1 Y684,5 +1 Y684,6 +1 Y686,0
  +1 Y686,1 +1 Y686,2 +1 Y686,3 +1 Y686,4 +1 Y686,5 +1 Y686,6 +1 Y687,0 +1 Y687,1 +1 Y687,2 +1 Y687,3
  +1 Y687,4 +1 Y687,5 +1 Y687,6 +1 Y689,0 +1 Y689,1 +1 Y689,2 +1 Y689,3 +1 Y689,4 +1 Y689,5 +1 Y689,6
  +1 Y690,0 +1 Y690,1 +1 Y690,2 +1 Y690,3 +1 Y690,4 +1 Y690,5 +1 Y690,6 +1 Y691,0 +1 Y691,1 +1 Y691,2
  +1 Y691,3 +1 Y691,4 +1 Y691,5 +1 Y691,6 +1 Y693,0 +1 Y693,1 +1 Y693,2 +1 Y693,3 +1 Y693,4 +1 Y693,5
  +1 Y693,6 +1 Y694,0 +1 Y694,1 +1 Y694,2 +1 Y694,3 +1 Y694,4 +1 Y694,5 +1 Y694,6 +1 Y695,0 +1 Y695,1
  +1 Y695,2 +1 Y695,3 +1 Y695,4 +1 Y695,5 +1 Y695,6 +1 Y696,0 +1 Y696,1 +1 Y696,2 +1 Y696,3 +1 Y696,4
  +1 Y696,5 +1 Y696,6 = +1
 c40: +1 Y584,0 +1 Y584,1 +1 Y584,2 +1 Y584,3 +1 Y584,4 +1 Y584,5 +1 Y584,6 +1 Y590,0 +1 Y590,1 +1 Y590,2
  +1 Y590,3 +1 Y590,4 +1 Y590,5 +1 Y590,6 +1 Y595,0 +1 Y595,1 +1 Y595,2 +1 Y595,3 +1 Y595,4 +1 Y595,5
  +1 Y595,6 +1 Y599,0 +1 Y599,1 +1 Y599,2 +1 Y599,3 +1 Y599,4 +1 Y599,5 +1 Y599,6 +1 Y602,0 +1 Y602,1
  +1 Y602,2 +1 Y602,3 +1 Y602,4 +1 Y602,5 +1 Y602,6 +1 Y604,0 +1 Y604,1 +1 Y604,2 +1 Y604,3 +1 Y604,4
  +1 Y604,5 +1 Y604,6 +1 Y606,0 +1 Y606,1 +1 Y606,2 +1 Y606,3 +1 Y606,4 +1 Y606,5 +1 Y606,6 +1 Y610,0
  +1 Y610,1 +1 Y610,2 +1 Y610,3 +1 Y610,4 +1 Y610,5 +1 Y610,6 +1 Y614,0 +1 Y614,1 +1 Y614,2 +1 Y614,3
  +1 Y614,4 +1 Y614,5 +1 Y614,6 +1 Y617,0 +1 Y617,1 +1 Y617,2 +1 Y617,3 +1 Y617,4 +1 Y617,5 +1 Y617,6
  +1 Y619,0 +1 Y619,1 +1 Y619,2 +1 Y619,3 +1 Y619,4 +1 Y619,5 +1 Y619,6 +1 Y621,0 +1 Y621,1 +1 Y621,2
  +1 Y621,3 +1 Y621,4 +1 Y621,5 +1 Y621,6 +1 Y624,0 +1 Y624,1 +1 Y624,2 +1 Y624,3 +1 Y624,4 +1 Y624,5
  +1 Y624,6 +1 Y627,0 +1 Y627,1 +1 Y627,2 +1 Y627,3 +1 Y627,4 +1 Y627,5 +1 Y627,6 +1 Y629,0 +1 Y629,1
  +1 Y629,2 +1 Y629,3 +1 Y629,4 +1 Y629,5 +1 Y629,6 +1 Y631,0 +1 Y631,1 +1 Y631,2 +1 Y631,3 +1 Y631,4
  +1 Y631,5 +1 Y631,6 +1 Y633,0 +1 Y633,1 +1 Y633,2 +1 Y633,3 +1 Y633,4 +1 Y633,5 +1 Y633,6 +1 Y635,0
  +1 Y635,1 +1 Y635,2 +1 Y635,3 +1 Y635,4 +1 Y635,5 +1 Y635,6 +1 Y637,0 +1 Y637,1 +1 Y637,2 +1 Y637,3
  +1 Y637,4 +1 Y637,5 +1 Y637,6 +1 Y638,0 +1 Y638,1 +1 Y638,2 +1 Y638,3 +1 Y638,4 +1 Y638,5 +1 Y638,6
  +1 Y640,0 +1 Y640,1 +1 Y640,2 +1 Y640,3 +1 Y640,4 +1 Y640,5 +1 Y640,6 +1 Y641,0 +1 Y641,1 +1 Y641,2
  +1 Y641,3 +1 Y641,4 +1 Y641,5 +1 Y641,6 +1 Y644,0 +1 Y644,1 +1 Y644,2 +1 Y644,3 +1 Y644,4 +1 Y644,5
  +1 Y644,6 +1 Y647,0 +1 Y647,1 +1 Y647,2 +1 Y647,3 +1 Y647,4 +1 Y647,5 +1 Y647,6 +1 Y649,0 +1 Y649,1
  +1 Y649,2 +1 Y649,3 +1 Y649,4 +1 Y649,5 +1 Y649,6 +1 Y651,0 +1 Y651,1 +1 Y651,2 +1 Y651,3 +1 Y651,4
  +1 Y651,5 +1 Y651,6 +1 Y653,0 +1 Y653,1 +1 Y653,2 +1 Y653,3 +1 Y653,4 +1 Y653,5 +1 Y653,6 +1 Y655,0
  +1 Y655,1 +1 Y655,2 +1 Y655,3 +1 Y655,4 +1 Y655,5 +1 Y655,6 +1 Y657,0 +1 Y657,1 +1 Y657,2 +1 Y657,3
  +1 Y657,4 +1 Y657,5 +1 Y657,6 +1 Y658,0 +1 Y658,1 +1 Y658,2 +1 Y658,3 +1 Y658,4 +1 Y658,5 +1 Y658,6
  +1 Y660,0 +1 Y660,1 +1 Y660,2 +1 Y660,3 +1 Y660,4 +1 Y660,5 +1 Y660,6 +1 Y661,0 +1 Y661,1 +1 Y661,2
  +1 Y661,3 +1 Y661,4 +1 Y661,5 +1 Y661,6 +1 Y663,0 +1 Y663,1 +1 Y663,2 +1 Y663,3 +1 Y663,4 +1 Y663,5
  +1 Y663,6 +1 Y665,0 +1 Y665,1 +1 Y665,2 +1 Y665,3 +1 Y665,4 +1 Y665,5 +1 Y665,6 +1 Y667,0 +1 Y667,1
  +1 Y667,2 +1 Y667,3 +1 Y667,4 +1 Y667,5 +1 Y667,6 +1 Y668,0 +1 Y668,1 +1 Y668,2 +1 Y668,3 +1 Y668,4
  +1 Y668,5 +1 Y668,6 +1 Y670,0 +1 Y670,1 +1 Y670,2 +1 Y670,3 +1 Y670,4 +1 Y670,5 +1 Y670,6 +1 Y671,0
  +1 Y671,1 +1 Y671,2 +1 Y671,3 +1 Y671,4 +1 Y671,5 +1 Y671,6 +1 Y672,0 +1 Y672,1 +1 Y672,2 +1 Y672,3
  +1 Y672,4 +1 Y672,5 +1 Y672,6 +1 Y674,0 +1 Y674,1 +1 Y674,2 +1 Y674,3 +1 Y674,4 +1 Y674,5 +1 Y674,6
  +1 Y675,0 +1 Y675,1 +1 Y675,2 +1 Y675,3 +1 Y675,4 +1 Y675,5 +1 Y675,6 +1 Y676,0 +1 Y676,1 +1 Y676,2
  +1 Y676,3 +1 Y676,4 +1 Y676,5 +1 Y676,6 +1 Y678,0 +1 Y678,1 +1 Y678,2 +1 Y678,3 +1 Y678,4 +1 Y678,5
  +1 Y678,6 +1 Y680,0 +1 Y680,1 +1 Y680,2 +1 Y680,3 +1 Y680,4 +1 Y680,5 +1 Y680,6 +1 Y682,0 +1 Y682,1
  +1 Y682,2 +1 Y682,3 +1 Y682,4 +1 Y682,5 +1 Y682,6 +1 Y683,0 +1 Y683,1 +1 Y683,2 +1 Y683,3 +1 Y683,4
  +1 Y683,5 +1 Y683,6 +1 Y685,0 +1 Y685,1 +1 Y685,2 +1 Y685,3 +1 Y685,4 +1 Y685,5 +1 Y685,6 +1 Y686,0
  +1 Y686,1 +1 Y686,2 +1 Y686,3 +1 Y686,4 +1 Y686,5 +1 Y686,6 +1 Y688,0 +1 Y688,1 +1 Y688,2 +1 Y688,3
  +1 Y688,4 +1 Y688,5 +1 Y688,6 +1 Y689,0 +1 Y689,1 +1 Y689,2 +1 Y689,3 +1 Y689,4 +1 Y689,5 +1 Y689,6
  +1 Y690,0 +1 Y690,1 +1 Y690,2 +1 Y690,3 +1 Y690,4 +1 Y690,5 +1 Y690,6 +1 Y692,0 +1 Y692,1 +1 Y692,2
  +1 Y692,3 +1 Y692,4 +1 Y692,5 +1 Y692,6 +1 Y693,0 +1 Y693,1 +1 Y693,2 +1 Y693,3 +1 Y693,4 +1 Y693,5
  +1 Y693,6 +1 Y694,0 +1 Y694,1 +1 Y694,2 +1 Y694,3 +1 Y694,4 +1 Y694,5 +1 Y694,6 +1 Y695,0 +1 Y695,1
  +1 Y695,2 +1 Y695,3 +1 Y695,4 +1 Y695,5 +1 Y695,6 +1 Y696,0 +1 Y696,1 +1 Y696,2 +1 Y696,3 +1 Y696,4
  +1 Y696,5 +1 Y696,6 = +1
 c41: +1 Y761,0 +1 Y761,1 +1 Y761,2 +1 Y761,3 +1 Y761,4 +1 Y761,5 +1 Y761,6 +1 Y767,0 +1 Y767,1 +1 Y767,2
  +1 Y767,3 +1 Y767,4 +1 Y767,5 +1 Y767,6 +1 Y772,0 +1 Y772,1 +1 Y772,2 +1 Y772,3 +1 Y772,4 +1 Y772,5
  +1 Y772,6 +1 Y776,0 +1 Y776,1 +1 Y776,2 +1 Y776,3 +1 Y776,4 +1 Y776,5 +1 Y776,6 +1 Y780,0 +1 Y780,1
  +1 Y780,2 +1 Y780,3 +1 Y780,4 +1 Y780,5 +1 Y780,6 +1 Y781,0 +1 Y781,1 +1 Y781,2 +1 Y781,3 +1 Y781,4
  +1 Y781,5 +1 Y781,6 +1 Y782,0 +1 Y782,1 +1 Y782,2 +1 Y782,3 +1 Y782,4 +1 Y782,5 +1 Y782,6 +1 Y787,0
  +1 Y787,1 +1 Y787,2 +1 Y787,3 +1 Y787,4 +1 Y787,5 +1 Y787,6 +1 Y791,0 +1 Y791,1 +1 Y791,2 +1 Y791,3
  +1 Y791,4 +1 Y791,5 +1 Y791,6 +1 Y795,0 +1 Y795,1 +1 Y795,2 +1 Y795,3 +1 Y795,4 +1 Y795,5 +1 Y795,6
  +1 Y796,0 +1 Y796,1 +1 Y796,2 +1 Y796,3 +1 Y796,4 +1 Y796,5 +1 Y796,6 +1 Y797,0 +1 Y797,1 +1 Y797,2
  +1 Y797,3 +1 Y797,4 +1 Y797,5 +1 Y797,6 +1 Y801,0 +1 Y801,1 +1 Y801,2 +1 Y801,3 +1 Y801,4 +1 Y801,5
  +1 Y801,6 +1 Y805,0 +1 Y805,1 +1 Y805,2 +1 Y805,3 +1 Y805,4 +1 Y805,5 +1 Y805,6 +1 Y806,0 +1 Y806,1
  +1 Y806,2 +1 Y806,3 +1 Y806,4 +1 Y806,5 +1 Y806,6 +1 Y807,0 +1 Y807,1 +1 Y807,2 +1 Y807,3 +1 Y807,4
  +1 Y807,5 +1 Y807,6 +1 Y811,0 +1 Y811,1 +1 Y811,2 +1 Y811,3 +1 Y811,4 +1 Y811,5 +1 Y811,6 +1 Y812,0
  +1 Y812,1 +1 Y812,2 +1 Y812,3 +1 Y812,4 +1 Y812,5 +1 Y812,6 +1 Y813,0 +1 Y813,1 +1 Y813,2 +1 Y813,3
  +1 Y813,4 +1 Y813,5 +1 Y813,6 +1 Y817,0 +1 Y817,1 +1 Y817,2 +1 Y817,3 +1 Y817,4 +1 Y817,5 +1 Y817,6
  +1 Y818,0 +1 Y818,1 +1 Y818,2 +1 Y818,3 +1 Y818,4 +1 Y818,5 +1 Y818,6 +1 Y819,0 +1 Y819,1 +1 Y819,2
  +1 Y819,3 +1 Y819,4 +1 Y819,5 +1 Y819,6 +1 Y821,0 +1 Y821,1 +1 Y821,2 +1 Y821,3 +1 Y821,4 +1 Y821,5
  +1 Y821,6 +1 Y825,0 +1 Y825,1 +1 Y825,2 +1 Y825,3 +1 Y825,4 +1 Y825,5 +1 Y825,6 +1 Y826,0 +1 Y826,1
  +1 Y826,2 +1 Y826,3 +1 Y826,4 +1 Y826,5 +1 Y826,6 +1 Y827,0 +1 Y827,1 +1 Y827,2 +1 Y827,3 +1 Y827,4
  +1 Y827,5 +1 Y827,6 +1 Y831,0 +1 Y831,1 +1 Y831,2 +1 Y831,3 +1 Y831,4 +1 Y831,5 +1 Y831,6 +1 Y832,0
  +1 Y832,1 +1 Y832,2 +1 Y832,3 +1 Y832,4 +1 Y832,5 +1 Y832,6 +1 Y833,0 +1 Y833,1 +1 Y833,2 +1 Y833,3
  +1 Y833,4 +1 Y833,5 +1 Y833,6 +1 Y837,0 +1 Y837,1 +1 Y837,2 +1 Y837,3 +1 Y837,4 +1 Y837,5 +1 Y837,6
  +1 Y838,0 +1 Y838,1 +1 Y838,2 +1 Y838,3 +1 Y838,4 +1 Y838,5 +1 Y838,6 +1 Y839,0 +1 Y839,1 +1 Y839,2
  +1 Y839,3 +1 Y839,4 +1 Y839,5 +1 Y839,6 +1 Y841,0 +1 Y841,1 +1 Y841,2 +1 Y841,3 +1 Y841,4 +1 Y841,5
  +1 Y841,6 +1 Y842,0 +1 Y842,1 +1 Y842,2 +1 Y842,3 +1 Y842,4 +1 Y842,5 +1 Y842,6 +1 Y843,0 +1 Y843,1
  +1 Y843,2 +1 Y843,3 +1 Y843,4 +1 Y843,5 +1 Y843,6 +1 Y847,0 +1 Y847,1 +1 Y847,2 +1 Y847,3 +1 Y847,4
  +1 Y847,5 +1 Y847,6 +1 Y848,0 +1 Y848,1 +1 Y848,2 +1 Y848,3 +1 Y848,4 +1 Y848,5 +1 Y848,6 +1 Y849,0
  +1 Y849,1 +1 Y849,2 +1 Y849,3 +1 Y849,4 +1 Y849,5 +1 Y849,6 +1 Y851,0 +1 Y851,1 +1 Y851,2 +1 Y851,3
  +1 Y851,4 +1 Y851,5 +1 Y851,6 +1 Y852,0 +1 Y852,1 +1 Y852,2 +1 Y852,3 +1 Y852,4 +1 Y852,5 +1 Y852,6
  +1 Y853,0 +1 Y853,1 +1 Y853,2 +1 Y853,3 +1 Y853,4 +1 Y853,5 +1 Y853,6 +1 Y855,0 +1 Y855,1 +1 Y855,2
  +1 Y855,3 +1 Y855,4 +1 Y855,5 +1 Y855,6 +1 Y856,0 +1 Y856,1 +1 Y856,2 +1 Y856,3 +1 Y856,4 +1 Y856,5
  +1 Y856,6 +1 Y857,0 +1 Y857,1 +1 Y857,2 +1 Y857,3 +1 Y857,4 +1 Y857,5 +1 Y857,6 +1 Y858,0 +1 Y858,1
  +1 Y858,2 +1 Y858,3 +1 Y858,4 +1 Y858,5 +1 Y858,6 +1 Y862,0 +1 Y862,1 +1 Y862,2 +1 Y862,3 +1 Y862,4
  +1 Y862,5 +1 Y862,6 +1 Y863,0 +1 Y863,1 +1 Y863,2 +1 Y863,3 +1 Y863,4 +1 Y863,5 +1 Y863,6 +1 Y864,0
  +1 Y864,1 +1 Y864,2 +1 Y864,3 +1 Y864,4 +1 Y864,5 +1 Y864,6 +1 Y866,0 +1 Y866,1 +1 Y866,2 +1 Y866,3
  +1 Y866,4 +1 Y866,5 +1 Y866,6 +1 Y867,0 +1 Y867,1 +1 Y867,2 +1 Y867,3 +1 Y867,4 +1 Y867,5 +1 Y867,6
  +1 Y868,0 +1 Y868,1 +1 Y868,2 +1 Y868,3 +1 Y868,4 +1 Y868,5 +1 Y868,6 +1 Y870,0 +1 Y870,1 +1 Y870,2
  +1 Y870,3 +1 Y870,4 +1 Y870,5 +1 Y870,6 +1 Y871,0 +1 Y871,1 +1 Y871,2 +1 Y871,3 +1 Y871,4 +1 Y871,5
  +1 Y871,6 +1 Y872,0 +1 Y872,1 +1 Y872,2 +1 Y872,3 +1 Y872,4 +1 Y872,5 +1 Y872,6 +1 Y873,0 +1 Y873,1
  +1 Y873,2 +1 Y873,3 +1 Y873,4 +1 Y873,5 +1 Y873,6 +1 Y875,0 +1 Y875,1 +1 Y875,2 +1 Y875,3 +1 Y875,4
  +1 Y875,5 +1 Y875,6 +1 Y876,0 +1 Y876,1 +1 Y876,2 +1 Y876,3 +1 Y876,4 +1 Y876,5 +1 Y876,6 +1 Y877,0
  +1 Y877,1 +1 Y877,2 +1 Y877,3 +1 Y877,4 +1 Y877,5 +1 Y877,6 +1 Y878,0 +1 Y878,1 +1 Y878,2 +1 Y878,3
  +1 Y878,4 +1 Y878,5 +1 Y878,6 = +1
 c42: +1 Y715,0 +1 Y715,1 +1 Y715,2 +1 Y715,3 +1 Y715,4 +1 Y715,5 +1 Y715,6 +1 Y718,0 +1 Y718,1 +1 Y718,2
  +1 Y718,3 +1 Y718,4 +1 Y718,5 +1 Y718,6 +1 Y720,0 +1 Y720,1 +1 Y720,2 +1 Y720,3 +1 Y720,4 +1 Y720,5
  +1 Y720,6 +1 Y721,0 +1 Y721,1 +1 Y721,2 +1 Y721,3 +1 Y721,4 +1 Y721,5 +1 Y721,6 +1 Y723,0 +1 Y723,1
  +1 Y723,2 +1 Y723,3 +1 Y723,4 +1 Y723,5 +1 Y723,6 +1 Y724,0 +1 Y724,1 +1 Y724,2 +1 Y724,3 +1 Y724,4
  +1 Y724,5 +1 Y724,6 +1 Y725,0 +1 Y725,1 +1 Y725,2 +1 Y725,3 +1 Y725,4 +1 Y725,5 +1 Y725,6 +1 Y726,0
  +1 Y726,1 +1 Y726,2 +1 Y726,3 +1 Y726,4 +1 Y726,5 +1 Y726,6 = +1
 c43: +1 Y762,0 +1 Y762,1 +1 Y762,2 +1 Y762,3 +1 Y762,4 +1 Y762,5 +1 Y762,6 +1 Y768,0 +1 Y768,1 +1 Y768,2
  +1 Y768,3 +1 Y768,4 +1 Y768,5 +1 Y768,6 +1 Y773,0 +1 Y773,1 +1 Y773,2 +1 Y773,3 +1 Y773,4 +1 Y773,5
  +1 Y773,6 +1 Y777,0 +1 Y777,1 +1 Y777,2 +1 Y777,3 +1 Y777,4 +1 Y777,5 +1 Y777,6 +1 Y780,0 +1 Y780,1
  +1 Y780,2 +1 Y780,3 +1 Y780,4 +1 Y780,5 +1 Y780,6 +1 Y783,0 +1 Y783,1 +1 Y783,2 +1 Y783,3 +1 Y783,4
  +1 Y783,5 +1 Y783,6 +1 Y784,0 +1 Y784,1 +1 Y784,2 +1 Y784,3 +1 Y784,4 +1 Y784,5 +1 Y784,6 +1 Y788,0
  +1 Y788,1 +1 Y788,2 +1 Y788,3 +1 Y788,4 +1 Y788,5 +1 Y788,6 +1 Y792,0 +1 Y792,1 +1 Y792,2 +1 Y792,3
  +1 Y792,4 +1 Y792,5 +1 Y792,6 +1 Y795,0 +1 Y795,1 +1 Y795,2 +1 Y795,3 +1 Y795,4 +1 Y795,5 +1 Y795,6
  +1 Y798,0 +1 Y798,1 +1 Y798,2 +1 Y798,3 +1 Y798,4 +1 Y798,5 +1 Y798,6 +1 Y799,0 +1 Y799,1 +1 Y799,2
  +1 Y799,3 +1 Y799,4 +1 Y799,5 +1 Y799,6 +1 Y802,0 +1 Y802,1 +1 Y802,2 +1 Y802,3 +1 Y802,4 +1 Y802,5
  +1 Y802,6 +1 Y805,0 +1 Y805,1 +1 Y805,2 +1 Y805,3 +1 Y805,4 +1 Y805,5 +1 Y805,6 +1 Y808,0 +1 Y808,1
  +1 Y808,2 +1 Y808,3 +1 Y808,4 +1 Y808,5 +1 Y808,6 +1 Y809,0 +1 Y809,1 +1 Y809,2 +1 Y809,3 +1 Y809,4
  +1 Y809,5 +1 Y809,6 +1 Y811,0 +1 Y811,1 +1 Y811,2 +1 Y811,3 +1 Y811,4 +1 Y811,5 +1 Y811,6 +1 Y814,0
  +1 Y814,1 +1 Y814,2 +1 Y814,3 +1 Y814,4 +1 Y814,5 +1 Y814,6 +1 Y815,0 +1 Y815,1 +1 Y815,2 +1 Y815,3
  +1 Y815,4 +1 Y815,5 +1 Y815,6 +1 Y817,0 +1 Y817,1 +1 Y817,2 +1 Y817,3 +1 Y817,4 +1 Y817,5 +1 Y817,6
  +1 Y818,0 +1 Y818,1 +1 Y818,2 +1 Y818,3 +1 Y818,4 +1 Y818,5 +1 Y818,6 +1 Y820,0 +1 Y820,1 +1 Y820,2
  +1 Y820,3 +1 Y820,4 +1 Y820,5 +1 Y820,6 +1 Y822,0 +1 Y822,1 +1 Y822,2 +1 Y822,3 +1 Y822,4 +1 Y822,5
  +1 Y822,6 +1 Y825,0 +1 Y825,1 +1 Y825,2 +1 Y825,3 +1 Y825,4 +1 Y825,5 +1 Y825,6 +1 Y828,0 +1 Y828,1
  +1 Y828,2 +1 Y828,3 +1 Y828,4 +1 Y828,5 +1 Y828,6 +1 Y829,0 +1 Y829,1 +1 Y829,2 +1 Y829,3 +1 Y829,4
  +1 Y829,5 +1 Y829,6 +1 Y831,0 +1 Y831,1 +1 Y831,2 +1 Y831,3 +1 Y831,4 +1 Y831,5 +1 Y831,6 +1 Y834,0
  +1 Y834,1 +1 Y834,2 +1 Y834,3 +1 Y834,4 +1 Y834,5 +1 Y834,6 +1 Y835,0 +1 Y835,1 +1 Y835,2 +1 Y835,3
  +1 Y835,4 +1 Y835,5 +1 Y835,6 +1 Y837,0 +1 Y837,1 +1 Y837,2 +1 Y837,3 +1 Y837,4 +1 Y837,5 +1 Y837,6
  +1 Y838,0 +1 Y838,1 +1 Y838,2 +1 Y838,3 +1 Y838,4 +1 Y838,5 +1 Y838,6 +1 Y840,0 +1 Y840,1 +1 Y840,2
  +1 Y840,3 +1 Y840,4 +1 Y840,5 +1 Y840,6 +1 Y841,0 +1 Y841,1 +1 Y841,2 +1 Y841,3 +1 Y841,4 +1 Y841,5
  +1 Y841,6 +1 Y844,0 +1 Y844,1 +1 Y844,2 +1 Y844,3 +1 Y844,4 +1 Y844,5 +1 Y844,6 +1 Y845,0 +1 Y845,1
  +1 Y845,2 +1 Y845,3 +1 Y845,4 +1 Y845,5 +1 Y845,6 +1 Y847,0 +1 Y847,1 +1 Y847,2 +1 Y847,3 +1 Y847,4
  +1 Y847,5 +1 Y847,6 +1 Y848,0 +1 Y848,1 +1 Y848,2 +1 Y848,3 +1 Y848,4 +1 Y848,5 +1 Y848,6 +1 Y850,0
  +1 Y850,1 +1 Y850,2 +1 Y850,3 +1 Y850,4 +1 Y850,5 +1 Y850,6 +1 Y851,0 +1 Y851,1 +1 Y851,2 +1 Y851,3
  +1 Y851,4 +1 Y851,5 +1 Y851,6 +1 Y852,0 +1 Y852,1 +1 Y852,2 +1 Y852,3 +1 Y852,4 +1 Y852,5 +1 Y852,6
  +1 Y854,0 +1 Y854,1 +1 Y854,2 +1 Y854,3 +1 Y854,4 +1 Y854,5 +1 Y854,6 +1 Y855,0 +1 Y855,1 +1 Y855,2
  +1 Y855,3 +1 Y855,4 +1 Y855,5 +1 Y855,6 +1 Y856,0 +1 Y856,1 +1 Y856,2 +1 Y856,3 +1 Y856,4 +1 Y856,5
  +1 Y856,6 +1 Y859,0 +1 Y859,1 +1 Y859,2 +1 Y859,3 +1 Y859,4 +1 Y859,5 +1 Y859,6 +1 Y860,0 +1 Y860,1
  +1 Y860,2 +1 Y860,3 +1 Y860,4 +1 Y860,5 +1 Y860,6 +1 Y862,0 +1 Y862,1 +1 Y862,2 +1 Y862,3 +1 Y862,4
  +1 Y862,5 +1 Y862,6 +1 Y863,0 +1 Y863,1 +1 Y863,2 +1 Y863,3 +1 Y863,4 +1 Y863,5 +1 Y863,6 +1 Y865,0
  +1 Y865,1 +1 Y865,2 +1 Y865,3 +1 Y865,4 +1 Y865,5 +1 Y865,6 +1 Y866,0 +1 Y866,1 +1 Y866,2 +1 Y866,3
  +1 Y866,4 +1 Y866,5 +1 Y866,6 +1 Y867,0 +1 Y867,1 +1 Y867,2 +1 Y867,3 +1 Y867,4 +1 Y867,5 +1 Y867,6
  +1 Y869,0 +1 Y869,1 +1 Y869,2 +1 Y869,3 +1 Y869,4 +1 Y869,5 +1 Y869,6 +1 Y870,0 +1 Y870,1 +1 Y870,2
  +1 Y870,3 +1 Y870,4 +1 Y870,5 +1 Y870,6 +1 Y871,0 +1 Y871,1 +1 Y871,2 +1 Y871,3 +1 Y871,4 +1 Y871,5
  +1 Y871,6 +1 Y872,0 +1 Y872,1 +1 Y872,2 +1 Y872,3 +1 Y872,4 +1 Y872,5 +1 Y872,6 +1 Y874,0 +1 Y874,1
  +1 Y874,2 +1 Y874,3 +1 Y874,4 +1 Y874,5 +1 Y874,6 +1 Y875,0 +1 Y875,1 +1 Y875,2 +1 Y875,3 +1 Y875,4
  +1 Y875,5 +1 Y875,6 +1 Y876,0 +1 Y876,1 +1 Y876,2 +1 Y876,3 +1 Y876,4 +1 Y876,5 +1 Y876,6 +1 Y877,0
  +1 Y877,1 +1 Y877,2 +1 Y877,3 +1 Y877,4 +1 Y877,5 +1 Y877,6 +1 Y878,0 +1 Y878,1 +1 Y878,2 +1 Y878,3
  +1 Y878,4 +1 Y878,5 +1 Y878,6 = +1
 c44: +1 Y730,0 +1 Y730,1 +1 Y730,2 +1 Y730,3 +1 Y730,4 +1 Y730,5 +1 Y730,6 +1 Y734,0 +1 Y734,1 +1 Y734,2
  +1 Y734,3 +1 Y734,4 +1 Y734,5 +1 Y734,6 +1 Y737,0 +1 Y737,1 +1 Y737,2 +1 Y737,3 +1 Y737,4 +1 Y737,5
  +1 Y737,6 +1 Y739,0 +1 Y739,1 +1 Y739,2 +1 Y739,3 +1 Y739,4 +1 Y739,5 +1 Y739,6 +1 Y741,0 +1 Y741,1
  +1 Y741,2 +1 Y741,3 +1 Y741,4 +1 Y741,5 +1 Y741,6 +1 Y743,0 +1 Y743,1 +1 Y743,2 +1 Y743,3 +1 Y743,4
  +1 Y743,5 +1 Y743,6 +1 Y745,0 +1 Y745,1 +1 Y745,2 +1 Y745,3 +1 Y745,4 +1 Y745,5 +1 Y745,6 +1 Y747,0
  +1 Y747,1 +1 Y747,2 +1 Y747,3 +1 Y747,4 +1 Y747,5 +1 Y747,6 +1 Y748,0 +1 Y748,1 +1 Y748,2 +1 Y748,3
  +1 Y748,4 +1 Y748,5 +1 Y748,6 +1 Y750,0 +1 Y750,1 +1 Y750,2 +1 Y750,3 +1 Y750,4 +1 Y750,5 +1 Y750,6
  +1 Y751,0 +1 Y751,1 +1 Y751,2 +1 Y751,3 +1 Y751,4 +1 Y751,5 +1 Y751,6 +1 Y752,0 +1 Y752,1 +1 Y752,2
  +1 Y752,3 +1 Y752,4 +1 Y752,5 +1 Y752,6 +1 Y754,0 +1 Y754,1 +1 Y754,2 +1 Y754,3 +1 Y754,4 +1 Y754,5
  +1 Y754,6 +1 Y755,0 +1 Y755,1 +1 Y755,2 +1 Y755,3 +1 Y755,4 +1 Y755,5 +1 Y755,6 +1 Y756,0 +1 Y756,1
  +1 Y756,2 +1 Y756,3 +1 Y756,4 +1 Y756,5 +1 Y756,6 +1 Y757,0 +1 Y757,1 +1 Y757,2 +1 Y757,3 +1 Y757,4
  +1 Y757,5 +1 Y757,6 = +1
 c45: +1 Y763,0 +1 Y763,1 +1 Y763,2 +1 Y763,3 +1 Y763,4 +1 Y763,5 +1 Y763,6 +1 Y769,0 +1 Y769,1 +1 Y769,2
  +1 Y769,3 +1 Y769,4 +1 Y769,5 +1 Y769,6 +1 Y774,0 +1 Y774,1 +1 Y774,2 +1 Y774,3 +1 Y774,4 +1 Y774,5
  +1 Y774,6 +1 Y778,0 +1 Y778,1 +1 Y778,2 +1 Y778,3 +1 Y778,4 +1 Y778,5 +1 Y778,6 +1 Y781,0 +1 Y781,1
  +1 Y781,2 +1 Y781,3 +1 Y781,4 +1 Y781,5 +1 Y781,6 +1 Y783,0 +1 Y783,1 +1 Y783,2 +1 Y783,3 +1 Y783,4
  +1 Y783,5 +1 Y783,6 +1 Y785,0 +1 Y785,1 +1 Y785,2 +1 Y785,3 +1 Y785,4 +1 Y785,5 +1 Y785,6 +1 Y789,0
  +1 Y789,1 +1 Y789,2 +1 Y789,3 +1 Y789,4 +1 Y789,5 +1 Y789,6 +1 Y793,0 +1 Y793,1 +1 Y793,2 +1 Y793,3
  +1 Y793,4 +1 Y793,5 +1 Y793,6 +1 Y796,0 +1 Y796,1 +1 Y796,2 +1 Y796,3 +1 Y796,4 +1 Y796,5 +1 Y796,6
  +1 Y798,0 +1 Y798,1 +1 Y798,2 +1 Y798,3 +1 Y798,4 +1 Y798,5 +1 Y798,6 +1 Y800,0 +1 Y800,1 +1 Y800,2
  +1 Y800,3 +1 Y800,4 +1 Y800,5 +1 Y800,6 +1 Y803,0 +1 Y803,1 +1 Y803,2 +1 Y803,3 +1 Y803,4 +1 Y803,5
  +1 Y803,6 +1 Y806,0 +1 Y806,1 +1 Y806,2 +1 Y806,3 +1 Y806,4 +1 Y806,5 +1 Y806,6 +1 Y808,0 +1 Y808,1
  +1 Y808,2 +1 Y808,3 +1 Y808,4 +1 Y808,5 +1 Y808,6 +1 Y810,0 +1 Y810,1 +1 Y810,2 +1 Y810,3 +1 Y810,4
  +1 Y810,5 +1 Y810,6 +1 Y812,0 +1 Y812,1 +1 Y812,2 +1 Y812,3 +1 Y812,4 +1 Y812,5 +1 Y812,6 +1 Y814,0
  +1 Y814,1 +1 Y814,2 +1 Y814,3 +1 Y814,4 +1 Y814,5 +1 Y814,6 +1 Y816,0 +1 Y816,1 +1 Y816,2 +1 Y816,3
  +1 Y816,4 +1 Y816,5 +1 Y816,6 +1 Y817,0 +1 Y817,1 +1 Y817,2 +1 Y817,3 +1 Y817,4 +1 Y817,5 +1 Y817,6
  +1 Y819,0 +1 Y819,1 +1 Y819,2 +1 Y819,3 +1 Y819,4 +1 Y819,5 +1 Y819,6 +1 Y820,0 +1 Y820,1 +1 Y820,2
  +1 Y820,3 +1 Y820,4 +1 Y820,5 +1 Y820,6 +1 Y823,0 +1 Y823,1 +1 Y823,2 +1 Y823,3 +1 Y823,4 +1 Y823,5
  +1 Y823,6 +1 Y826,0 +1 Y826,1 +1 Y826,2 +1 Y826,3 +1 Y826,4 +1 Y826,5 +1 Y826,6 +1 Y828,0 +1 Y828,1
  +1 Y828,2 +1 Y828,3 +1 Y828,4 +1 Y828,5 +1 Y828,6 +1 Y830,0 +1 Y830,1 +1 Y830,2 +1 Y830,3 +1 Y830,4
  +1 Y830,5 +1 Y830,6 +1 Y832,0 +1 Y832,1 +1 Y832,2 +1 Y832,3 +1 Y832,4 +1 Y832,5 +1 Y832,6 +1 Y834,0
  +1 Y834,1 +1 Y834,2 +1 Y834,3 +1 Y834,4 +1 Y834,5 +1 Y834,6 +1 Y836,0 +1 Y836,1 +1 Y836,2 +1 Y836,3
  +1 Y836,4 +1 Y836,5 +1 Y836,6 +1 Y837,0 +1 Y837,1 +1 Y837,2 +1 Y837,3 +1 Y837,4 +1 Y837,5 +1 Y837,6
  +1 Y839,0 +1 Y839,1 +1 Y839,2 +1 Y839,3 +1 Y839,4 +1 Y839,5 +1 Y839,6 +1 Y840,0 +1 Y840,1 +1 Y840,2
  +1 Y840,3 +1 Y840,4 +1 Y840,5 +1 Y840,6 +1 Y842,0 +1 Y842,1 +1 Y842,2 +1 Y842,3 +1 Y842,4 +1 Y842,5
  +1 Y842,6 +1 Y844,0 +1 Y844,1 +1 Y844,2 +1 Y844,3 +1 Y844,4 +1 Y844,5 +1 Y844,6 +1 Y846,0 +1 Y846,1
  +1 Y846,2 +1 Y846,3 +1 Y846,4 +1 Y846,5 +1 Y846,6 +1 Y847,0 +1 Y847,1 +1 Y847,2 +1 Y847,3 +1 Y847,4
  +1 Y847,5 +1 Y847,6 +1 Y849,0 +1 Y849,1 +1 Y849,2 +1 Y849,3 +1 Y849,4 +1 Y849,5 +1 Y849,6 +1 Y850,0
  +1 Y850,1 +1 Y850,2 +1 Y850,3 +1 Y850,4 +1 Y850,5 +1 Y850,6 +1 Y851,0 +1 Y851,1 +1 Y851,2 +1 Y851,3
  +1 Y851,4 +1 Y851,5 +1 Y851,6 +1 Y853,0 +1 Y853,1 +1 Y853,2 +1 Y853,3 +1 Y853,4 +1 Y853,5 +1 Y853,6
  +1 Y854,0 +1 Y854,1 +1 Y854,2 +1 Y854,3 +1 Y854,4 +1 Y854,5 +1 Y854,6 +1 Y855,0 +1 Y855,1 +1 Y855,2
  +1 Y855,3 +1 Y855,4 +1 Y855,5 +1 Y855,6 +1 Y857,0 +1 Y857,1 +1 Y857,2 +1 Y857,3 +1 Y857,4 +1 Y857,5
  +1 Y857,6 +1 Y859,0 +1 Y859,1 +1 Y859,2 +1 Y859,3 +1 Y859,4 +1 Y859,5 +1 Y859,6 +1 Y861,0 +1 Y861,1
  +1 Y861,2 +1 Y861,3 +1 Y861,4 +1 Y861,5 +1 Y861,6 +1 Y862,0 +1 Y862,1 +1 Y862,2 +1 Y862,3 +1 Y862,4
  +1 Y862,5 +1 Y862,6 +1 Y864,0 +1 Y864,1 +1 Y864,2 +1 Y864,3 +1 Y864,4 +1 Y864,5 +1 Y864,6 +1 Y865,0
  +1 Y865,1 +1 Y865,2 +1 Y865,3 +1 Y865,4 +1 Y865,5 +1 Y865,6 +1 Y866,0 +1 Y866,1 +1 Y866,2 +1 Y866,3
  +1 Y866,4 +1 Y866,5 +1 Y866,6 +1 Y868,0 +1 Y868,1 +1 Y868,2 +1 Y868,3 +1 Y868,4 +1 Y868,5 +1 Y868,6
  +1 Y869,0 +1 Y869,1 +1 Y869,2 +1 Y869,3 +1 Y869,4 +1 Y869,5 +1 Y869,6 +1 Y870,0 +1 Y870,1 +1 Y870,2
  +1 Y870,3 +1 Y870,4 +1 Y870,5 +1 Y870,6 +1 Y871,0 +1 Y871,1 +1 Y871,2 +1 Y871,3 +1 Y871,4 +1 Y871,5
  +1 Y871,6 +1 Y873,0 +1 Y873,1 +1 Y873,2 +1 Y873,3 +1 Y873,4 +1 Y873,5 +1 Y873,6 +1 Y874,0 +1 Y874,1
  +1 Y874,2 +1 Y874,3 +1 Y874,4 +1 Y874,5 +1 Y874,6 +1 Y875,0 +1 Y875,1 +1 Y875,2 +1 Y875,3 +1 Y875,4
  +1 Y875,5 +1 Y875,6 +1 Y876,0 +1 Y876,1 +1 Y876,2 +1 Y876,3 +1 Y876,4 +1 Y876,5 +1 Y876,6 +1 Y878,0
  +1 Y878,1 +1 Y878,2 +1 Y878,3 +1 Y878,4 +1 Y878,5 +1 Y878,6 = +1
 c46: +1 Y731,0 +1 Y731,1 +1 Y731,2 +1 Y731,3 +1 Y731,4 +1 Y731,5 +1 Y731,6 +1 Y735,0 +1 Y735,1 +1 Y735,2
  +1 Y735,3 +1 Y735,4 +1 Y735,5 +1 Y735,6 +1 Y738,0 +1 Y738,1 +1 Y738,2 +1 Y738,3 +1 Y738,4 +1 Y738,5
  +1 Y738,6 +1 Y740,0 +1 Y740,1 +1 Y740,2 +1 Y740,3 +1 Y740,4 +1 Y740,5 +1 Y740,6 +1 Y741,0 +1 Y741,1
  +1 Y741,2 +1 Y741,3 +1 Y741,4 +1 Y741,5 +1 Y741,6 +1 Y744,0 +1 Y744,1 +1 Y744,2 +1 Y744,3 +1 Y744,4
  +1 Y744,5 +1 Y744,6 +1 Y746,0 +1 Y746,1 +1 Y746,2 +1 Y746,3 +1 Y746,4 +1 Y746,5 +1 Y746,6 +1 Y747,0
  +1 Y747,1 +1 Y747,2 +1 Y747,3 +1 Y747,4 +1 Y747,5 +1 Y747,6 +1 Y749,0 +1 Y749,1 +1 Y749,2 +1 Y749,3
  +1 Y749,4 +1 Y749,5 +1 Y749,6 +1 Y750,0 +1 Y750,1 +1 Y750,2 +1 Y750,3 +1 Y750,4 +1 Y750,5 +1 Y750,6
  +1 Y751,0 +1 Y751,1 +1 Y751,2 +1 Y751,3 +1 Y751,4 +1 Y751,5 +1 Y751,6 +1 Y753,0 +1 Y753,1 +1 Y753,2
  +1 Y753,3 +1 Y753,4 +1 Y753,5 +1 Y753,6 +1 Y754,0 +1 Y754,1 +1 Y754,2 +1 Y754,3 +1 Y754,4 +1 Y754,5
  +1 Y754,6 +1 Y755,0 +1 Y755,1 +1 Y755,2 +1 Y755,3 +1 Y755,4 +1 Y755,5 +1 Y755,6 +1 Y756,0 +1 Y756,1
  +1 Y756,2 +1 Y756,3 +1 Y756,4 +1 Y756,5 +1 Y756,6 +1 Y757,0 +1 Y757,1 +1 Y757,2 +1 Y757,3 +1 Y757,4
  +1 Y757,5 +1 Y757,6 = +1
 c47: +1 Y881,0 +1 Y881,1 +1 Y881,2 +1 Y881,3 +1 Y881,4 +1 Y881,5 +1 Y881,6 +1 Y883,0 +1 Y883,1 +1 Y883,2
  +1 Y883,3 +1 Y883,4 +1 Y883,5 +1 Y883,6 +1 Y884,0 +1 Y884,1 +1 Y884,2 +1 Y884,3 +1 Y884,4 +1 Y884,5
  +1 Y884,6 +1 Y885,0 +1 Y885,1 +1 Y885,2 +1 Y885,3 +1 Y885,4 +1 Y885,5 +1 Y885,6 = +1
 c48: +1 Y552,0 +1 Y552,1 +1 Y552,2 +1 Y552,3 +1 Y552,4 +1 Y552,5 +1 Y552,6 +1 Y556,0 +1 Y556,1 +1 Y556,2
  +1 Y556,3 +1 Y556,4 +1 Y556,5 +1 Y556,6 +1 Y559,0 +1 Y559,1 +1 Y559,2 +1 Y559,3 +1 Y559,4 +1 Y559,5
  +1 Y559,6 +1 Y561,0 +1 Y561,1 +1 Y561,2 +1 Y561,3 +1 Y561,4 +1 Y561,5 +1 Y561,6 +1 Y562,0 +1 Y562,1
  +1 Y562,2 +1 Y562,3 +1 Y562,4 +1 Y562,5 +1 Y562,6 +1 Y565,0 +1 Y565,1 +1 Y565,2 +1 Y565,3 +1 Y565,4
  +1 Y565,5 +1 Y565,6 +1 Y567,0 +1 Y567,1 +1 Y567,2 +1 Y567,3 +1 Y567,4 +1 Y567,5 +1 Y567,6 +1 Y568,0
  +1 Y568,1 +1 Y568,2 +1 Y568,3 +1 Y568,4 +1 Y568,5 +1 Y568,6 +1 Y570,0 +1 Y570,1 +1 Y570,2 +1 Y570,3
  +1 Y570,4 +1 Y570,5 +1 Y570,6 +1 Y571,0 +1 Y571,1 +1 Y571,2 +1 Y571,3 +1 Y571,4 +1 Y571,5 +1 Y571,6
  +1 Y572,0 +1 Y572,1 +1 Y572,2 +1 Y572,3 +1 Y572,4 +1 Y572,5 +1 Y572,6 +1 Y574,0 +1 Y574,1 +1 Y574,2
  +1 Y574,3 +1 Y574,4 +1 Y574,5 +1 Y574,6 +1 Y575,0 +1 Y575,1 +1 Y575,2 +1 Y575,3 +1 Y575,4 +1 Y575,5
  +1 Y575,6 +1 Y576,0 +1 Y576,1 +1 Y576,2 +1 Y576,3 +1 Y576,4 +1 Y576,5 +1 Y576,6 +1 Y577,0 +1 Y577,1
  +1 Y577,2 +1 Y577,3 +1 Y577,4 +1 Y577,5 +1 Y577,6 +1 Y578,0 +1 Y578,1 +1 Y578,2 +1 Y578,3 +1 Y578,4
  +1 Y578,5 +1 Y578,6 = +1
 c49: +1 Y585,0 +1 Y585,1 +1 Y585,2 +1 Y585,3 +1 Y585,4 +1 Y585,5 +1 Y585,6 +1 Y591,0 +1 Y591,1 +1 Y591,2
  +1 Y591,3 +1 Y591,4 +1 Y591,5 +1 Y591,6 +1 Y596,0 +1 Y596,1 +1 Y596,2 +1 Y596,3 +1 Y596,4 +1 Y596,5
  +1 Y596,6 +1 Y600,0 +1 Y600,1 +1 Y600,2 +1 Y600,3 +1 Y600,4 +1 Y600,5 +1 Y600,6 +1 Y603,0 +1 Y603,1
  +1 Y603,2 +1 Y603,3 +1 Y603,4 +1 Y603,5 +1 Y603,6 +1 Y605,0 +1 Y605,1 +1 Y605,2 +1 Y605,3 +1 Y605,4
  +1 Y605,5 +1 Y605,6 +1 Y606,0 +1 Y606,1 +1 Y606,2 +1 Y606,3 +1 Y606,4 +1 Y606,5 +1 Y606,6 +1 Y611,0
  +1 Y611,1 +1 Y611,2 +1 Y611,3 +1 Y611,4 +1 Y611,5 +1 Y611,6 +1 Y615,0 +1 Y615,1 +1 Y615,2 +1 Y615,3
  +1 Y615,4 +1 Y615,5 +1 Y615,6 +1 Y618,0 +1 Y618,1 +1 Y618,2 +1 Y618,3 +1 Y618,4 +1 Y618,5 +1 Y618,6
  +1 Y620,0 +1 Y620,1 +1 Y620,2 +1 Y620,3 +1 Y620,4 +1 Y620,5 +1 Y620,6 +1 Y621,0 +1 Y621,1 +1 Y621,2
  +1 Y621,3 +1 Y621,4 +1 Y621,5 +1 Y621,6 +1 Y625,0 +1 Y625,1 +1 Y625,2 +1 Y625,3 +1 Y625,4 +1 Y625,5
  +1 Y625,6 +1 Y628,0 +1 Y628,1 +1 Y628,2 +1 Y628,3 +1 Y628,4 +1 Y628,5 +1 Y628,6 +1 Y630,0 +1 Y630,1
  +1 Y630,2 +1 Y630,3 +1 Y630,4 +1 Y630,5 +1 Y630,6 +1 Y631,0 +1 Y631,1 +1 Y631,2 +1 Y631,3 +1 Y631,4
  +1 Y631,5 +1 Y631,6 +1 Y634,0 +1 Y634,1 +1 Y634,2 +1 Y634,3 +1 Y634,4 +1 Y634,5 +1 Y634,6 +1 Y636,0
  +1 Y636,1 +1 Y636,2 +1 Y636,3 +1 Y636,4 +1 Y636,5 +1 Y636,6 +1 Y637,0 +1 Y637,1 +1 Y637,2 +1 Y637,3
  +1 Y637,4 +1 Y637,5 +1 Y637,6 +1 Y639,0 +1 Y639,1 +1 Y639,2 +1 Y639,3 +1 Y639,4 +1 Y639,5 +1 Y639,6
  +1 Y640,0 +1 Y640,1 +1 Y640,2 +1 Y640,3 +1 Y640,4 +1 Y640,5 +1 Y640,6 +1 Y641,0 +1 Y641,1 +1 Y641,2
  +1 Y641,3 +1 Y641,4 +1 Y641,5 +1 Y641,6 +1 Y645,0 +1 Y645,1 +1 Y645,2 +1 Y645,3 +1 Y645,4 +1 Y645,5
  +1 Y645,6 +1 Y648,0 +1 Y648,1 +1 Y648,2 +1 Y648,3 +1 Y648,4 +1 Y648,5 +1 Y648,6 +1 Y650,0 +1 Y650,1
  +1 Y650,2 +1 Y650,3 +1 Y650,4 +1 Y650,5 +1 Y650,6 +1 Y651,0 +1 Y651,1 +1 Y651,2 +1 Y651,3 +1 Y651,4
  +1 Y651,5 +1 Y651,6 +1 Y654,0 +1 Y654,1 +1 Y654,2 +1 Y654,3 +1 Y654,4 +1 Y654,5 +1 Y654,6 +1 Y656,0
  +1 Y656,1 +1 Y656,2 +1 Y656,3 +1 Y656,4 +1 Y656,5 +1 Y656,6 +1 Y657,0 +1 Y657,1 +1 Y657,2 +1 Y657,3
  +1 Y657,4 +1 Y657,5 +1 Y657,6 +1 Y659,0 +1 Y659,1 +1 Y659,2 +1 Y659,3 +1 Y659,4 +1 Y659,5 +1 Y659,6
  +1 Y660,0 +1 Y660,1 +1 Y660,2 +1 Y660,3 +1 Y660,4 +1 Y660,5 +1 Y660,6 +1 Y661,0 +1 Y661,1 +1 Y661,2
  +1 Y661,3 +1 Y661,4 +1 Y661,5 +1 Y661,6 +1 Y664,0 +1 Y664,1 +1 Y664,2 +1 Y664,3 +1 Y664,4 +1 Y664,5
  +1 Y664,6 +1 Y666,0 +1 Y666,1 +1 Y666,2 +1 Y666,3 +1 Y666,4 +1 Y666,5 +1 Y666,6 +1 Y667,0 +1 Y667,1
  +1 Y667,2 +1 Y667,3 +1 Y667,4 +1 Y667,5 +1 Y667,6 +1 Y669,0 +1 Y669,1 +1 Y669,2 +1 Y669,3 +1 Y669,4
  +1 Y669,5 +1 Y669,6 +1 Y670,0 +1 Y670,1 +1 Y670,2 +1 Y670,3 +1 Y670,4 +1 Y670,5 +1 Y670,6 +1 Y671,0
  +1 Y671,1 +1 Y671,2 +1 Y671,3 +1 Y671,4 +1 Y671,5 +1 Y671,6 +1 Y673,0 +1 Y673,1 +1 Y673,2 +1 Y673,3
  +1 Y673,4 +1 Y673,5 +1 Y673,6 +1 Y674,0 +1 Y674,1 +1 Y674,2 +1 Y674,3 +1 Y674,4 +1 Y674,5 +1 Y674,6
  +1 Y675,0 +1 Y675,1 +1 Y675,2 +1 Y675,3 +1 Y675,4 +1 Y675,5 +1 Y675,6 +1 Y676,0 +1 Y676,1 +1 Y676,2
  +1 Y676,3 +1 Y676,4 +1 Y676,5 +1 Y676,6 +1 Y679,0 +1 Y679,1 +1 Y679,2 +1 Y679,3 +1 Y679,4 +1 Y679,5
  +1 Y679,6 +1 Y681,0 +1 Y681,1 +1 Y681,2 +1 Y681,3 +1 Y681,4 +1 Y681,5 +1 Y681,6 +1 Y682,0 +1 Y682,1
  +1 Y682,2 +1 Y682,3 +1 Y682,4 +1 Y682,5 +1 Y682,6 +1 Y684,0 +1 Y684,1 +1 Y684,2 +1 Y684,3 +1 Y684,4
  +1 Y684,5 +1 Y684,6 +1 Y685,0 +1 Y685,1 +1 Y685,2 +1 Y685,3 +1 Y685,4 +1 Y685,5 +1 Y685,6 +1 Y686,0
  +1 Y686,1 +1 Y686,2 +1 Y686,3 +1 Y686,4 +1 Y686,5 +1 Y686,6 +1 Y687,0 +1 Y687,1 +1 Y687,2 +1 Y687,3
  +1 Y687,4 +1 Y687,5 +1 Y687,6 +1 Y688,0 +1 Y688,1 +1 Y688,2 +1 Y688,3 +1 Y688,4 +1 Y688,5 +1 Y688,6
  +1 Y689,0 +1 Y689,1 +1 Y689,2 +1 Y689,3 +1 Y689,4 +1 Y689,5 +1 Y689,6 +1 Y691,0 +1 Y691,1 +1 Y691,2
  +1 Y691,3 +1 Y691,4 +1 Y691,5 +1 Y691,6 +1 Y692,0 +1 Y692,1 +1 Y692,2 +1 Y692,3 +1 Y692,4 +1 Y692,5
  +1 Y692,6 +1 Y693,0 +1 Y693,1 +1 Y693,2 +1 Y693,3 +1 Y693,4 +1 Y693,5 +1 Y693,6 +1 Y694,0 +1 Y694,1
  +1 Y694,2 +1 Y694,3 +1 Y694,4 +1 Y694,5 +1 Y694,6 +1 Y695,0 +1 Y695,1 +1 Y695,2 +1 Y695,3 +1 Y695,4
  +1 Y695,5 +1 Y695,6 +1 Y696,0 +1 Y696,1 +1 Y696,2 +1 Y696,3 +1 Y696,4 +1 Y696,5 +1 Y696,6 = +1
 c50: +1 Y764,0 +1 Y764,1 +1 Y764,2 +1 Y764,3 +1 Y764,4 +1 Y764,5 +1 Y764,6 +1 Y770,0 +1 Y770,1 +1 Y770,2
  +1 Y770,3 +1 Y770,4 +1 Y770,5 +1 Y770,6 +1 Y775,0 +1 Y775,1 +1 Y775,2 +1 Y775,3 +1 Y775,4 +1 Y775,5
  +1 Y775,6 +1 Y779,0 +1 Y779,1 +1 Y779,2 +1 Y779,3 +1 Y779,4 +1 Y779,5 +1 Y779,6 +1 Y782,0 +1 Y782,1
  +1 Y782,2 +1 Y782,3 +1 Y782,4 +1 Y782,5 +1 Y782,6 +1 Y784,0 +1 Y784,1 +1 Y784,2 +1 Y784,3 +1 Y784,4
  +1 Y784,5 +1 Y784,6 +1 Y785,0 +1 Y785,1 +1 Y785,2 +1 Y785,3 +1 Y785,4 +1 Y785,5 +1 Y785,6 +1 Y790,0
  +1 Y790,1 +1 Y790,2 +1 Y790,3 +1 Y790,4 +1 Y790,5 +1 Y790,6 +1 Y794,0 +1 Y794,1 +1 Y794,2 +1 Y794,3
  +1 Y794,4 +1 Y794,5 +1 Y794,6 +1 Y797,0 +1 Y797,1 +1 Y797,2 +1 Y797,3 +1 Y797,4 +1 Y797,5 +1 Y797,6
  +1 Y799,0 +1 Y799,1 +1 Y799,2 +1 Y799,3 +1 Y799,4 +1 Y799,5 +1 Y799,6 +1 Y800,0 +1 Y800,1 +1 Y800,2
  +1 Y800,3 +1 Y800,4 +1 Y800,5 +1 Y800,6 +1 Y804,0 +1 Y804,1 +1 Y804,2 +1 Y804,3 +1 Y804,4 +1 Y804,5
  +1 Y804,6 +1 Y807,0 +1 Y807,1 +1 Y807,2 +1 Y807,3 +1 Y807,4 +1 Y807,5 +1 Y807,6 +1 Y809,0 +1 Y809,1
  +1 Y809,2 +1 Y809,3 +1 Y809,4 +1 Y809,5 +1 Y809,6 +1 Y810,0 +1 Y810,1 +1 Y810,2 +1 Y810,3 +1 Y810,4
  +1 Y810,5 +1 Y810,6 +1 Y813,0 +1 Y813,1 +1 Y813,2 +1 Y813,3 +1 Y813,4 +1 Y813,5 +1 Y813,6 +1 Y815,0
  +1 Y815,1 +1 Y815,2 +1 Y815,3 +1 Y815,4 +1 Y815,5 +1 Y815,6 +1 Y816,0 +1 Y816,1 +1 Y816,2 +1 Y816,3
  +1 Y816,4 +1 Y816,5 +1 Y816,6 +1 Y818,0 +1 Y818,1 +1 Y818,2 +1 Y818,3 +1 Y818,4 +1 Y818,5 +1 Y818,6
  +1 Y819,0 +1 Y819,1 +1 Y819,2 +1 Y819,3 +1 Y819,4 +1 Y819,5 +1 Y819,6 +1 Y820,0 +1 Y820,1 +1 Y820,2
  +1 Y820,3 +1 Y820,4 +1 Y820,5 +1 Y820,6 +1 Y824,0 +1 Y824,1 +1 Y824,2 +1 Y824,3 +1 Y824,4 +1 Y824,5
  +1 Y824,6 +1 Y827,0 +1 Y827,1 +1 Y827,2 +1 Y827,3 +1 Y827,4 +1 Y827,5 +1 Y827,6 +1 Y829,0 +1 Y829,1
  +1 Y829,2 +1 Y829,3 +1 Y829,4 +1 Y829,5 +1 Y829,6 +1 Y830,0 +1 Y830,1 +1 Y830,2 +1 Y830,3 +1 Y830,4
  +1 Y830,5 +1 Y830,6 +1 Y833,0 +1 Y833,1 +1 Y833,2 +1 Y833,3 +1 Y833,4 +1 Y833,5 +1 Y833,6 +1 Y835,0
  +1 Y835,1 +1 Y835,2 +1 Y835,3 +1 Y835,4 +1 Y835,5 +1 Y835,6 +1 Y836,0 +1 Y836,1 +1 Y836,2 +1 Y836,3
  +1 Y836,4 +1 Y836,5 +1 Y836,6 +1 Y838,0 +1 Y838,1 +1 Y838,2 +1 Y838,3 +1 Y838,4 +1 Y838,5 +1 Y838,6
  +1 Y839,0 +1 Y839,1 +1 Y839,2 +1 Y839,3 +1 Y839,4 +1 Y839,5 +1 Y839,6 +1 Y840,0 +1 Y840,1 +1 Y840,2
  +1 Y840,3 +1 Y840,4 +1 Y840,5 +1 Y840,6 +1 Y843,0 +1 Y843,1 +1 Y843,2 +1 Y843,3 +1 Y843,4 +1 Y843,5
  +1 Y843,6 +1 Y845,0 +1 Y845,1 +1 Y845,2 +1 Y845,3 +1 Y845,4 +1 Y845,5 +1 Y845,6 +1 Y846,0 +1 Y846,1
  +1 Y846,2 +1 Y846,3 +1 Y846,4 +1 Y846,5 +1 Y846,6 +1 Y848,0 +1 Y848,1 +1 Y848,2 +1 Y848,3 +1 Y848,4
  +1 Y848,5 +1 Y848,6 +1 Y849,0 +1 Y849,1 +1 Y849,2 +1 Y849,3 +1 Y849,4 +1 Y849,5 +1 Y849,6 +1 Y850,0
  +1 Y850,1 +1 Y850,2 +1 Y850,3 +1 Y850,4 +1 Y850,5 +1 Y850,6 +1 Y852,0 +1 Y852,1 +1 Y852,2 +1 Y852,3
  +1 Y852,4 +1 Y852,5 +1 Y852,6 +1 Y853,0 +1 Y853,1 +1 Y853,2 +1 Y853,3 +1 Y853,4 +1 Y853,5 +1 Y853,6
  +1 Y854,0 +1 Y854,1 +1 Y854,2 +1 Y854,3 +1 Y854,4 +1 Y854,5 +1 Y854,6 +1 Y855,0 +1 Y855,1 +1 Y855,2
  +1 Y855,3 +1 Y855,4 +1 Y855,5 +1 Y855,6 +1 Y858,0 +1 Y858,1 +1 Y858,2 +1 Y858,3 +1 Y858,4 +1 Y858,5
  +1 Y858,6 +1 Y860,0 +1 Y860,1 +1 Y860,2 +1 Y860,3 +1 Y860,4 +1 Y860,5 +1 Y860,6 +1 Y861,0 +1 Y861,1
  +1 Y861,2 +1 Y861,3 +1 Y861,4 +1 Y861,5 +1 Y861,6 +1 Y863,0 +1 Y863,1 +1 Y863,2 +1 Y863,3 +1 Y863,4
  +1 Y863,5 +1 Y863,6 +1 Y864,0 +1 Y864,1 +1 Y864,2 +1 Y864,3 +1 Y864,4 +1 Y864,5 +1 Y864,6 +1 Y865,0
  +1 Y865,1 +1 Y865,2 +1 Y865,3 +1 Y865,4 +1 Y865,5 +1 Y865,6 +1 Y867,0 +1 Y867,1 +1 Y867,2 +1 Y867,3
  +1 Y867,4 +1 Y867,5 +1 Y867,6 +1 Y868,0 +1 Y868,1 +1 Y868,2 +1 Y868,3 +1 Y868,4 +1 Y868,5 +1 Y868,6
  +1 Y869,0 +1 Y869,1 +1 Y869,2 +1 Y869,3 +1 Y869,4 +1 Y869,5 +1 Y869,6 +1 Y870,0 +1 Y870,1 +1 Y870,2
  +1 Y870,3 +1 Y870,4 +1 Y870,5 +1 Y870,6 +1 Y872,0 +1 Y872,1 +1 Y872,2 +1 Y872,3 +1 Y872,4 +1 Y872,5
  +1 Y872,6 +1 Y873,0 +1 Y873,1 +1 Y873,2 +1 Y873,3 +1 Y873,4 +1 Y873,5 +1 Y873,6 +1 Y874,0 +1 Y874,1
  +1 Y874,2 +1 Y874,3 +1 Y874,4 +1 Y874,5 +1 Y874,6 +1 Y875,0 +1 Y875,1 +1 Y875,2 +1 Y875,3 +1 Y875,4
  +1 Y875,5 +1 Y875,6 +1 Y876,0 +1 Y876,1 +1 Y876,2 +1 Y876,3 +1 Y876,4 +1 Y876,5 +1 Y876,6 +1 Y877,0
  +1 Y877,1 +1 Y877,2 +1 Y877,3 +1 Y877,4 +1 Y877,5 +1 Y877,6 +1 Y878,0 +1 Y878,1 +1 Y878,2 +1 Y878,3
  +1 Y878,4 +1 Y878,5 +1 Y878,6 = +1
 c51: +1 Y0,2 = +0
 c52: +1 Y0,3 = +0
 c53: +1 Y0,4 = +0
 c54: +1 Y0,5 = +0
 c55: +1 Y0,6 = +0
 c56: +1 Y1,2 = +0
 c57: +1 Y1,3 = +0
 c58: +1 Y1,4 = +0
 c59: +1 Y1,5 = +0
 c60: +1 Y1,6 = +0
 c61: +1 Y2,2 = +0
 c62: +1 Y2,3 = +0
 c63: +1 Y2,4 = +0
 c64: +1 Y2,5 = +0
 c65: +1 Y2,6 = +0
 c66: +1 Y3,2 = +0
 c67: +1 Y3,3 = +0
 c68: +1 Y3,4 = +0
 c69: +1 Y3,5 = +0
 c70: +1 Y3,6 = +0
 c71: +1 Y4,2 = +0
 c72: +1 Y4,3 = +0
 c73: +1 Y4,4 = +0
 c74: +1 Y4,5 = +0
 c75: +1 Y4,6 = +0
 c76: +1 Y5,2 = +0
 c77: +1 Y5,3 = +0
 c78: +1 Y5,4 = +0
 c79: +1 Y5,5 = +0
 c80: +1 Y5,6 = +0
 c81: +1 Y6,2 = +0
 c82: +1 Y6,3 = +0
 c83: +1 Y6,4 = +0
 c84: +1 Y6,5 = +0
 c85: +1 Y6,6 = +0
 c86: +1 Y7,2 = +0
 c87: +1 Y7,3 = +0
 c88: +1 Y7,4 = +0
 c89: +1 Y7,5 = +0
 c90: +1 Y7,6 = +0
 c91: +1 Y8,2 = +0
 c92: +1 Y8,3 = +0
 c93: +1 Y8,4 = +0
 c94: +1 Y8,5 = +0
 c95: +1 Y8,6 = +0
 c96: +1 Y9,2 = +0
 c97: +1 Y9,3 = +0
 c98: +1 Y9,4 = +0
 c99: +1 Y9,5 = +0
 c100: +1 Y9,6 = +0
 c101: +1 Y10,2 = +0
 c102: +1 Y10,3 = +0
 c103: +1 Y10,4 = +0
 c104: +1 Y10,5 = +0
 c105: +1 Y10,6 = +0
 c106: +1 Y11,2 = +0
 c107: +1 Y11,3 = +0
 c108: +1 Y11,4 = +0
 c109: +1 Y11,5 = +0
 c110: +1 Y11,6 = +0
 c111: +1 Y12,2 = +0
 c112: +1 Y12,3 = +0
 c113: +1 Y12,4 = +0
 c114: +1 Y12,5 = +0
 c115: +1 Y12,6 = +0
 c116: +1 Y13,2 = +0
 c117: +1 Y13,3 = +0
 c118: +1 Y13,4 = +0
 c119: +1 Y13,5 = +0
 c120: +1 Y13,6 = +0
 c121: +1 Y14,2 = +0
 c122: +1 Y14,3 = +0
 c123: +1 Y14,4 = +0
 c124: +1 Y14,5 = +0
 c125: +1 Y14,6 = +0
 c126: +1 Y15,2 = +0
 c127: +1 Y15,3 = +0
 c128: +1 Y15,4 = +0
 c129: +1 Y15,5 = +0
 c130: +1 Y15,6 = +0
 c131: +1 Y16,2 = +0
 c132: +1 Y16,3 = +0
 c133: +1 Y16,4 = +0
 c134: +1 Y16,5 = +0
 c135: +1 Y16,6 = +0
 c136: +1 Y17,2 = +0
 c137: +1 Y17,3 = +0
 c138: +1 Y17,4 = +0
 c139: +1 Y17,5 = +0
 c140: +1 Y17,6 = +0
 c141: +1 Y18,2 = +0
 c142: +1 Y18,3 = +0
 c143: +1 Y18,4 = +0
 c144: +1 Y18,5 = +0
 c145: +1 Y18,6 = +0
 c146: +1 Y19,2 = +0
 c147: +1 Y19,3 = +0
 c148: +1 Y19,4 = +0
 c149: +1 Y19,5 = +0
 c150: +1 Y19,6 = +0
 c151: +1 Y20,2 = +0
 c152: +1 Y20,3 = +0
 c153: +1 Y20,4 = +0
 c154: +1 Y20,5 = +0
 c155: +1 Y20,6 = +0
 c156: +1 Y21,2 = +0
 c157: +1 Y21,3 = +0
 c158: +1 Y21,4 = +0
 c159: +1 Y21,5 = +0
 c160: +1 Y21,6 = +0
 c161: +1 Y22,2 = +0
 c162: +1 Y22,3 = +0
 c163: +1 Y22,4 = +0
 c164: +1 Y22,5 = +0
 c165: +1 Y22,6 = +0
 c166: +1 Y23,2 = +0
 c167: +1 Y23,3 = +0
 c168: +1 Y23,4 = +0
 c169: +1 Y23,5 = +0
 c170: +1 Y23,6 = +0
 c171: +1 Y24,2 = +0
 c172: +1 Y24,3 = +0
 c173: +1 Y24,4 = +0
 c174: +1 Y24,5 = +0
 c175: +1 Y24,6 = +0
 c176: +1 Y25,2 = +0
 c177: +1 Y25,3 = +0
 c178: +1 Y25,4 = +0
 c179: +1 Y25,5 = +0
 c180: +1 Y25,6 = +0
 c181: +1 Y26,2 = +0
 c182: +1 Y26,3 = +0
 c183: +1 Y26,4 = +0
 c184: +1 Y26,5 = +0
 c185: +1 Y26,6 = +0
 c186: +1 Y27,2 = +0
 c187: +1 Y27,3 = +0
 c188: +1 Y27,4 = +0
 c189: +1 Y27,5 = +0
 c190: +1 Y27,6 = +0
 c191: +1 Y28,2 = +0
 c192: +1 Y28,3 = +0
 c193: +1 Y28,4 = +0
 c194: +1 Y28,5 = +0
 c195: +1 Y28,6 = +0
 c196: +1 Y29,2 = +0
 c197: +1 Y29,3 = +0
 c198: +1 Y29,4 = +0
 c199: +1 Y29,5 = +0
 c200: +1 Y29,6 = +0
 c201: +1 Y30,2 = +0
 c202: +1 Y30,3 = +0
 c203: +1 Y30,4 = +0
 c204: +1 Y30,5 = +0
 c205: +1 Y30,6 = +0
 c206: +1 Y31,2 = +0
 c207: +1 Y31,3 = +0
 c208: +1 Y31,4 = +0
 c209: +1 Y31,5 = +0
 c210: +1 Y31,6 = +0
 c211: +1 Y32,2 = +0
 c212: +1 Y32,3 = +0
 c213: +1 Y32,4 = +0
 c214: +1 Y32,5 = +0
 c215: +1 Y32,6 = +0
 c216: +1 Y33,2 = +0
 c217: +1 Y33,3 = +0
 c218: +1 Y33,4 = +0
 c219: +1 Y33,5 = +0
 c220: +1 Y33,6 = +0
 c221: +1 Y34,2 = +0
 c222: +1 Y34,3 = +0
 c223: +1 Y34,4 = +0
 c224: +1 Y34,5 = +0
 c225: +1 Y34,6 = +0
 c226: +1 Y35,2 = +0
 c227: +1 Y35,3 = +0
 c228: +1 Y35,4 = +0
 c229: +1 Y35,5 = +0
 c230: +1 Y35,6 = +0
 c231: +1 Y36,2 = +0
 c232: +1 Y36,3 = +0
 c233: +1 Y36,4 = +0
 c234: +1 Y36,5 = +0
 c235: +1 Y36,6 = +0
 c236: +1 Y37,2 = +0
 c237: +1 Y37,3 = +0
 c238: +1 Y37,4 = +0
 c239: +1 Y37,5 = +0
 c240: +1 Y37,6 = +0
 c241: +1 Y38,2 = +0
 c242: +1 Y38,3 = +0
 c243: +1 Y38,4 = +0
 c244: +1 Y38,5 = +0
 c245: +1 Y38,6 = +0
 c246: +1 Y39,2 = +0
 c247: +1 Y39,3 = +0
 c248: +1 Y39,4 = +0
 c249: +1 Y39,5 = +0
 c250: +1 Y39,6 = +0
 c251: +1 Y40,2 = +0
 c252: +1 Y40,3 = +0
 c253: +1 Y40,4 = +0
 c254: +1 Y40,5 = +0
 c255: +1 Y40,6 = +0
 c256: +1 Y41,2 = +0
 c257: +1 Y41,3 = +0
 c258: +1 Y41,4 = +0
 c259: +1 Y41,5 = +0
 c260: +1 Y41,6 = +0
 c261: +1 Y42,2 = +0
 c262: +1 Y42,3 = +0
 c263: +1 Y42,4 = +0
 c264: +1 Y42,5 = +0
 c265: +1 Y42,6 = +0
 c266: +1 Y43,2 = +0
 c267: +1 Y43,3 = +0
 c268: +1 Y43,4 = +0
 c269: +1 Y43,5 = +0
 c270: +1 Y43,6 = +0
 c271: +1 Y44,2 = +0
 c272: +1 Y44,3 = +0
 c273: +1 Y44,4 = +0
 c274: +1 Y44,5 = +0
 c275: +1 Y44,6 = +0
 c276: +1 Y45,2 = +0
 c277: +1 Y45,3 = +0
 c278: +1 Y45,4 = +0
 c279: +1 Y45,5 = +0
 c280: +1 Y45,6 = +0
 c281: +1 Y46,2 = +0
 c282: +1 Y46,3 = +0
 c283: +1 Y46,4 = +0
 c284: +1 Y46,5 = +0
 c285: +1 Y46,6 = +0
 c286: +1 Y47,2 = +0
 c287: +1 Y47,3 = +0
 c288: +1 Y47,4 = +0
 c289: +1 Y47,5 = +0
 c290: +1 Y47,6 = +0
 c291: +1 Y48,2 = +0
 c292: +1 Y48,3 = +0
 c293: +1 Y48,4 = +0
 c294: +1 Y48,5 = +0
 c295: +1 Y48,6 = +0
 c296: +1 Y49,2 = +0
 c297: +1 Y49,3 = +0
 c298: +1 Y49,4 = +0
 c299: +1 Y49,5 = +0
 c300: +1 Y49,6 = +0
 c301: +1 Y50,2 = +0
 c302: +1 Y50,3 = +0
 c303: +1 Y50,4 = +0
 c304: +1 Y50,5 = +0
 c305: +1 Y50,6 = +0
 c306: +1 Y51,2 = +0
 c307: +1 Y51,3 = +0
 c308: +1 Y51,4 = +0
 c309: +1 Y51,5 = +0
 c310: +1 Y51,6 = +0
 c311: +1 Y52,2 = +0
 c312: +1 Y52,3 = +0
 c313: +1 Y52,4 = +0
 c314: +1 Y52,5 = +0
 c315: +1 Y52,6 = +0
 c316: +1 Y53,2 = +0
 c317: +1 Y53,3 = +0
 c318: +1 Y53,4 = +0
 c319: +1 Y53,5 = +0
 c320: +1 Y53,6 = +0
 c321: +1 Y54,2 = +0
 c322: +1 Y54,3 = +0
 c323: +1 Y54,4 = +0
 c324: +1 Y54,5 = +0
 c325: +1 Y54,6 = +0
 c326: +1 Y55,2 = +0
 c327: +1 Y55,3 = +0
 c328: +1 Y55,4 = +0
 c329: +1 Y55,5 = +0
 c330: +1 Y55,6 = +0
 c331: +1 Y56,2 = +0
 c332: +1 Y56,3 = +0
 c333: +1 Y56,4 = +0
 c334: +1 Y56,5 = +0
 c335: +1 Y56,6 = +0
 c336: +1 Y57,2 = +0
 c337: +1 Y57,3 = +0
 c338: +1 Y57,4 = +0
 c339: +1 Y57,5 = +0
 c340: +1 Y57,6 = +0
 c341: +1 Y58,2 = +0
 c342: +1 Y58,3 = +0
 c343: +1 Y58,4 = +0
 c344: +1 Y58,5 = +0
 c345: +1 Y58,6 = +0
 c346: +1 Y59,2 = +0
 c347: +1 Y59,3 = +0
 c348: +1 Y59,4 = +0
 c349: +1 Y59,5 = +0
 c350: +1 Y59,6 = +0
 c351: +1 Y60,2 = +0
 c352: +1 Y60,3 = +0
 c353: +1 Y60,4 = +0
 c354: +1 Y60,5 = +0
 c355: +1 Y60,6 = +0
 c356: +1 Y61,2 = +0
 c357: +1 Y61,3 = +0
 c358: +1 Y61,4 = +0
 c359: +1 Y61,5 = +0
 c360: +1 Y61,6 = +0
 c361: +1 Y62,2 = +0
 c362: +1 Y62,3 = +0
 c363: +1 Y62,4 = +0
 c364: +1 Y62,5 = +0
 c365: +1 Y62,6 = +0
 c366: +1 Y63,2 = +0
 c367: +1 Y63,3 = +0
 c368: +1 Y63,4 = +0
 c369: +1 Y63,5 = +0
 c370: +1 Y63,6 = +0
 c371: +1 Y64,2 = +0
 c372: +1 Y64,3 = +0
 c373: +1 Y64,4 = +0
 c374: +1 Y64,5 = +0
 c375: +1 Y64,6 = +0
 c376: +1 Y65,2 = +0
 c377: +1 Y65,3 = +0
 c378: +1 Y65,4 = +0
 c379: +1 Y65,5 = +0
 c380: +1 Y65,6 = +0
 c381: +1 Y66,2 = +0
 c382: +1 Y66,3 = +0
 c383: +1 Y66,4 = +0
 c384: +1 Y66,5 = +0
 c385: +1 Y66,6 = +0
 c386: +1 Y67,2 = +0
 c387: +1 Y67,3 = +0
 c388: +1 Y67,4 = +0
 c389: +1 Y67,5 = +0
 c390: +1 Y67,6 = +0
 c391: +1 Y68,2 = +0
 c392: +1 Y68,3 = +0
 c393: +1 Y68,4 = +0
 c394: +1 Y68,5 = +0
 c395: +1 Y68,6 = +0
 c396: +1 Y69,2 = +0
 c397: +1 Y69,3 = +0
 c398: +1 Y69,4 = +0
 c399: +1 Y69,5 = +0
 c400: +1 Y69,6 = +0
 c401: +1 Y70,2 = +0
 c402: +1 Y70,3 = +0
 c403: +1 Y70,4 = +0
 c404: +1 Y70,5 = +0
 c405: +1 Y70,6 = +0
 c406: +1 Y71,2 = +0
 c407: +1 Y71,3 = +0
 c408: +1 Y71,4 = +0
 c409: +1 Y71,5 = +0
 c410: +1 Y71,6 = +0
 c411: +1 Y72,2 = +0
 c412: +1 Y72,3 = +0
 c413: +1 Y72,4 = +0
 c414: +1 Y72,5 = +0
 c415: +1 Y72,6 = +0
 c416: +1 Y73,2 = +0
 c417: +1 Y73,3 = +0
 c418: +1 Y73,4 = +0
 c419: +1 Y73,5 = +0
 c420: +1 Y73,6 = +0
 c421: +1 Y74,2 = +0
 c422: +1 Y74,3 = +0
 c423: +1 Y74,4 = +0
 c424: +1 Y74,5 = +0
 c425: +1 Y74,6 = +0
 c426: +1 Y75,2 = +0
 c427: +1 Y75,3 = +0
 c428: +1 Y75,4 = +0
 c429: +1 Y75,5 = +0
 c430: +1 Y75,6 = +0
 c431: +1 Y76,2 = +0
 c432: +1 Y76,3 = +0
 c433: +1 Y76,4 = +0
 c434: +1 Y76,5 = +0
 c435: +1 Y76,6 = +0
 c436: +1 Y77,2 = +0
 c437: +1 Y77,3 = +0
 c438: +1 Y77,4 = +0
 c439: +1 Y77,5 = +0
 c440: +1 Y77,6 = +0
 c441: +1 Y78,2 = +0
 c442: +1 Y78,3 = +0
 c443: +1 Y78,4 = +0
 c444: +1 Y78,5 = +0
 c445: +1 Y78,6 = +0
 c446: +1 Y79,2 = +0
 c447: +1 Y79,3 = +0
 c448: +1 Y79,4 = +0
 c449: +1 Y79,5 = +0
 c450: +1 Y79,6 = +0
 c451: +1 Y80,2 = +0
 c452: +1 Y80,3 = +0
 c453: +1 Y80,4 = +0
 c454: +1 Y80,5 = +0
 c455: +1 Y80,6 = +0
 c456: +1 Y81,2 = +0
 c457: +1 Y81,3 = +0
 c458: +1 Y81,4 = +0
 c459: +1 Y81,5 = +0
 c460: +1 Y81,6 = +0
 c461: +1 Y82,2 = +0
 c462: +1 Y82,3 = +0
 c463: +1 Y82,4 = +0
 c464: +1 Y82,5 = +0
 c465: +1 Y82,6 = +0
 c466: +1 Y83,2 = +0
 c467: +1 Y83,3 = +0
 c468: +1 Y83,4 = +0
 c469: +1 Y83,5 = +0
 c470: +1 Y83,6 = +0
 c471: +1 Y84,2 = +0
 c472: +1 Y84,3 = +0
 c473: +1 Y84,4 = +0
 c474: +1 Y84,5 = +0
 c475: +1 Y84,6 = +0
 c476: +1 Y85,2 = +0
 c477: +1 Y85,3 = +0
 c478: +1 Y85,4 = +0
 c479: +1 Y85,5 = +0
 c480: +1 Y85,6 = +0
 c481: +1 Y86,2 = +0
 c482: +1 Y86,3 = +0
 c483: +1 Y86,4 = +0
 c484: +1 Y86,5 = +0
 c485: +1 Y86,6 = +0
 c486: +1 Y87,2 = +0
 c487: +1 Y87,3 = +0
 c488: +1 Y87,4 = +0
 c489: +1 Y87,5 = +0
 c490: +1 Y87,6 = +0
 c491: +1 Y88,2 = +0
 c492: +1 Y88,3 = +0
 c493: +1 Y88,4 = +0
 c494: +1 Y88,5 = +0
 c495: +1 Y88,6 = +0
 c496: +1 Y89,2 = +0
 c497: +1 Y89,3 = +0
 c498: +1 Y89,4 = +0
 c499: +1 Y89,5 = +0
 c500: +1 Y89,6 = +0
 c501: +1 Y90,2 = +0
 c502: +1 Y90,3 = +0
 c503: +1 Y90,4 = +0
 c504: +1 Y90,5 = +0
 c505: +1 Y90,6 = +0
 c506: +1 Y91,2 = +0
 c507: +1 Y91,3 = +0
 c508: +1 Y91,4 = +0
 c509: +1 Y91,5 = +0
 c510: +1 Y91,6 = +0
 c511: +1 Y92,2 = +0
 c512: +1 Y92,3 = +0
 c513: +1 Y92,4 = +0
 c514: +1 Y92,5 = +0
 c515: +1 Y92,6 = +0
 c516: +1 Y93,2 = +0
 c517: +1 Y93,3 = +0
 c518: +1 Y93,4 = +0
 c519: +1 Y93,5 = +0
 c520: +1 Y93,6 = +0
 c521: +1 Y94,2 = +0
 c522: +1 Y94,3 = +0
 c523: +1 Y94,4 = +0
 c524: +1 Y94,5 = +0
 c525: +1 Y94,6 = +0
 c526: +1 Y95,2 = +0
 c527: +1 Y95,3 = +0
 c528: +1 Y95,4 = +0
 c529: +1 Y95,5 = +0
 c530: +1 Y95,6 = +0
 c531: +1 Y96,2 = +0
 c532: +1 Y96,3 = +0
 c533: +1 Y96,4 = +0
 c534: +1 Y96,5 = +0
 c535: +1 Y96,6 = +0
 c536: +1 Y97,2 = +0
 c537: +1 Y97,3 = +0
 c538: +1 Y97,4 = +0
 c539: +1 Y97,5 = +0
 c540: +1 Y97,6 = +0
 c541: +1 Y98,2 = +0
 c542: +1 Y98,3 = +0
 c543: +1 Y98,4 = +0
 c544: +1 Y98,5 = +0
 c545: +1 Y98,6 = +0
 c546: +1 Y99,2 = +0
 c547: +1 Y99,3 = +0
 c548: +1 Y99,4 = +0
 c549: +1 Y99,5 = +0
 c550: +1 Y99,6 = +0
 c551: +1 Y100,2 = +0
 c552: +1 Y100,3 = +0
 c553: +1 Y100,4 = +0
 c554: +1 Y100,5 = +0
 c555: +1 Y100,6 = +0
 c556: +1 Y101,2 = +0
 c557: +1 Y101,3 = +0
 c558: +1 Y101,4 = +0
 c559: +1 Y101,5 = +0
 c560: +1 Y101,6 = +0
 c561: +1 Y102,2 = +0
 c562: +1 Y102,3 = +0
 c563: +1 Y102,4 = +0
 c564: +1 Y102,5 = +0
 c565: +1 Y102,6 = +0
 c566: +1 Y103,2 = +0
 c567: +1 Y103,3 = +0
 c568: +1 Y103,4 = +0
 c569: +1 Y103,5 = +0
 c570: +1 Y103,6 = +0
 c571: +1 Y104,2 = +0
 c572: +1 Y104,3 = +0
 c573: +1 Y104,4 = +0
 c574: +1 Y104,5 = +0
 c575: +1 Y104,6 = +0
 c576: +1 Y105,2 = +0
 c577: +1 Y105,3 = +0
 c578: +1 Y105,4 = +0
 c579: +1 Y105,5 = +0
 c580: +1 Y105,6 = +0
 c581: +1 Y106,2 = +0
 c582: +1 Y106,3 = +0
 c583: +1 Y106,4 = +0
 c584: +1 Y106,5 = +0
 c585: +1 Y106,6 = +0
 c586: +1 Y107,2 = +0
 c587: +1 Y107,3 = +0
 c588: +1 Y107,4 = +0
 c589: +1 Y107,5 = +0
 c590: +1 Y107,6 = +0
 c591: +1 Y108,2 = +0
 c592: +1 Y108,3 = +0
 c593: +1 Y108,4 = +0
 c594: +1 Y108,5 = +0
 c595: +1 Y108,6 = +0
 c596: +1 Y109,2 = +0
 c597: +1 Y109,3 = +0
 c598: +1 Y109,4 = +0
 c599: +1 Y109,5 = +0
 c600: +1 Y109,6 = +0
 c601: +1 Y110,2 = +0
 c602: +1 Y110,3 = +0
 c603: +1 Y110,4 = +0
 c604: +1 Y110,5 = +0
 c605: +1 Y110,6 = +0
 c606: +1 Y111,2 = +0
 c607: +1 Y111,3 = +0
 c608: +1 Y111,4 = +0
 c609: +1 Y111,5 = +0
 c610: +1 Y111,6 = +0
 c611: +1 Y112,2 = +0
 c612: +1 Y112,3 = +0
 c613: +1 Y112,4 = +0
 c614: +1 Y112,5 = +0
 c615: +1 Y112,6 = +0
 c616: +1 Y113,2 = +0
 c617: +1 Y113,3 = +0
 c618: +1 Y113,4 = +0
 c619: +1 Y113,5 = +0
 c620: +1 Y113,6 = +0
 c621: +1 Y114,2 = +0
 c622: +1 Y114,3 = +0
 c623: +1 Y114,4 = +0
 c624: +1 Y114,5 = +0
 c625: +1 Y114,6 = +0
 c626: +1 Y115,2 = +0
 c627: +1 Y115,3 = +0
 c628: +1 Y115,4 = +0
 c629: +1 Y115,5 = +0
 c630: +1 Y115,6 = +0
 c631: +1 Y116,2 = +0
 c632: +1 Y116,3 = +0
 c633: +1 Y116,4 = +0
 c634: +1 Y116,5 = +0
 c635: +1 Y116,6 = +0
 c636: +1 Y117,2 = +0
 c637: +1 Y117,3 = +0
 c638: +1 Y117,4 = +0
 c639: +1 Y117,5 = +0
 c640: +1 Y117,6 = +0
 c641: +1 Y118,2 = +0
 c642: +1 Y118,3 = +0
 c643: +1 Y118,4 = +0
 c644: +1 Y118,5 = +0
 c645: +1 Y118,6 = +0
 c646: +1 Y119,2 = +0
 c647: +1 Y119,3 = +0
 c648: +1 Y119,4 = +0
 c649: +1 Y119,5 = +0
 c650: +1 Y119,6 = +0
 c651: +1 Y120,2 = +0
 c652: +1 Y120,3 = +0
 c653: +1 Y120,4 = +0
 c654: +1 Y120,5 = +0
 c655: +1 Y120,6 = +0
 c656: +1 Y121,2 = +0
 c657: +1 Y121,3 = +0
 c658: +1 Y121,4 = +0
 c659: +1 Y121,5 = +0
 c660: +1 Y121,6 = +0
 c661: +1 Y122,2 = +0
 c662: +1 Y122,3 = +0
 c663: +1 Y122,4 = +0
 c664: +1 Y122,5 = +0
 c665: +1 Y122,6 = +0
 c666: +1 Y123,2 = +0
 c667: +1 Y123,3 = +0
 c668: +1 Y123,4 = +0
 c669: +1 Y123,5 = +0
 c670: +1 Y123,6 = +0
 c671: +1 Y124,2 = +0
 c672: +1 Y124,3 = +0
 c673: +1 Y124,4 = +0
 c674: +1 Y124,5 = +0
 c675: +1 Y124,6 = +0
 c676: +1 Y125,2 = +0
 c677: +1 Y125,3 = +0
 c678: +1 Y125,4 = +0
 c679: +1 Y125,5 = +0
 c680: +1 Y125,6 = +0
 c681: +1 Y126,2 = +0
 c682: +1 Y126,3 = +0
 c683: +1 Y126,4 = +0
 c684: +1 Y126,5 = +0
 c685: +1 Y126,6 = +0
 c686: +1 Y127,2 = +0
 c687: +1 Y127,3 = +0
 c688: +1 Y127,4 = +0
 c689: +1 Y127,5 = +0
 c690: +1 Y127,6 = +0
 c691: +1 Y128,2 = +0
 c692: +1 Y128,3 = +0
 c693: +1 Y128,4 = +0
 c694: +1 Y128,5 = +0
 c695: +1 Y128,6 = +0
 c696: +1 Y129,2 = +0
 c697: +1 Y129,3 = +0
 c698: +1 Y129,4 = +0
 c699: +1 Y129,5 = +0
 c700: +1 Y129,6 = +0
 c701: +1 Y130,2 = +0
 c702: +1 Y130,3 = +0
 c703: +1 Y130,4 = +0
 c704: +1 Y130,5 = +0
 c705: +1 Y130,6 = +0
 c706: +1 Y131,2 = +0
 c707: +1 Y131,3 = +0
 c708: +1 Y131,4 = +0
 c709: +1 Y131,5 = +0
 c710: +1 Y131,6 = +0
 c711: +1 Y132,2 = +0
 c712: +1 Y132,3 = +0
 c713: +1 Y132,4 = +0
 c714: +1 Y132,5 = +0
 c715: +1 Y132,6 = +0
 c716: +1 Y133,2 = +0
 c717: +1 Y133,3 = +0
 c718: +1 Y133,4 = +0
 c719: +1 Y133,5 = +0
 c720: +1 Y133,6 = +0
 c721: +1 Y134,2 = +0
 c722: +1 Y134,3 = +0
 c723: +1 Y134,4 = +0
 c724: +1 Y134,5 = +0
 c725: +1 Y134,6 = +0
 c726: +1 Y135,2 = +0
 c727: +1 Y135,3 = +0
 c728: +1 Y135,4 = +0
 c729: +1 Y135,5 = +0
 c730: +1 Y135,6 = +0
 c731: +1 Y136,2 = +0
 c732: +1 Y136,3 = +0
 c733: +1 Y136,4 = +0
 c734: +1 Y136,5 = +0
 c735: +1 Y136,6 = +0
 c736: +1 Y137,2 = +0
 c737: +1 Y137,3 = +0
 c738: +1 Y137,4 = +0
 c739: +1 Y137,5 = +0
 c740: +1 Y137,6 = +0
 c741: +1 Y138,2 = +0
 c742: +1 Y138,3 = +0
 c743: +1 Y138,4 = +0
 c744: +1 Y138,5 = +0
 c745: +1 Y138,6 = +0
 c746: +1 Y139,2 = +0
 c747: +1 Y139,3 = +0
 c748: +1 Y139,4 = +0
 c749: +1 Y139,5 = +0
 c750: +1 Y139,6 = +0
 c751: +1 Y140,2 = +0
 c752: +1 Y140,3 = +0
 c753: +1 Y140,4 = +0
 c754: +1 Y140,5 = +0
 c755: +1 Y140,6 = +0
 c756: +1 Y141,2 = +0
 c757: +1 Y141,3 = +0
 c758: +1 Y141,4 = +0
 c759: +1 Y141,5 = +0
 c760: +1 Y141,6 = +0
 c761: +1 Y142,2 = +0
 c762: +1 Y142,3 = +0
 c763: +1 Y142,4 = +0
 c764: +1 Y142,5 = +0
 c765: +1 Y142,6 = +0
 c766: +1 Y143,2 = +0
 c767: +1 Y143,3 = +0
 c768: +1 Y143,4 = +0
 c769: +1 Y143,5 = +0
 c770: +1 Y143,6 = +0
 c771: +1 Y144,2 = +0
 c772: +1 Y144,3 = +0
 c773: +1 Y144,4 = +0
 c774: +1 Y144,5 = +0
 c775: +1 Y144,6 = +0
 c776: +1 Y145,2 = +0
 c777: +1 Y145,3 = +0
 c778: +1 Y145,4 = +0
 c779: +1 Y145,5 = +0
 c780: +1 Y145,6 = +0
 c781: +1 Y146,2 = +0
 c782: +1 Y146,3 = +0
 c783: +1 Y146,4 = +0
 c784: +1 Y146,5 = +0
 c785: +1 Y146,6 = +0
 c786: +1 Y147,2 = +0
 c787: +1 Y147,3 = +0
 c788: +1 Y147,4 = +0
 c789: +1 Y147,5 = +0
 c790: +1 Y147,6 = +0
 c791: +1 Y148,2 = +0
 c792: +1 Y148,3 = +0
 c793: +1 Y148,4 = +0
 c794: +1 Y148,5 = +0
 c795: +1 Y148,6 = +0
 c796: +1 Y149,2 = +0
 c797: +1 Y149,3 = +0
 c798: +1 Y149,4 = +0
 c799: +1 Y149,5 = +0
 c800: +1 Y149,6 = +0
 c801: +1 Y150,2 = +0
 c802: +1 Y150,3 = +0
 c803: +1 Y150,4 = +0
 c804: +1 Y150,5 = +0
 c805: +1 Y150,6 = +0
 c806: +1 Y151,2 = +0
 c807: +1 Y151,3 = +0
 c808: +1 Y151,4 = +0
 c809: +1 Y151,5 = +0
 c810: +1 Y151,6 = +0
 c811: +1 Y152,2 = +0
 c812: +1 Y152,3 = +0
 c813: +1 Y152,4 = +0
 c814: +1 Y152,5 = +0
 c815: +1 Y152,6 = +0
 c816: +1 Y153,2 = +0
 c817: +1 Y153,3 = +0
 c818: +1 Y153,4 = +0
 c819: +1 Y153,5 = +0
 c820: +1 Y153,6 = +0
 c821: +1 Y154,2 = +0
 c822: +1 Y154,3 = +0
 c823: +1 Y154,4 = +0
 c824: +1 Y154,5 = +0
 c825: +1 Y154,6 = +0
 c826: +1 Y155,2 = +0
 c827: +1 Y155,3 = +0
 c828: +1 Y155,4 = +0
 c829: +1 Y155,5 = +0
 c830: +1 Y155,6 = +0
 c831: +1 Y156,2 = +0
 c832: +1 Y156,3 = +0
 c833: +1 Y156,4 = +0
 c834: +1 Y156,5 = +0
 c835: +1 Y156,6 = +0
 c836: +1 Y157,2 = +0
 c837: +1 Y157,3 = +0
 c838: +1 Y157,4 = +0
 c839: +1 Y157,5 = +0
 c840: +1 Y157,6 = +0
 c841: +1 Y158,2 = +0
 c842: +1 Y158,3 = +0
 c843: +1 Y158,4 = +0
 c844: +1 Y158,5 = +0
 c845: +1 Y158,6 = +0
 c846: +1 Y159,2 = +0
 c847: +1 Y159,3 = +0
 c848: +1 Y159,4 = +0
 c849: +1 Y159,5 = +0
 c850: +1 Y159,6 = +0
 c851: +1 Y160,2 = +0
 c852: +1 Y160,3 = +0
 c853: +1 Y160,4 = +0
 c854: +1 Y160,5 = +0
 c855: +1 Y160,6 = +0
 c856: +1 Y161,2 = +0
 c857: +1 Y161,3 = +0
 c858: +1 Y161,4 = +0
 c859: +1 Y161,5 = +0
 c860: +1 Y161,6 = +0
 c861: +1 Y162,2 = +0
 c862: +1 Y162,3 = +0
 c863: +1 Y162,4 = +0
 c864: +1 Y162,5 = +0
 c865: +1 Y162,6 = +0
 c866: +1 Y163,2 = +0
 c867: +1 Y163,3 = +0
 c868: +1 Y163,4 = +0
 c869: +1 Y163,5 = +0
 c870: +1 Y163,6 = +0
 c871: +1 Y164,2 = +0
 c872: +1 Y164,3 = +0
 c873: +1 Y164,4 = +0
 c874: +1 Y164,5 = +0
 c875: +1 Y164,6 = +0
 c876: +1 Y165,2 = +0
 c877: +1 Y165,3 = +0
 c878: +1 Y165,4 = +0
 c879: +1 Y165,5 = +0
 c880: +1 Y165,6 = +0
 c881: +1 Y166,2 = +0
 c882: +1 Y166,3 = +0
 c883: +1 Y166,4 = +0
 c884: +1 Y166,5 = +0
 c885: +1 Y166,6 = +0
 c886: +1 Y167,2 = +0
 c887: +1 Y167,3 = +0
 c888: +1 Y167,4 = +0
 c889: +1 Y167,5 = +0
 c890: +1 Y167,6 = +0
 c891: +1 Y168,2 = +0
 c892: +1 Y168,3 = +0
 c893: +1 Y168,4 = +0
 c894: +1 Y168,5 = +0
 c895: +1 Y168,6 = +0
 c896: +1 Y169,2 = +0
 c897: +1 Y169,3 = +0
 c898: +1 Y169,4 = +0
 c899: +1 Y169,5 = +0
 c900: +1 Y169,6 = +0
 c901: +1 Y170,2 = +0
 c902: +1 Y170,3 = +0
 c903: +1 Y170,4 = +0
 c904: +1 Y170,5 = +0
 c905: +1 Y170,6 = +0
 c906: +1 Y171,2 = +0
 c907: +1 Y171,3 = +0
 c908: +1 Y171,4 = +0
 c909: +1 Y171,5 = +0
 c910: +1 Y171,6 = +0
 c911: +1 Y172,2 = +0
 c912: +1 Y172,3 = +0
 c913: +1 Y172,4 = +0
 c914: +1 Y172,5 = +0
 c915: +1 Y172,6 = +0
 c916: +1 Y173,2 = +0
 c917: +1 Y173,3 = +0
 c918: +1 Y173,4 = +0
 c919: +1 Y173,5 = +0
 c920: +1 Y173,6 = +0
 c921: +1 Y174,2 = +0
 c922: +1 Y174,3 = +0
 c923: +1 Y174,4 = +0
 c924: +1 Y174,5 = +0
 c925: +1 Y174,6 = +0
 c926: +1 Y175,2 = +0
 c927: +1 Y175,3 = +0
 c928: +1 Y175,4 = +0
 c929: +1 Y175,5 = +0
 c930: +1 Y175,6 = +0
 c931: +1 Y176,2 = +0
 c932: +1 Y176,3 = +0
 c933: +1 Y176,4 = +0
 c934: +1 Y176,5 = +0
 c935: +1 Y176,6 = +0
 c936: +1 Y177,2 = +0
 c937: +1 Y177,3 = +0
 c938: +1 Y177,4 = +0
 c939: +1 Y177,5 = +0
 c940: +1 Y177,6 = +0
 c941: +1 Y178,2 = +0
 c942: +1 Y178,3 = +0
 c943: +1 Y178,4 = +0
 c944: +1 Y178,5 = +0
 c945: +1 Y178,6 = +0
 c946: +1 Y179,2 = +0
 c947: +1 Y179,3 = +0
 c948: +1 Y179,4 = +0
 c949: +1 Y179,5 = +0
 c950: +1 Y179,6 = +0
 c951: +1 Y180,2 = +0
 c952: +1 Y180,3 = +0
 c953: +1 Y180,4 = +0
 c954: +1 Y180,5 = +0
 c955: +1 Y180,6 = +0
 c956: +1 Y181,2 = +0
 c957: +1 Y181,3 = +0
 c958: +1 Y181,4 = +0
 c959: +1 Y181,5 = +0
 c960: +1 Y181,6 = +0
 c961: +1 Y182,2 = +0
 c962: +1 Y182,3 = +0
 c963: +1 Y182,4 = +0
 c964: +1 Y182,5 = +0
 c965: +1 Y182,6 = +0
 c966: +1 Y183,2 = +0
 c967: +1 Y183,3 = +0
 c968: +1 Y183,4 = +0
 c969: +1 Y183,5 = +0
 c970: +1 Y183,6 = +0
 c971: +1 Y184,2 = +0
 c972: +1 Y184,3 = +0
 c973: +1 Y184,4 = +0
 c974: +1 Y184,5 = +0
 c975: +1 Y184,6 = +0
 c976: +1 Y185,2 = +0
 c977: +1 Y185,3 = +0
 c978: +1 Y185,4 = +0
 c979: +1 Y185,5 = +0
 c980: +1 Y185,6 = +0
 c981: +1 Y186,2 = +0
 c982: +1 Y186,3 = +0
 c983: +1 Y186,4 = +0
 c984: +1 Y186,5 = +0
 c985: +1 Y186,6 = +0
 c986: +1 Y187,2 = +0
 c987: +1 Y187,3 = +0
 c988: +1 Y187,4 = +0
 c989: +1 Y187,5 = +0
 c990: +1 Y187,6 = +0
 c991: +1 Y188,2 = +0
 c992: +1 Y188,3 = +0
 c993: +1 Y188,4 = +0
 c994: +1 Y188,5 = +0
 c995: +1 Y188,6 = +0
 c996: +1 Y189,2 = +0
 c997: +1 Y189,3 = +0
 c998: +1 Y189,4 = +0
 c999: +1 Y189,5 = +0
 c1000: +1 Y189,6 = +0
 c1001: +1 Y190,2 = +0
 c1002: +1 Y190,3 = +0
 c1003: +1 Y190,4 = +0
 c1004: +1 Y190,5 = +0
 c1005: +1 Y190,6 = +0
 c1006: +1 Y191,2 = +0
 c1007: +1 Y191,3 = +0
 c1008: +1 Y191,4 = +0
 c1009: +1 Y191,5 = +0
 c1010: +1 Y191,6 = +0
 c1011: +1 Y192,2 = +0
 c1012: +1 Y192,3 = +0
 c1013: +1 Y192,4 = +0
 c1014: +1 Y192,5 = +0
 c1015: +1 Y192,6 = +0
 c1016: +1 Y193,2 = +0
 c1017: +1 Y193,3 = +0
 c1018: +1 Y193,4 = +0
 c1019: +1 Y193,5 = +0
 c1020: +1 Y193,6 = +0
 c1021: +1 Y194,2 = +0
 c1022: +1 Y194,3 = +0
 c1023: +1 Y194,4 = +0
 c1024: +1 Y194,5 = +0
 c1025: +1 Y194,6 = +0
 c1026: +1 Y195,2 = +0
 c1027: +1 Y195,3 = +0
 c1028: +1 Y195,4 = +0
 c1029: +1 Y195,5 = +0
 c1030: +1 Y195,6 = +0
 c1031: +1 Y196,2 = +0
 c1032: +1 Y196,3 = +0
 c1033: +1 Y196,4 = +0
 c1034: +1 Y196,5 = +0
 c1035: +1 Y196,6 = +0
 c1036: +1 Y197,2 = +0
 c1037: +1 Y197,3 = +0
 c1038: +1 Y197,4 = +0
 c1039: +1 Y197,5 = +0
 c1040: +1 Y197,6 = +0
 c1041: +1 Y198,2 = +0
 c1042: +1 Y198,3 = +0
 c1043: +1 Y198,4 = +0
 c1044: +1 Y198,5 = +0
 c1045: +1 Y198,6 = +0
 c1046: +1 Y199,2 = +0
 c1047: +1 Y199,3 = +0
 c1048: +1 Y199,4 = +0
 c1049: +1 Y199,5 = +0
 c1050: +1 Y199,6 = +0
 c1051: +1 Y200,2 = +0
 c1052: +1 Y200,3 = +0
 c1053: +1 Y200,4 = +0
 c1054: +1 Y200,5 = +0
 c1055: +1 Y200,6 = +0
 c1056: +1 Y201,2 = +0
 c1057: +1 Y201,3 = +0
 c1058: +1 Y201,4 = +0
 c1059: +1 Y201,5 = +0
 c1060: +1 Y201,6 = +0
 c1061: +1 Y202,2 = +0
 c1062: +1 Y202,3 = +0
 c1063: +1 Y202,4 = +0
 c1064: +1 Y202,5 = +0
 c1065: +1 Y202,6 = +0
 c1066: +1 Y203,2 = +0
 c1067: +1 Y203,3 = +0
 c1068: +1 Y203,4 = +0
 c1069: +1 Y203,5 = +0
 c1070: +1 Y203,6 = +0
 c1071: +1 Y204,2 = +0
 c1072: +1 Y204,3 = +0
 c1073: +1 Y204,4 = +0
 c1074: +1 Y204,5 = +0
 c1075: +1 Y204,6 = +0
 c1076: +1 Y205,2 = +0
 c1077: +1 Y205,3 = +0
 c1078: +1 Y205,4 = +0
 c1079: +1 Y205,5 = +0
 c1080: +1 Y205,6 = +0
 c1081: +1 Y206,2 = +0
 c1082: +1 Y206,3 = +0
 c1083: +1 Y206,4 = +0
 c1084: +1 Y206,5 = +0
 c1085: +1 Y206,6 = +0
 c1086: +1 Y207,2 = +0
 c1087: +1 Y207,3 = +0
 c1088: +1 Y207,4 = +0
 c1089: +1 Y207,5 = +0
 c1090: +1 Y207,6 = +0
 c1091: +1 Y208,2 = +0
 c1092: +1 Y208,3 = +0
 c1093: +1 Y208,4 = +0
 c1094: +1 Y208,5 = +0
 c1095: +1 Y208,6 = +0
 c1096: +1 Y209,2 = +0
 c1097: +1 Y209,3 = +0
 c1098: +1 Y209,4 = +0
 c1099: +1 Y209,5 = +0
 c1100: +1 Y209,6 = +0
 c1101: +1 Y210,2 = +0
 c1102: +1 Y210,3 = +0
 c1103: +1 Y210,4 = +0
 c1104: +1 Y210,5 = +0
 c1105: +1 Y210,6 = +0
 c1106: +1 Y211,2 = +0
 c1107: +1 Y211,3 = +0
 c1108: +1 Y211,4 = +0
 c1109: +1 Y211,5 = +0
 c1110: +1 Y211,6 = +0
 c1111: +1 Y212,2 = +0
 c1112: +1 Y212,3 = +0
 c1113: +1 Y212,4 = +0
 c1114: +1 Y212,5 = +0
 c1115: +1 Y212,6 = +0
 c1116: +1 Y213,2 = +0
 c1117: +1 Y213,3 = +0
 c1118: +1 Y213,4 = +0
 c1119: +1 Y213,5 = +0
 c1120: +1 Y213,6 = +0
 c1121: +1 Y214,2 = +0
 c1122: +1 Y214,3 = +0
 c1123: +1 Y214,4 = +0
 c1124: +1 Y214,5 = +0
 c1125: +1 Y214,6 = +0
 c1126: +1 Y215,2 = +0
 c1127: +1 Y215,3 = +0
 c1128: +1 Y215,4 = +0
 c1129: +1 Y215,5 = +0
 c1130: +1 Y215,6 = +0
 c1131: +1 Y216,2 = +0
 c1132: +1 Y216,3 = +0
 c1133: +1 Y216,4 = +0
 c1134: +1 Y216,5 = +0
 c1135: +1 Y216,6 = +0
 c1136: +1 Y217,2 = +0
 c1137: +1 Y217,3 = +0
 c1138: +1 Y217,4 = +0
 c1139: +1 Y217,5 = +0
 c1140: +1 Y217,6 = +0
 c1141: +1 Y218,2 = +0
 c1142: +1 Y218,3 = +0
 c1143: +1 Y218,4 = +0
 c1144: +1 Y218,5 = +0
 c1145: +1 Y218,6 = +0
 c1146: +1 Y219,2 = +0
 c1147: +1 Y219,3 = +0
 c1148: +1 Y219,4 = +0
 c1149: +1 Y219,5 = +0
 c1150: +1 Y219,6 = +0
 c1151: +1 Y220,2 = +0
 c1152: +1 Y220,3 = +0
 c1153: +1 Y220,4 = +0
 c1154: +1 Y220,5 = +0
 c1155: +1 Y220,6 = +0
 c1156: +1 Y221,2 = +0
 c1157: +1 Y221,3 = +0
 c1158: +1 Y221,4 = +0
 c1159: +1 Y221,5 = +0
 c1160: +1 Y221,6 = +0
 c1161: +1 Y222,2 = +0
 c1162: +1 Y222,3 = +0
 c1163: +1 Y222,4 = +0
 c1164: +1 Y222,5 = +0
 c1165: +1 Y222,6 = +0
 c1166: +1 Y223,2 = +0
 c1167: +1 Y223,3 = +0
 c1168: +1 Y223,4 = +0
 c1169: +1 Y223,5 = +0
 c1170: +1 Y223,6 = +0
 c1171: +1 Y224,2 = +0
 c1172: +1 Y224,3 = +0
 c1173: +1 Y224,4 = +0
 c1174: +1 Y224,5 = +0
 c1175: +1 Y224,6 = +0
 c1176: +1 Y225,2 = +0
 c1177: +1 Y225,3 = +0
 c1178: +1 Y225,4 = +0
 c1179: +1 Y225,5 = +0
 c1180: +1 Y225,6 = +0
 c1181: +1 Y226,2 = +0
 c1182: +1 Y226,3 = +0
 c1183: +1 Y226,4 = +0
 c1184: +1 Y226,5 = +0
 c1185: +1 Y226,6 = +0
 c1186: +1 Y227,2 = +0
 c1187: +1 Y227,3 = +0
 c1188: +1 Y227,4 = +0
 c1189: +1 Y227,5 = +0
 c1190: +1 Y227,6 = +0
 c1191: +1 Y228,2 = +0
 c1192: +1 Y228,3 = +0
 c1193: +1 Y228,4 = +0
 c1194: +1 Y228,5 = +0
 c1195: +1 Y228,6 = +0
 c1196: +1 Y229,2 = +0
 c1197: +1 Y229,3 = +0
 c1198: +1 Y229,4 = +0
 c1199: +1 Y229,5 = +0
 c1200: +1 Y229,6 = +0
 c1201: +1 Y230,2 = +0
 c1202: +1 Y230,3 = +0
 c1203: +1 Y230,4 = +0
 c1204: +1 Y230,5 = +0
 c1205: +1 Y230,6 = +0
 c1206: +1 Y231,2 = +0
 c1207: +1 Y231,3 = +0
 c1208: +1 Y231,4 = +0
 c1209: +1 Y231,5 = +0
 c1210: +1 Y231,6 = +0
 c1211: +1 Y232,2 = +0
 c1212: +1 Y232,3 = +0
 c1213: +1 Y232,4 = +0
 c1214: +1 Y232,5 = +0
 c1215: +1 Y232,6 = +0
 c1216: +1 Y233,2 = +0
 c1217: +1 Y233,3 = +0
 c1218: +1 Y233,4 = +0
 c1219: +1 Y233,5 = +0
 c1220: +1 Y233,6 = +0
 c1221: +1 Y234,2 = +0
 c1222: +1 Y234,3 = +0
 c1223: +1 Y234,4 = +0
 c1224: +1 Y234,5 = +0
 c1225: +1 Y234,6 = +0
 c1226: +1 Y235,2 = +0
 c1227: +1 Y235,3 = +0
 c1228: +1 Y235,4 = +0
 c1229: +1 Y235,5 = +0
 c1230: +1 Y235,6 = +0
 c1231: +1 Y236,2 = +0
 c1232: +1 Y236,3 = +0
 c1233: +1 Y236,4 = +0
 c1234: +1 Y236,5 = +0
 c1235: +1 Y236,6 = +0
 c1236: +1 Y237,2 = +0
 c1237: +1 Y237,3 = +0
 c1238: +1 Y237,4 = +0
 c1239: +1 Y237,5 = +0
 c1240: +1 Y237,6 = +0
 c1241: +1 Y238,2 = +0
 c1242: +1 Y238,3 = +0
 c1243: +1 Y238,4 = +0
 c1244: +1 Y238,5 = +0
 c1245: +1 Y238,6 = +0
 c1246: +1 Y239,2 = +0
 c1247: +1 Y239,3 = +0
 c1248: +1 Y239,4 = +0
 c1249: +1 Y239,5 = +0
 c1250: +1 Y239,6 = +0
 c1251: +1 Y240,2 = +0
 c1252: +1 Y240,3 = +0
 c1253: +1 Y240,4 = +0
 c1254: +1 Y240,5 = +0
 c1255: +1 Y240,6 = +0
 c1256: +1 Y241,2 = +0
 c1257: +1 Y241,3 = +0
 c1258: +1 Y241,4 = +0
 c1259: +1 Y241,5 = +0
 c1260: +1 Y241,6 = +0
 c1261: +1 Y242,2 = +0
 c1262: +1 Y242,3 = +0
 c1263: +1 Y242,4 = +0
 c1264: +1 Y242,5 = +0
 c1265: +1 Y242,6 = +0
 c1266: +1 Y243,2 = +0
 c1267: +1 Y243,3 = +0
 c1268: +1 Y243,4 = +0
 c1269: +1 Y243,5 = +0
 c1270: +1 Y243,6 = +0
 c1271: +1 Y244,2 = +0
 c1272: +1 Y244,3 = +0
 c1273: +1 Y244,4 = +0
 c1274: +1 Y244,5 = +0
 c1275: +1 Y244,6 = +0
 c1276: +1 Y245,2 = +0
 c1277: +1 Y245,3 = +0
 c1278: +1 Y245,4 = +0
 c1279: +1 Y245,5 = +0
 c1280: +1 Y245,6 = +0
 c1281: +1 Y246,2 = +0
 c1282: +1 Y246,3 = +0
 c1283: +1 Y246,4 = +0
 c1284: +1 Y246,5 = +0
 c1285: +1 Y246,6 = +0
 c1286: +1 Y247,2 = +0
 c1287: +1 Y247,3 = +0
 c1288: +1 Y247,4 = +0
 c1289: +1 Y247,5 = +0
 c1290: +1 Y247,6 = +0
 c1291: +1 Y248,2 = +0
 c1292: +1 Y248,3 = +0
 c1293: +1 Y248,4 = +0
 c1294: +1 Y248,5 = +0
 c1295: +1 Y248,6 = +0
 c1296: +1 Y249,2 = +0
 c1297: +1 Y249,3 = +0
 c1298: +1 Y249,4 = +0
 c1299: +1 Y249,5 = +0
 c1300: +1 Y249,6 = +0
 c1301: +1 Y250,2 = +0
 c1302: +1 Y250,3 = +0
 c1303: +1 Y250,4 = +0
 c1304: +1 Y250,5 = +0
 c1305: +1 Y250,6 = +0
 c1306: +1 Y251,2 = +0
 c1307: +1 Y251,3 = +0
 c1308: +1 Y251,4 = +0
 c1309: +1 Y251,5 = +0
 c1310: +1 Y251,6 = +0
 c1311: +1 Y252,2 = +0
 c1312: +1 Y252,3 = +0
 c1313: +1 Y252,4 = +0
 c1314: +1 Y252,5 = +0
 c1315: +1 Y252,6 = +0
 c1316: +1 Y253,2 = +0
 c1317: +1 Y253,3 = +0
 c1318: +1 Y253,4 = +0
 c1319: +1 Y253,5 = +0
 c1320: +1 Y253,6 = +0
 c1321: +1 Y254,2 = +0
 c1322: +1 Y254,3 = +0
 c1323: +1 Y254,4 = +0
 c1324: +1 Y254,5 = +0
 c1325: +1 Y254,6 = +0
 c1326: +1 Y255,2 = +0
 c1327: +1 Y255,3 = +0
 c1328: +1 Y255,4 = +0
 c1329: +1 Y255,5 = +0
 c1330: +1 Y255,6 = +0
 c1331: +1 Y256,2 = +0
 c1332: +1 Y256,3 = +0
 c1333: +1 Y256,4 = +0
 c1334: +1 Y256,5 = +0
 c1335: +1 Y256,6 = +0
 c1336: +1 Y257,2 = +0
 c1337: +1 Y257,3 = +0
 c1338: +1 Y257,4 = +0
 c1339: +1 Y257,5 = +0
 c1340: +1 Y257,6 = +0
 c1341: +1 Y258,2 = +0
 c1342: +1 Y258,3 = +0
 c1343: +1 Y258,4 = +0
 c1344: +1 Y258,5 = +0
 c1345: +1 Y258,6 = +0
 c1346: +1 Y259,2 = +0
 c1347: +1 Y259,3 = +0
 c1348: +1 Y259,4 = +0
 c1349: +1 Y259,5 = +0
 c1350: +1 Y259,6 = +0
 c1351: +1 Y260,2 = +0
 c1352: +1 Y260,3 = +0
 c1353: +1 Y260,4 = +0
 c1354: +1 Y260,5 = +0
 c1355: +1 Y260,6 = +0
 c1356: +1 Y261,2 = +0
 c1357: +1 Y261,3 = +0
 c1358: +1 Y261,4 = +0
 c1359: +1 Y261,5 = +0
 c1360: +1 Y261,6 = +0
 c1361: +1 Y262,2 = +0
 c1362: +1 Y262,3 = +0
 c1363: +1 Y262,4 = +0
 c1364: +1 Y262,5 = +0
 c1365: +1 Y262,6 = +0
 c1366: +1 Y263,2 = +0
 c1367: +1 Y263,3 = +0
 c1368: +1 Y263,4 = +0
 c1369: +1 Y263,5 = +0
 c1370: +1 Y263,6 = +0
 c1371: +1 Y264,2 = +0
 c1372: +1 Y264,3 = +0
 c1373: +1 Y264,4 = +0
 c1374: +1 Y264,5 = +0
 c1375: +1 Y264,6 = +0
 c1376: +1 Y265,2 = +0
 c1377: +1 Y265,3 = +0
 c1378: +1 Y265,4 = +0
 c1379: +1 Y265,5 = +0
 c1380: +1 Y265,6 = +0
 c1381: +1 Y266,2 = +0
 c1382: +1 Y266,3 = +0
 c1383: +1 Y266,4 = +0
 c1384: +1 Y266,5 = +0
 c1385: +1 Y266,6 = +0
 c1386: +1 Y267,2 = +0
 c1387: +1 Y267,3 = +0
 c1388: +1 Y267,4 = +0
 c1389: +1 Y267,5 = +0
 c1390: +1 Y267,6 = +0
 c1391: +1 Y268,2 = +0
 c1392: +1 Y268,3 = +0
 c1393: +1 Y268,4 = +0
 c1394: +1 Y268,5 = +0
 c1395: +1 Y268,6 = +0
 c1396: +1 Y269,2 = +0
 c1397: +1 Y269,3 = +0
 c1398: +1 Y269,4 = +0
 c1399: +1 Y269,5 = +0
 c1400: +1 Y269,6 = +0
 c1401: +1 Y270,2 = +0
 c1402: +1 Y270,3 = +0
 c1403: +1 Y270,4 = +0
 c1404: +1 Y270,5 = +0
 c1405: +1 Y270,6 = +0
 c1406: +1 Y271,2 = +0
 c1407: +1 Y271,3 = +0
 c1408: +1 Y271,4 = +0
 c1409: +1 Y271,5 = +0
 c1410: +1 Y271,6 = +0
 c1411: +1 Y272,2 = +0
 c1412: +1 Y272,3 = +0
 c1413: +1 Y272,4 = +0
 c1414: +1 Y272,5 = +0
 c1415: +1 Y272,6 = +0
 c1416: +1 Y273,2 = +0
 c1417: +1 Y273,3 = +0
 c1418: +1 Y273,4 = +0
 c1419: +1 Y273,5 = +0
 c1420: +1 Y273,6 = +0
 c1421: +1 Y274,2 = +0
 c1422: +1 Y274,3 = +0
 c1423: +1 Y274,4 = +0
 c1424: +1 Y274,5 = +0
 c1425: +1 Y274,6 = +0
 c1426: +1 Y275,2 = +0
 c1427: +1 Y275,3 = +0
 c1428: +1 Y275,4 = +0
 c1429: +1 Y275,5 = +0
 c1430: +1 Y275,6 = +0
 c1431: +1 Y276,2 = +0
 c1432: +1 Y276,3 = +0
 c1433: +1 Y276,4 = +0
 c1434: +1 Y276,5 = +0
 c1435: +1 Y276,6 = +0
 c1436: +1 Y277,2 = +0
 c1437: +1 Y277,3 = +0
 c1438: +1 Y277,4 = +0
 c1439: +1 Y277,5 = +0
 c1440: +1 Y277,6 = +0
 c1441: +1 Y278,2 = +0
 c1442: +1 Y278,3 = +0
 c1443: +1 Y278,4 = +0
 c1444: +1 Y278,5 = +0
 c1445: +1 Y278,6 = +0
 c1446: +1 Y279,2 = +0
 c1447: +1 Y279,3 = +0
 c1448: +1 Y279,4 = +0
 c1449: +1 Y279,5 = +0
 c1450: +1 Y279,6 = +0
 c1451: +1 Y280,2 = +0
 c1452: +1 Y280,3 = +0
 c1453: +1 Y280,4 = +0
 c1454: +1 Y280,5 = +0
 c1455: +1 Y280,6 = +0
 c1456: +1 Y281,2 = +0
 c1457: +1 Y281,3 = +0
 c1458: +1 Y281,4 = +0
 c1459: +1 Y281,5 = +0
 c1460: +1 Y281,6 = +0
 c1461: +1 Y282,2 = +0
 c1462: +1 Y282,3 = +0
 c1463: +1 Y282,4 = +0
 c1464: +1 Y282,5 = +0
 c1465: +1 Y282,6 = +0
 c1466: +1 Y283,2 = +0
 c1467: +1 Y283,3 = +0
 c1468: +1 Y283,4 = +0
 c1469: +1 Y283,5 = +0
 c1470: +1 Y283,6 = +0
 c1471: +1 Y284,2 = +0
 c1472: +1 Y284,3 = +0
 c1473: +1 Y284,4 = +0
 c1474: +1 Y284,5 = +0
 c1475: +1 Y284,6 = +0
 c1476: +1 Y285,2 = +0
 c1477: +1 Y285,3 = +0
 c1478: +1 Y285,4 = +0
 c1479: +1 Y285,5 = +0
 c1480: +1 Y285,6 = +0
 c1481: +1 Y286,2 = +0
 c1482: +1 Y286,3 = +0
 c1483: +1 Y286,4 = +0
 c1484: +1 Y286,5 = +0
 c1485: +1 Y286,6 = +0
 c1486: +1 Y287,2 = +0
 c1487: +1 Y287,3 = +0
 c1488: +1 Y287,4 = +0
 c1489: +1 Y287,5 = +0
 c1490: +1 Y287,6 = +0
 c1491: +1 Y288,2 = +0
 c1492: +1 Y288,3 = +0
 c1493: +1 Y288,4 = +0
 c1494: +1 Y288,5 = +0
 c1495: +1 Y288,6 = +0
 c1496: +1 Y289,2 = +0
 c1497: +1 Y289,3 = +0
 c1498: +1 Y289,4 = +0
 c1499: +1 Y289,5 = +0
 c1500: +1 Y289,6 = +0
 c1501: +1 Y290,2 = +0
 c1502: +1 Y290,3 = +0
 c1503: +1 Y290,4 = +0
 c1504: +1 Y290,5 = +0
 c1505: +1 Y290,6 = +0
 c1506: +1 Y291,2 = +0
 c1507: +1 Y291,3 = +0
 c1508: +1 Y291,4 = +0
 c1509: +1 Y291,5 = +0
 c1510: +1 Y291,6 = +0
 c1511: +1 Y292,2 = +0
 c1512: +1 Y292,3 = +0
 c1513: +1 Y292,4 = +0
 c1514: +1 Y292,5 = +0
 c1515: +1 Y292,6 = +0
 c1516: +1 Y293,2 = +0
 c1517: +1 Y293,3 = +0
 c1518: +1 Y293,4 = +0
 c1519: +1 Y293,5 = +0
 c1520: +1 Y293,6 = +0
 c1521: +1 Y294,2 = +0
 c1522: +1 Y294,3 = +0
 c1523: +1 Y294,4 = +0
 c1524: +1 Y294,5 = +0
 c1525: +1 Y294,6 = +0
 c1526: +1 Y295,2 = +0
 c1527: +1 Y295,3 = +0
 c1528: +1 Y295,4 = +0
 c1529: +1 Y295,5 = +0
 c1530: +1 Y295,6 = +0
 c1531: +1 Y296,2 = +0
 c1532: +1 Y296,3 = +0
 c1533: +1 Y296,4 = +0
 c1534: +1 Y296,5 = +0
 c1535: +1 Y296,6 = +0
 c1536: +1 Y297,2 = +0
 c1537: +1 Y297,3 = +0
 c1538: +1 Y297,4 = +0
 c1539: +1 Y297,5 = +0
 c1540: +1 Y297,6 = +0
 c1541: +1 Y298,2 = +0
 c1542: +1 Y298,3 = +0
 c1543: +1 Y298,4 = +0
 c1544: +1 Y298,5 = +0
 c1545: +1 Y298,6 = +0
 c1546: +1 Y299,2 = +0
 c1547: +1 Y299,3 = +0
 c1548: +1 Y299,4 = +0
 c1549: +1 Y299,5 = +0
 c1550: +1 Y299,6 = +0
 c1551: +1 Y300,2 = +0
 c1552: +1 Y300,3 = +0
 c1553: +1 Y300,4 = +0
 c1554: +1 Y300,5 = +0
 c1555: +1 Y300,6 = +0
 c1556: +1 Y301,2 = +0
 c1557: +1 Y301,3 = +0
 c1558: +1 Y301,4 = +0
 c1559: +1 Y301,5 = +0
 c1560: +1 Y301,6 = +0
 c1561: +1 Y302,2 = +0
 c1562: +1 Y302,3 = +0
 c1563: +1 Y302,4 = +0
 c1564: +1 Y302,5 = +0
 c1565: +1 Y302,6 = +0
 c1566: +1 Y303,2 = +0
 c1567: +1 Y303,3 = +0
 c1568: +1 Y303,4 = +0
 c1569: +1 Y303,5 = +0
 c1570: +1 Y303,6 = +0
 c1571: +1 Y304,2 = +0
 c1572: +1 Y304,3 = +0
 c1573: +1 Y304,4 = +0
 c1574: +1 Y304,5 = +0
 c1575: +1 Y304,6 = +0
 c1576: +1 Y305,2 = +0
 c1577: +1 Y305,3 = +0
 c1578: +1 Y305,4 = +0
 c1579: +1 Y305,5 = +0
 c1580: +1 Y305,6 = +0
 c1581: +1 Y306,2 = +0
 c1582: +1 Y306,3 = +0
 c1583: +1 Y306,4 = +0
 c1584: +1 Y306,5 = +0
 c1585: +1 Y306,6 = +0
 c1586: +1 Y307,2 = +0
 c1587: +1 Y307,3 = +0
 c1588: +1 Y307,4 = +0
 c1589: +1 Y307,5 = +0
 c1590: +1 Y307,6 = +0
 c1591: +1 Y308,2 = +0
 c1592: +1 Y308,3 = +0
 c1593: +1 Y308,4 = +0
 c1594: +1 Y308,5 = +0
 c1595: +1 Y308,6 = +0
 c1596: +1 Y309,2 = +0
 c1597: +1 Y309,3 = +0
 c1598: +1 Y309,4 = +0
 c1599: +1 Y309,5 = +0
 c1600: +1 Y309,6 = +0
 c1601: +1 Y310,2 = +0
 c1602: +1 Y310,3 = +0
 c1603: +1 Y310,4 = +0
 c1604: +1 Y310,5 = +0
 c1605: +1 Y310,6 = +0
 c1606: +1 Y311,2 = +0
 c1607: +1 Y311,3 = +0
 c1608: +1 Y311,4 = +0
 c1609: +1 Y311,5 = +0
 c1610: +1 Y311,6 = +0
 c1611: +1 Y312,2 = +0
 c1612: +1 Y312,3 = +0
 c1613: +1 Y312,4 = +0
 c1614: +1 Y312,5 = +0
 c1615: +1 Y312,6 = +0
 c1616: +1 Y313,2 = +0
 c1617: +1 Y313,3 = +0
 c1618: +1 Y313,4 = +0
 c1619: +1 Y313,5 = +0
 c1620: +1 Y313,6 = +0
 c1621: +1 Y314,2 = +0
 c1622: +1 Y314,3 = +0
 c1623: +1 Y314,4 = +0
 c1624: +1 Y314,5 = +0
 c1625: +1 Y314,6 = +0
 c1626: +1 Y315,2 = +0
 c1627: +1 Y315,3 = +0
 c1628: +1 Y315,4 = +0
 c1629: +1 Y315,5 = +0
 c1630: +1 Y315,6 = +0
 c1631: +1 Y316,2 = +0
 c1632: +1 Y316,3 = +0
 c1633: +1 Y316,4 = +0
 c1634: +1 Y316,5 = +0
 c1635: +1 Y316,6 = +0
 c1636: +1 Y317,2 = +0
 c1637: +1 Y317,3 = +0
 c1638: +1 Y317,4 = +0
 c1639: +1 Y317,5 = +0
 c1640: +1 Y317,6 = +0
 c1641: +1 Y318,2 = +0
 c1642: +1 Y318,3 = +0
 c1643: +1 Y318,4 = +0
 c1644: +1 Y318,5 = +0
 c1645: +1 Y318,6 = +0
 c1646: +1 Y319,2 = +0
 c1647: +1 Y319,3 = +0
 c1648: +1 Y319,4 = +0
 c1649: +1 Y319,5 = +0
 c1650: +1 Y319,6 = +0
 c1651: +1 Y320,2 = +0
 c1652: +1 Y320,3 = +0
 c1653: +1 Y320,4 = +0
 c1654: +1 Y320,5 = +0
 c1655: +1 Y320,6 = +0
 c1656: +1 Y321,2 = +0
 c1657: +1 Y321,3 = +0
 c1658: +1 Y321,4 = +0
 c1659: +1 Y321,5 = +0
 c1660: +1 Y321,6 = +0
 c1661: +1 Y322,2 = +0
 c1662: +1 Y322,3 = +0
 c1663: +1 Y322,4 = +0
 c1664: +1 Y322,5 = +0
 c1665: +1 Y322,6 = +0
 c1666: +1 Y323,2 = +0
 c1667: +1 Y323,3 = +0
 c1668: +1 Y323,4 = +0
 c1669: +1 Y323,5 = +0
 c1670: +1 Y323,6 = +0
 c1671: +1 Y324,2 = +0
 c1672: +1 Y324,3 = +0
 c1673: +1 Y324,4 = +0
 c1674: +1 Y324,5 = +0
 c1675: +1 Y324,6 = +0
 c1676: +1 Y325,2 = +0
 c1677: +1 Y325,3 = +0
 c1678: +1 Y325,4 = +0
 c1679: +1 Y325,5 = +0
 c1680: +1 Y325,6 = +0
 c1681: +1 Y326,2 = +0
 c1682: +1 Y326,3 = +0
 c1683: +1 Y326,4 = +0
 c1684: +1 Y326,5 = +0
 c1685: +1 Y326,6 = +0
 c1686: +1 Y327,2 = +0
 c1687: +1 Y327,3 = +0
 c1688: +1 Y327,4 = +0
 c1689: +1 Y327,5 = +0
 c1690: +1 Y327,6 = +0
 c1691: +1 Y328,2 = +0
 c1692: +1 Y328,3 = +0
 c1693: +1 Y328,4 = +0
 c1694: +1 Y328,5 = +0
 c1695: +1 Y328,6 = +0
 c1696: +1 Y329,2 = +0
 c1697: +1 Y329,3 = +0
 c1698: +1 Y329,4 = +0
 c1699: +1 Y329,5 = +0
 c1700: +1 Y329,6 = +0
 c1701: +1 Y330,2 = +0
 c1702: +1 Y330,3 = +0
 c1703: +1 Y330,4 = +0
 c1704: +1 Y330,5 = +0
 c1705: +1 Y330,6 = +0
 c1706: +1 Y331,2 = +0
 c1707: +1 Y331,3 = +0
 c1708: +1 Y331,4 = +0
 c1709: +1 Y331,5 = +0
 c1710: +1 Y331,6 = +0
 c1711: +1 Y332,2 = +0
 c1712: +1 Y332,3 = +0
 c1713: +1 Y332,4 = +0
 c1714: +1 Y332,5 = +0
 c1715: +1 Y332,6 = +0
 c1716: +1 Y333,2 = +0
 c1717: +1 Y333,3 = +0
 c1718: +1 Y333,4 = +0
 c1719: +1 Y333,5 = +0
 c1720: +1 Y333,6 = +0
 c1721: +1 Y334,2 = +0
 c1722: +1 Y334,3 = +0
 c1723: +1 Y334,4 = +0
 c1724: +1 Y334,5 = +0
 c1725: +1 Y334,6 = +0
 c1726: +1 Y335,2 = +0
 c1727: +1 Y335,3 = +0
 c1728: +1 Y335,4 = +0
 c1729: +1 Y335,5 = +0
 c1730: +1 Y335,6 = +0
 c1731: +1 Y336,2 = +0
 c1732: +1 Y336,3 = +0
 c1733: +1 Y336,4 = +0
 c1734: +1 Y336,5 = +0
 c1735: +1 Y336,6 = +0
 c1736: +1 Y337,2 = +0
 c1737: +1 Y337,3 = +0
 c1738: +1 Y337,4 = +0
 c1739: +1 Y337,5 = +0
 c1740: +1 Y337,6 = +0
 c1741: +1 Y338,2 = +0
 c1742: +1 Y338,3 = +0
 c1743: +1 Y338,4 = +0
 c1744: +1 Y338,5 = +0
 c1745: +1 Y338,6 = +0
 c1746: +1 Y339,2 = +0
 c1747: +1 Y339,3 = +0
 c1748: +1 Y339,4 = +0
 c1749: +1 Y339,5 = +0
 c1750: +1 Y339,6 = +0
 c1751: +1 Y340,2 = +0
 c1752: +1 Y340,3 = +0
 c1753: +1 Y340,4 = +0
 c1754: +1 Y340,5 = +0
 c1755: +1 Y340,6 = +0
 c1756: +1 Y341,2 = +0
 c1757: +1 Y341,3 = +0
 c1758: +1 Y341,4 = +0
 c1759: +1 Y341,5 = +0
 c1760: +1 Y341,6 = +0
 c1761: +1 Y342,2 = +0
 c1762: +1 Y342,3 = +0
 c1763: +1 Y342,4 = +0
 c1764: +1 Y342,5 = +0
 c1765: +1 Y342,6 = +0
 c1766: +1 Y343,2 = +0
 c1767: +1 Y343,3 = +0
 c1768: +1 Y343,4 = +0
 c1769: +1 Y343,5 = +0
 c1770: +1 Y343,6 = +0
 c1771: +1 Y344,2 = +0
 c1772: +1 Y344,3 = +0
 c1773: +1 Y344,4 = +0
 c1774: +1 Y344,5 = +0
 c1775: +1 Y344,6 = +0
 c1776: +1 Y345,2 = +0
 c1777: +1 Y345,3 = +0
 c1778: +1 Y345,4 = +0
 c1779: +1 Y345,5 = +0
 c1780: +1 Y345,6 = +0
 c1781: +1 Y346,2 = +0
 c1782: +1 Y346,3 = +0
 c1783: +1 Y346,4 = +0
 c1784: +1 Y346,5 = +0
 c1785: +1 Y346,6 = +0
 c1786: +1 Y347,2 = +0
 c1787: +1 Y347,3 = +0
 c1788: +1 Y347,4 = +0
 c1789: +1 Y347,5 = +0
 c1790: +1 Y347,6 = +0
 c1791: +1 Y348,2 = +0
 c1792: +1 Y348,3 = +0
 c1793: +1 Y348,4 = +0
 c1794: +1 Y348,5 = +0
 c1795: +1 Y348,6 = +0
 c1796: +1 Y349,2 = +0
 c1797: +1 Y349,3 = +0
 c1798: +1 Y349,4 = +0
 c1799: +1 Y349,5 = +0
 c1800: +1 Y349,6 = +0
 c1801: +1 Y350,2 = +0
 c1802: +1 Y350,3 = +0
 c1803: +1 Y350,4 = +0
 c1804: +1 Y350,5 = +0
 c1805: +1 Y350,6 = +0
 c1806: +1 Y351,2 = +0
 c1807: +1 Y351,3 = +0
 c1808: +1 Y351,4 = +0
 c1809: +1 Y351,5 = +0
 c1810: +1 Y351,6 = +0
 c1811: +1 Y352,2 = +0
 c1812: +1 Y352,3 = +0
 c1813: +1 Y352,4 = +0
 c1814: +1 Y352,5 = +0
 c1815: +1 Y352,6 = +0
 c1816: +1 Y353,2 = +0
 c1817: +1 Y353,3 = +0
 c1818: +1 Y353,4 = +0
 c1819: +1 Y353,5 = +0
 c1820: +1 Y353,6 = +0
 c1821: +1 Y354,2 = +0
 c1822: +1 Y354,3 = +0
 c1823: +1 Y354,4 = +0
 c1824: +1 Y354,5 = +0
 c1825: +1 Y354,6 = +0
 c1826: +1 Y355,2 = +0
 c1827: +1 Y355,3 = +0
 c1828: +1 Y355,4 = +0
 c1829: +1 Y355,5 = +0
 c1830: +1 Y355,6 = +0
 c1831: +1 Y356,2 = +0
 c1832: +1 Y356,3 = +0
 c1833: +1 Y356,4 = +0
 c1834: +1 Y356,5 = +0
 c1835: +1 Y356,6 = +0
 c1836: +1 Y357,2 = +0
 c1837: +1 Y357,3 = +0
 c1838: +1 Y357,4 = +0
 c1839: +1 Y357,5 = +0
 c1840: +1 Y357,6 = +0
 c1841: +1 Y358,2 = +0
 c1842: +1 Y358,3 = +0
 c1843: +1 Y358,4 = +0
 c1844: +1 Y358,5 = +0
 c1845: +1 Y358,6 = +0
 c1846: +1 Y359,2 = +0
 c1847: +1 Y359,3 = +0
 c1848: +1 Y359,4 = +0
 c1849: +1 Y359,5 = +0
 c1850: +1 Y359,6 = +0
 c1851: +1 Y360,2 = +0
 c1852: +1 Y360,3 = +0
 c1853: +1 Y360,4 = +0
 c1854: +1 Y360,5 = +0
 c1855: +1 Y360,6 = +0
 c1856: +1 Y361,2 = +0
 c1857: +1 Y361,3 = +0
 c1858: +1 Y361,4 = +0
 c1859: +1 Y361,5 = +0
 c1860: +1 Y361,6 = +0
 c1861: +1 Y362,2 = +0
 c1862: +1 Y362,3 = +0
 c1863: +1 Y362,4 = +0
 c1864: +1 Y362,5 = +0
 c1865: +1 Y362,6 = +0
 c1866: +1 Y363,2 = +0
 c1867: +1 Y363,3 = +0
 c1868: +1 Y363,4 = +0
 c1869: +1 Y363,5 = +0
 c1870: +1 Y363,6 = +0
 c1871: +1 Y364,2 = +0
 c1872: +1 Y364,3 = +0
 c1873: +1 Y364,4 = +0
 c1874: +1 Y364,5 = +0
 c1875: +1 Y364,6 = +0
 c1876: +1 Y365,2 = +0
 c1877: +1 Y365,3 = +0
 c1878: +1 Y365,4 = +0
 c1879: +1 Y365,5 = +0
 c1880: +1 Y365,6 = +0
 c1881: +1 Y366,2 = +0
 c1882: +1 Y366,3 = +0
 c1883: +1 Y366,4 = +0
 c1884: +1 Y366,5 = +0
 c1885: +1 Y366,6 = +0
 c1886: +1 Y367,2 = +0
 c1887: +1 Y367,3 = +0
 c1888: +1 Y367,4 = +0
 c1889: +1 Y367,5 = +0
 c1890: +1 Y367,6 = +0
 c1891: +1 Y368,2 = +0
 c1892: +1 Y368,3 = +0
 c1893: +1 Y368,4 = +0
 c1894: +1 Y368,5 = +0
 c1895: +1 Y368,6 = +0
 c1896: +1 Y369,2 = +0
 c1897: +1 Y369,3 = +0
 c1898: +1 Y369,4 = +0
 c1899: +1 Y369,5 = +0
 c1900: +1 Y369,6 = +0
 c1901: +1 Y370,2 = +0
 c1902: +1 Y370,3 = +0
 c1903: +1 Y370,4 = +0
 c1904: +1 Y370,5 = +0
 c1905: +1 Y370,6 = +0
 c1906: +1 Y371,2 = +0
 c1907: +1 Y371,3 = +0
 c1908: +1 Y371,4 = +0
 c1909: +1 Y371,5 = +0
 c1910: +1 Y371,6 = +0
 c1911: +1 Y372,2 = +0
 c1912: +1 Y372,3 = +0
 c1913: +1 Y372,4 = +0
 c1914: +1 Y372,5 = +0
 c1915: +1 Y372,6 = +0
 c1916: +1 Y373,2 = +0
 c1917: +1 Y373,3 = +0
 c1918: +1 Y373,4 = +0
 c1919: +1 Y373,5 = +0
 c1920: +1 Y373,6 = +0
 c1921: +1 Y374,2 = +0
 c1922: +1 Y374,3 = +0
 c1923: +1 Y374,4 = +0
 c1924: +1 Y374,5 = +0
 c1925: +1 Y374,6 = +0
 c1926: +1 Y375,2 = +0
 c1927: +1 Y375,3 = +0
 c1928: +1 Y375,4 = +0
 c1929: +1 Y375,5 = +0
 c1930: +1 Y375,6 = +0
 c1931: +1 Y376,2 = +0
 c1932: +1 Y376,3 = +0
 c1933: +1 Y376,4 = +0
 c1934: +1 Y376,5 = +0
 c1935: +1 Y376,6 = +0
 c1936: +1 Y377,2 = +0
 c1937: +1 Y377,3 = +0
 c1938: +1 Y377,4 = +0
 c1939: +1 Y377,5 = +0
 c1940: +1 Y377,6 = +0
 c1941: +1 Y378,2 = +0
 c1942: +1 Y378,3 = +0
 c1943: +1 Y378,4 = +0
 c1944: +1 Y378,5 = +0
 c1945: +1 Y378,6 = +0
 c1946: +1 Y379,2 = +0
 c1947: +1 Y379,3 = +0
 c1948: +1 Y379,4 = +0
 c1949: +1 Y379,5 = +0
 c1950: +1 Y379,6 = +0
 c1951: +1 Y380,2 = +0
 c1952: +1 Y380,3 = +0
 c1953: +1 Y380,4 = +0
 c1954: +1 Y380,5 = +0
 c1955: +1 Y380,6 = +0
 c1956: +1 Y381,2 = +0
 c1957: +1 Y381,3 = +0
 c1958: +1 Y381,4 = +0
 c1959: +1 Y381,5 = +0
 c1960: +1 Y381,6 = +0
 c1961: +1 Y382,2 = +0
 c1962: +1 Y382,3 = +0
 c1963: +1 Y382,4 = +0
 c1964: +1 Y382,5 = +0
 c1965: +1 Y382,6 = +0
 c1966: +1 Y383,2 = +0
 c1967: +1 Y383,3 = +0
 c1968: +1 Y383,4 = +0
 c1969: +1 Y383,5 = +0
 c1970: +1 Y383,6 = +0
 c1971: +1 Y384,2 = +0
 c1972: +1 Y384,3 = +0
 c1973: +1 Y384,4 = +0
 c1974: +1 Y384,5 = +0
 c1975: +1 Y384,6 = +0
 c1976: +1 Y385,2 = +0
 c1977: +1 Y385,3 = +0
 c1978: +1 Y385,4 = +0
 c1979: +1 Y385,5 = +0
 c1980: +1 Y385,6 = +0
 c1981: +1 Y386,2 = +0
 c1982: +1 Y386,3 = +0
 c1983: +1 Y386,4 = +0
 c1984: +1 Y386,5 = +0
 c1985: +1 Y386,6 = +0
 c1986: +1 Y387,2 = +0
 c1987: +1 Y387,3 = +0
 c1988: +1 Y387,4 = +0
 c1989: +1 Y387,5 = +0
 c1990: +1 Y387,6 = +0
 c1991: +1 Y388,2 = +0
 c1992: +1 Y388,3 = +0
 c1993: +1 Y388,4 = +0
 c1994: +1 Y388,5 = +0
 c1995: +1 Y388,6 = +0
 c1996: +1 Y389,2 = +0
 c1997: +1 Y389,3 = +0
 c1998: +1 Y389,4 = +0
 c1999: +1 Y389,5 = +0
 c2000: +1 Y389,6 = +0
 c2001: +1 Y390,2 = +0
 c2002: +1 Y390,3 = +0
 c2003: +1 Y390,4 = +0
 c2004: +1 Y390,5 = +0
 c2005: +1 Y390,6 = +0
 c2006: +1 Y391,2 = +0
 c2007: +1 Y391,3 = +0
 c2008: +1 Y391,4 = +0
 c2009: +1 Y391,5 = +0
 c2010: +1 Y391,6 = +0
 c2011: +1 Y392,2 = +0
 c2012: +1 Y392,3 = +0
 c2013: +1 Y392,4 = +0
 c2014: +1 Y392,5 = +0
 c2015: +1 Y392,6 = +0
 c2016: +1 Y393,2 = +0
 c2017: +1 Y393,3 = +0
 c2018: +1 Y393,4 = +0
 c2019: +1 Y393,5 = +0
 c2020: +1 Y393,6 = +0
 c2021: +1 Y394,2 = +0
 c2022: +1 Y394,3 = +0
 c2023: +1 Y394,4 = +0
 c2024: +1 Y394,5 = +0
 c2025: +1 Y394,6 = +0
 c2026: +1 Y395,2 = +0
 c2027: +1 Y395,3 = +0
 c2028: +1 Y395,4 = +0
 c2029: +1 Y395,5 = +0
 c2030: +1 Y395,6 = +0
 c2031: +1 Y396,2 = +0
 c2032: +1 Y396,3 = +0
 c2033: +1 Y396,4 = +0
 c2034: +1 Y396,5 = +0
 c2035: +1 Y396,6 = +0
 c2036: +1 Y397,2 = +0
 c2037: +1 Y397,3 = +0
 c2038: +1 Y397,4 = +0
 c2039: +1 Y397,5 = +0
 c2040: +1 Y397,6 = +0
 c2041: +1 Y398,2 = +0
 c2042: +1 Y398,3 = +0
 c2043: +1 Y398,4 = +0
 c2044: +1 Y398,5 = +0
 c2045: +1 Y398,6 = +0
 c2046: +1 Y399,2 = +0
 c2047: +1 Y399,3 = +0
 c2048: +1 Y399,4 = +0
 c2049: +1 Y399,5 = +0
 c2050: +1 Y399,6 = +0
 c2051: +1 Y400,2 = +0
 c2052: +1 Y400,3 = +0
 c2053: +1 Y400,4 = +0
 c2054: +1 Y400,5 = +0
 c2055: +1 Y400,6 = +0
 c2056: +1 Y401,2 = +0
 c2057: +1 Y401,3 = +0
 c2058: +1 Y401,4 = +0
 c2059: +1 Y401,5 = +0
 c2060: +1 Y401,6 = +0
 c2061: +1 Y402,2 = +0
 c2062: +1 Y402,3 = +0
 c2063: +1 Y402,4 = +0
 c2064: +1 Y402,5 = +0
 c2065: +1 Y402,6 = +0
 c2066: +1 Y403,2 = +0
 c2067: +1 Y403,3 = +0
 c2068: +1 Y403,4 = +0
 c2069: +1 Y403,5 = +0
 c2070: +1 Y403,6 = +0
 c2071: +1 Y404,2 = +0
 c2072: +1 Y404,3 = +0
 c2073: +1 Y404,4 = +0
 c2074: +1 Y404,5 = +0
 c2075: +1 Y404,6 = +0
 c2076: +1 Y405,2 = +0
 c2077: +1 Y405,3 = +0
 c2078: +1 Y405,4 = +0
 c2079: +1 Y405,5 = +0
 c2080: +1 Y405,6 = +0
 c2081: +1 Y406,2 = +0
 c2082: +1 Y406,3 = +0
 c2083: +1 Y406,4 = +0
 c2084: +1 Y406,5 = +0
 c2085: +1 Y406,6 = +0
 c2086: +1 Y407,2 = +0
 c2087: +1 Y407,3 = +0
 c2088: +1 Y407,4 = +0
 c2089: +1 Y407,5 = +0
 c2090: +1 Y407,6 = +0
 c2091: +1 Y408,2 = +0
 c2092: +1 Y408,3 = +0
 c2093: +1 Y408,4 = +0
 c2094: +1 Y408,5 = +0
 c2095: +1 Y408,6 = +0
 c2096: +1 Y409,2 = +0
 c2097: +1 Y409,3 = +0
 c2098: +1 Y409,4 = +0
 c2099: +1 Y409,5 = +0
 c2100: +1 Y409,6 = +0
 c2101: +1 Y410,2 = +0
 c2102: +1 Y410,3 = +0
 c2103: +1 Y410,4 = +0
 c2104: +1 Y410,5 = +0
 c2105: +1 Y410,6 = +0
 c2106: +1 Y411,2 = +0
 c2107: +1 Y411,3 = +0
 c2108: +1 Y411,4 = +0
 c2109: +1 Y411,5 = +0
 c2110: +1 Y411,6 = +0
 c2111: +1 Y412,2 = +0
 c2112: +1 Y412,3 = +0
 c2113: +1 Y412,4 = +0
 c2114: +1 Y412,5 = +0
 c2115: +1 Y412,6 = +0
 c2116: +1 Y413,2 = +0
 c2117: +1 Y413,3 = +0
 c2118: +1 Y413,4 = +0
 c2119: +1 Y413,5 = +0
 c2120: +1 Y413,6 = +0
 c2121: +1 Y414,2 = +0
 c2122: +1 Y414,3 = +0
 c2123: +1 Y414,4 = +0
 c2124: +1 Y414,5 = +0
 c2125: +1 Y414,6 = +0
 c2126: +1 Y415,2 = +0
 c2127: +1 Y415,3 = +0
 c2128: +1 Y415,4 = +0
 c2129: +1 Y415,5 = +0
 c2130: +1 Y415,6 = +0
 c2131: +1 Y416,2 = +0
 c2132: +1 Y416,3 = +0
 c2133: +1 Y416,4 = +0
 c2134: +1 Y416,5 = +0
 c2135: +1 Y416,6 = +0
 c2136: +1 Y417,2 = +0
 c2137: +1 Y417,3 = +0
 c2138: +1 Y417,4 = +0
 c2139: +1 Y417,5 = +0
 c2140: +1 Y417,6 = +0
 c2141: +1 Y418,2 = +0
 c2142: +1 Y418,3 = +0
 c2143: +1 Y418,4 = +0
 c2144: +1 Y418,5 = +0
 c2145: +1 Y418,6 = +0
 c2146: +1 Y419,2 = +0
 c2147: +1 Y419,3 = +0
 c2148: +1 Y419,4 = +0
 c2149: +1 Y419,5 = +0
 c2150: +1 Y419,6 = +0
 c2151: +1 Y420,2 = +0
 c2152: +1 Y420,3 = +0
 c2153: +1 Y420,4 = +0
 c2154: +1 Y420,5 = +0
 c2155: +1 Y420,6 = +0
 c2156: +1 Y421,2 = +0
 c2157: +1 Y421,3 = +0
 c2158: +1 Y421,4 = +0
 c2159: +1 Y421,5 = +0
 c2160: +1 Y421,6 = +0
 c2161: +1 Y422,2 = +0
 c2162: +1 Y422,3 = +0
 c2163: +1 Y422,4 = +0
 c2164: +1 Y422,5 = +0
 c2165: +1 Y422,6 = +0
 c2166: +1 Y423,2 = +0
 c2167: +1 Y423,3 = +0
 c2168: +1 Y423,4 = +0
 c2169: +1 Y423,5 = +0
 c2170: +1 Y423,6 = +0
 c2171: +1 Y424,2 = +0
 c2172: +1 Y424,3 = +0
 c2173: +1 Y424,4 = +0
 c2174: +1 Y424,5 = +0
 c2175: +1 Y424,6 = +0
 c2176: +1 Y425,2 = +0
 c2177: +1 Y425,3 = +0
 c2178: +1 Y425,4 = +0
 c2179: +1 Y425,5 = +0
 c2180: +1 Y425,6 = +0
 c2181: +1 Y426,2 = +0
 c2182: +1 Y426,3 = +0
 c2183: +1 Y426,4 = +0
 c2184: +1 Y426,5 = +0
 c2185: +1 Y426,6 = +0
 c2186: +1 Y427,2 = +0
 c2187: +1 Y427,3 = +0
 c2188: +1 Y427,4 = +0
 c2189: +1 Y427,5 = +0
 c2190: +1 Y427,6 = +0
 c2191: +1 Y428,2 = +0
 c2192: +1 Y428,3 = +0
 c2193: +1 Y428,4 = +0
 c2194: +1 Y428,5 = +0
 c2195: +1 Y428,6 = +0
 c2196: +1 Y429,2 = +0
 c2197: +1 Y429,3 = +0
 c2198: +1 Y429,4 = +0
 c2199: +1 Y429,5 = +0
 c2200: +1 Y429,6 = +0
 c2201: +1 Y430,2 = +0
 c2202: +1 Y430,3 = +0
 c2203: +1 Y430,4 = +0
 c2204: +1 Y430,5 = +0
 c2205: +1 Y430,6 = +0
 c2206: +1 Y431,2 = +0
 c2207: +1 Y431,3 = +0
 c2208: +1 Y431,4 = +0
 c2209: +1 Y431,5 = +0
 c2210: +1 Y431,6 = +0
 c2211: +1 Y432,2 = +0
 c2212: +1 Y432,3 = +0
 c2213: +1 Y432,4 = +0
 c2214: +1 Y432,5 = +0
 c2215: +1 Y432,6 = +0
 c2216: +1 Y433,2 = +0
 c2217: +1 Y433,3 = +0
 c2218: +1 Y433,4 = +0
 c2219: +1 Y433,5 = +0
 c2220: +1 Y433,6 = +0
 c2221: +1 Y434,2 = +0
 c2222: +1 Y434,3 = +0
 c2223: +1 Y434,4 = +0
 c2224: +1 Y434,5 = +0
 c2225: +1 Y434,6 = +0
 c2226: +1 Y435,2 = +0
 c2227: +1 Y435,3 = +0
 c2228: +1 Y435,4 = +0
 c2229: +1 Y435,5 = +0
 c2230: +1 Y435,6 = +0
 c2231: +1 Y436,2 = +0
 c2232: +1 Y436,3 = +0
 c2233: +1 Y436,4 = +0
 c2234: +1 Y436,5 = +0
 c2235: +1 Y436,6 = +0
 c2236: +1 Y437,2 = +0
 c2237: +1 Y437,3 = +0
 c2238: +1 Y437,4 = +0
 c2239: +1 Y437,5 = +0
 c2240: +1 Y437,6 = +0
 c2241: +1 Y438,2 = +0
 c2242: +1 Y438,3 = +0
 c2243: +1 Y438,4 = +0
 c2244: +1 Y438,5 = +0
 c2245: +1 Y438,6 = +0
 c2246: +1 Y439,2 = +0
 c2247: +1 Y439,3 = +0
 c2248: +1 Y439,4 = +0
 c2249: +1 Y439,5 = +0
 c2250: +1 Y439,6 = +0
 c2251: +1 Y440,2 = +0
 c2252: +1 Y440,3 = +0
 c2253: +1 Y440,4 = +0
 c2254: +1 Y440,5 = +0
 c2255: +1 Y440,6 = +0
 c2256: +1 Y441,2 = +0
 c2257: +1 Y441,3 = +0
 c2258: +1 Y441,4 = +0
 c2259: +1 Y441,5 = +0
 c2260: +1 Y441,6 = +0
 c2261: +1 Y442,2 = +0
 c2262: +1 Y442,3 = +0
 c2263: +1 Y442,4 = +0
 c2264: +1 Y442,5 = +0
 c2265: +1 Y442,6 = +0
 c2266: +1 Y443,2 = +0
 c2267: +1 Y443,3 = +0
 c2268: +1 Y443,4 = +0
 c2269: +1 Y443,5 = +0
 c2270: +1 Y443,6 = +0
 c2271: +1 Y444,2 = +0
 c2272: +1 Y444,3 = +0
 c2273: +1 Y444,4 = +0
 c2274: +1 Y444,5 = +0
 c2275: +1 Y444,6 = +0
 c2276: +1 Y445,2 = +0
 c2277: +1 Y445,3 = +0
 c2278: +1 Y445,4 = +0
 c2279: +1 Y445,5 = +0
 c2280: +1 Y445,6 = +0
 c2281: +1 Y446,2 = +0
 c2282: +1 Y446,3 = +0
 c2283: +1 Y446,4 = +0
 c2284: +1 Y446,5 = +0
 c2285: +1 Y446,6 = +0
 c2286: +1 Y447,2 = +0
 c2287: +1 Y447,3 = +0
 c2288: +1 Y447,4 = +0
 c2289: +1 Y447,5 = +0
 c2290: +1 Y447,6 = +0
 c2291: +1 Y448,2 = +0
 c2292: +1 Y448,3 = +0
 c2293: +1 Y448,4 = +0
 c2294: +1 Y448,5 = +0
 c2295: +1 Y448,6 = +0
 c2296: +1 Y449,2 = +0
 c2297: +1 Y449,3 = +0
 c2298: +1 Y449,4 = +0
 c2299: +1 Y449,5 = +0
 c2300: +1 Y449,6 = +0
 c2301: +1 Y450,2 = +0
 c2302: +1 Y450,3 = +0
 c2303: +1 Y450,4 = +0
 c2304: +1 Y450,5 = +0
 c2305: +1 Y450,6 = +0
 c2306: +1 Y451,2 = +0
 c2307: +1 Y451,3 = +0
 c2308: +1 Y451,4 = +0
 c2309: +1 Y451,5 = +0
 c2310: +1 Y451,6 = +0
 c2311: +1 Y452,2 = +0
 c2312: +1 Y452,3 = +0
 c2313: +1 Y452,4 = +0
 c2314: +1 Y452,5 = +0
 c2315: +1 Y452,6 = +0
 c2316: +1 Y453,2 = +0
 c2317: +1 Y453,3 = +0
 c2318: +1 Y453,4 = +0
 c2319: +1 Y453,5 = +0
 c2320: +1 Y453,6 = +0
 c2321: +1 Y454,2 = +0
 c2322: +1 Y454,3 = +0
 c2323: +1 Y454,4 = +0
 c2324: +1 Y454,5 = +0
 c2325: +1 Y454,6 = +0
 c2326: +1 Y455,2 = +0
 c2327: +1 Y455,3 = +0
 c2328: +1 Y455,4 = +0
 c2329: +1 Y455,5 = +0
 c2330: +1 Y455,6 = +0
 c2331: +1 Y456,2 = +0
 c2332: +1 Y456,3 = +0
 c2333: +1 Y456,4 = +0
 c2334: +1 Y456,5 = +0
 c2335: +1 Y456,6 = +0
 c2336: +1 Y457,2 = +0
 c2337: +1 Y457,3 = +0
 c2338: +1 Y457,4 = +0
 c2339: +1 Y457,5 = +0
 c2340: +1 Y457,6 = +0
 c2341: +1 Y458,2 = +0
 c2342: +1 Y458,3 = +0
 c2343: +1 Y458,4 = +0
 c2344: +1 Y458,5 = +0
 c2345: +1 Y458,6 = +0
 c2346: +1 Y459,2 = +0
 c2347: +1 Y459,3 = +0
 c2348: +1 Y459,4 = +0
 c2349: +1 Y459,5 = +0
 c2350: +1 Y459,6 = +0
 c2351: +1 Y460,2 = +0
 c2352: +1 Y460,3 = +0
 c2353: +1 Y460,4 = +0
 c2354: +1 Y460,5 = +0
 c2355: +1 Y460,6 = +0
 c2356: +1 Y461,2 = +0
 c2357: +1 Y461,3 = +0
 c2358: +1 Y461,4 = +0
 c2359: +1 Y461,5 = +0
 c2360: +1 Y461,6 = +0
 c2361: +1 Y462,2 = +0
 c2362: +1 Y462,3 = +0
 c2363: +1 Y462,4 = +0
 c2364: +1 Y462,5 = +0
 c2365: +1 Y462,6 = +0
 c2366: +1 Y463,2 = +0
 c2367: +1 Y463,3 = +0
 c2368: +1 Y463,4 = +0
 c2369: +1 Y463,5 = +0
 c2370: +1 Y463,6 = +0
 c2371: +1 Y464,2 = +0
 c2372: +1 Y464,3 = +0
 c2373: +1 Y464,4 = +0
 c2374: +1 Y464,5 = +0
 c2375: +1 Y464,6 = +0
 c2376: +1 Y465,2 = +0
 c2377: +1 Y465,3 = +0
 c2378: +1 Y465,4 = +0
 c2379: +1 Y465,5 = +0
 c2380: +1 Y465,6 = +0
 c2381: +1 Y466,2 = +0
 c2382: +1 Y466,3 = +0
 c2383: +1 Y466,4 = +0
 c2384: +1 Y466,5 = +0
 c2385: +1 Y466,6 = +0
 c2386: +1 Y467,2 = +0
 c2387: +1 Y467,3 = +0
 c2388: +1 Y467,4 = +0
 c2389: +1 Y467,5 = +0
 c2390: +1 Y467,6 = +0
 c2391: +1 Y468,2 = +0
 c2392: +1 Y468,3 = +0
 c2393: +1 Y468,4 = +0
 c2394: +1 Y468,5 = +0
 c2395: +1 Y468,6 = +0
 c2396: +1 Y469,2 = +0
 c2397: +1 Y469,3 = +0
 c2398: +1 Y469,4 = +0
 c2399: +1 Y469,5 = +0
 c2400: +1 Y469,6 = +0
 c2401: +1 Y470,2 = +0
 c2402: +1 Y470,3 = +0
 c2403: +1 Y470,4 = +0
 c2404: +1 Y470,5 = +0
 c2405: +1 Y470,6 = +0
 c2406: +1 Y471,2 = +0
 c2407: +1 Y471,3 = +0
 c2408: +1 Y471,4 = +0
 c2409: +1 Y471,5 = +0
 c2410: +1 Y471,6 = +0
 c2411: +1 Y472,2 = +0
 c2412: +1 Y472,3 = +0
 c2413: +1 Y472,4 = +0
 c2414: +1 Y472,5 = +0
 c2415: +1 Y472,6 = +0
 c2416: +1 Y473,2 = +0
 c2417: +1 Y473,3 = +0
 c2418: +1 Y473,4 = +0
 c2419: +1 Y473,5 = +0
 c2420: +1 Y473,6 = +0
 c2421: +1 Y474,2 = +0
 c2422: +1 Y474,3 = +0
 c2423: +1 Y474,4 = +0
 c2424: +1 Y474,5 = +0
 c2425: +1 Y474,6 = +0
 c2426: +1 Y475,2 = +0
 c2427: +1 Y475,3 = +0
 c2428: +1 Y475,4 = +0
 c2429: +1 Y475,5 = +0
 c2430: +1 Y475,6 = +0
 c2431: +1 Y476,2 = +0
 c2432: +1 Y476,3 = +0
 c2433: +1 Y476,4 = +0
 c2434: +1 Y476,5 = +0
 c2435: +1 Y476,6 = +0
 c2436: +1 Y477,2 = +0
 c2437: +1 Y477,3 = +0
 c2438: +1 Y477,4 = +0
 c2439: +1 Y477,5 = +0
 c2440: +1 Y477,6 = +0
 c2441: +1 Y478,2 = +0
 c2442: +1 Y478,3 = +0
 c2443: +1 Y478,4 = +0
 c2444: +1 Y478,5 = +0
 c2445: +1 Y478,6 = +0
 c2446: +1 Y479,2 = +0
 c2447: +1 Y479,3 = +0
 c2448: +1 Y479,4 = +0
 c2449: +1 Y479,5 = +0
 c2450: +1 Y479,6 = +0
 c2451: +1 Y480,2 = +0
 c2452: +1 Y480,3 = +0
 c2453: +1 Y480,4 = +0
 c2454: +1 Y480,5 = +0
 c2455: +1 Y480,6 = +0
 c2456: +1 Y481,2 = +0
 c2457: +1 Y481,3 = +0
 c2458: +1 Y481,4 = +0
 c2459: +1 Y481,5 = +0
 c2460: +1 Y481,6 = +0
 c2461: +1 Y482,2 = +0
 c2462: +1 Y482,3 = +0
 c2463: +1 Y482,4 = +0
 c2464: +1 Y482,5 = +0
 c2465: +1 Y482,6 = +0
 c2466: +1 Y483,2 = +0
 c2467: +1 Y483,3 = +0
 c2468: +1 Y483,4 = +0
 c2469: +1 Y483,5 = +0
 c2470: +1 Y483,6 = +0
 c2471: +1 Y484,2 = +0
 c2472: +1 Y484,3 = +0
 c2473: +1 Y484,4 = +0
 c2474: +1 Y484,5 = +0
 c2475: +1 Y484,6 = +0
 c2476: +1 Y485,2 = +0
 c2477: +1 Y485,3 = +0
 c2478: +1 Y485,4 = +0
 c2479: +1 Y485,5 = +0
 c2480: +1 Y485,6 = +0
 c2481: +1 Y486,2 = +0
 c2482: +1 Y486,3 = +0
 c2483: +1 Y486,4 = +0
 c2484: +1 Y486,5 = +0
 c2485: +1 Y486,6 = +0
 c2486: +1 Y487,2 = +0
 c2487: +1 Y487,3 = +0
 c2488: +1 Y487,4 = +0
 c2489: +1 Y487,5 = +0
 c2490: +1 Y487,6 = +0
 c2491: +1 Y488,2 = +0
 c2492: +1 Y488,3 = +0
 c2493: +1 Y488,4 = +0
 c2494: +1 Y488,5 = +0
 c2495: +1 Y488,6 = +0
 c2496: +1 Y489,2 = +0
 c2497: +1 Y489,3 = +0
 c2498: +1 Y489,4 = +0
 c2499: +1 Y489,5 = +0
 c2500: +1 Y489,6 = +0
 c2501: +1 Y490,2 = +0
 c2502: +1 Y490,3 = +0
 c2503: +1 Y490,4 = +0
 c2504: +1 Y490,5 = +0
 c2505: +1 Y490,6 = +0
 c2506: +1 Y491,2 = +0
 c2507: +1 Y491,3 = +0
 c2508: +1 Y491,4 = +0
 c2509: +1 Y491,5 = +0
 c2510: +1 Y491,6 = +0
 c2511: +1 Y492,2 = +0
 c2512: +1 Y492,3 = +0
 c2513: +1 Y492,4 = +0
 c2514: +1 Y492,5 = +0
 c2515: +1 Y492,6 = +0
 c2516: +1 Y493,2 = +0
 c2517: +1 Y493,3 = +0
 c2518: +1 Y493,4 = +0
 c2519: +1 Y493,5 = +0
 c2520: +1 Y493,6 = +0
 c2521: +1 Y494,2 = +0
 c2522: +1 Y494,3 = +0
 c2523: +1 Y494,4 = +0
 c2524: +1 Y494,5 = +0
 c2525: +1 Y494,6 = +0
 c2526: +1 Y495,2 = +0
 c2527: +1 Y495,3 = +0
 c2528: +1 Y495,4 = +0
 c2529: +1 Y495,5 = +0
 c2530: +1 Y495,6 = +0
 c2531: +1 Y496,2 = +0
 c2532: +1 Y496,3 = +0
 c2533: +1 Y496,4 = +0
 c2534: +1 Y496,5 = +0
 c2535: +1 Y496,6 = +0
 c2536: +1 Y497,2 = +0
 c2537: +1 Y497,3 = +0
 c2538: +1 Y497,4 = +0
 c2539: +1 Y497,5 = +0
 c2540: +1 Y497,6 = +0
 c2541: +1 Y498,2 = +0
 c2542: +1 Y498,3 = +0
 c2543: +1 Y498,4 = +0
 c2544: +1 Y498,5 = +0
 c2545: +1 Y498,6 = +0
 c2546: +1 Y499,2 = +0
 c2547: +1 Y499,3 = +0
 c2548: +1 Y499,4 = +0
 c2549: +1 Y499,5 = +0
 c2550: +1 Y499,6 = +0
 c2551: +1 Y500,2 = +0
 c2552: +1 Y500,3 = +0
 c2553: +1 Y500,4 = +0
 c2554: +1 Y500,5 = +0
 c2555: +1 Y500,6 = +0
 c2556: +1 Y501,2 = +0
 c2557: +1 Y501,3 = +0
 c2558: +1 Y501,4 = +0
 c2559: +1 Y501,5 = +0
 c2560: +1 Y501,6 = +0
 c2561: +1 Y502,2 = +0
 c2562: +1 Y502,3 = +0
 c2563: +1 Y502,4 = +0
 c2564: +1 Y502,5 = +0
 c2565: +1 Y502,6 = +0
 c2566: +1 Y503,2 = +0
 c2567: +1 Y503,3 = +0
 c2568: +1 Y503,4 = +0
 c2569: +1 Y503,5 = +0
 c2570: +1 Y503,6 = +0
 c2571: +1 Y504,2 = +0
 c2572: +1 Y504,3 = +0
 c2573: +1 Y504,4 = +0
 c2574: +1 Y504,5 = +0
 c2575: +1 Y504,6 = +0
 c2576: +1 Y505,2 = +0
 c2577: +1 Y505,3 = +0
 c2578: +1 Y505,4 = +0
 c2579: +1 Y505,5 = +0
 c2580: +1 Y505,6 = +0
 c2581: +1 Y506,2 = +0
 c2582: +1 Y506,3 = +0
 c2583: +1 Y506,4 = +0
 c2584: +1 Y506,5 = +0
 c2585: +1 Y506,6 = +0
 c2586: +1 Y507,2 = +0
 c2587: +1 Y507,3 = +0
 c2588: +1 Y507,4 = +0
 c2589: +1 Y507,5 = +0
 c2590: +1 Y507,6 = +0
 c2591: +1 Y508,2 = +0
 c2592: +1 Y508,3 = +0
 c2593: +1 Y508,4 = +0
 c2594: +1 Y508,5 = +0
 c2595: +1 Y508,6 = +0
 c2596: +1 Y509,2 = +0
 c2597: +1 Y509,3 = +0
 c2598: +1 Y509,4 = +0
 c2599: +1 Y509,5 = +0
 c2600: +1 Y509,6 = +0
 c2601: +1 Y510,2 = +0
 c2602: +1 Y510,3 = +0
 c2603: +1 Y510,4 = +0
 c2604: +1 Y510,5 = +0
 c2605: +1 Y510,6 = +0
 c2606: +1 Y511,2 = +0
 c2607: +1 Y511,3 = +0
 c2608: +1 Y511,4 = +0
 c2609: +1 Y511,5 = +0
 c2610: +1 Y511,6 = +0
 c2611: +1 Y512,2 = +0
 c2612: +1 Y512,3 = +0
 c2613: +1 Y512,4 = +0
 c2614: +1 Y512,5 = +0
 c2615: +1 Y512,6 = +0
 c2616: +1 Y513,2 = +0
 c2617: +1 Y513,3 = +0
 c2618: +1 Y513,4 = +0
 c2619: +1 Y513,5 = +0
 c2620: +1 Y513,6 = +0
 c2621: +1 Y514,2 = +0
 c2622: +1 Y514,3 = +0
 c2623: +1 Y514,4 = +0
 c2624: +1 Y514,5 = +0
 c2625: +1 Y514,6 = +0
 c2626: +1 Y515,2 = +0
 c2627: +1 Y515,3 = +0
 c2628: +1 Y515,4 = +0
 c2629: +1 Y515,5 = +0
 c2630: +1 Y515,6 = +0
 c2631: +1 Y516,2 = +0
 c2632: +1 Y516,3 = +0
 c2633: +1 Y516,4 = +0
 c2634: +1 Y516,5 = +0
 c2635: +1 Y516,6 = +0
 c2636: +1 Y517,2 = +0
 c2637: +1 Y517,3 = +0
 c2638: +1 Y517,4 = +0
 c2639: +1 Y517,5 = +0
 c2640: +1 Y517,6 = +0
 c2641: +1 Y518,2 = +0
 c2642: +1 Y518,3 = +0
 c2643: +1 Y518,4 = +0
 c2644: +1 Y518,5 = +0
 c2645: +1 Y518,6 = +0
 c2646: +1 Y519,2 = +0
 c2647: +1 Y519,3 = +0
 c2648: +1 Y519,4 = +0
 c2649: +1 Y519,5 = +0
 c2650: +1 Y519,6 = +0
 c2651: +1 Y520,2 = +0
 c2652: +1 Y520,3 = +0
 c2653: +1 Y520,4 = +0
 c2654: +1 Y520,5 = +0
 c2655: +1 Y520,6 = +0
 c2656: +1 Y521,2 = +0
 c2657: +1 Y521,3 = +0
 c2658: +1 Y521,4 = +0
 c2659: +1 Y521,5 = +0
 c2660: +1 Y521,6 = +0
 c2661: +1 Y522,2 = +0
 c2662: +1 Y522,3 = +0
 c2663: +1 Y522,4 = +0
 c2664: +1 Y522,5 = +0
 c2665: +1 Y522,6 = +0
 c2666: +1 Y523,2 = +0
 c2667: +1 Y523,3 = +0
 c2668: +1 Y523,4 = +0
 c2669: +1 Y523,5 = +0
 c2670: +1 Y523,6 = +0
 c2671: +1 Y524,2 = +0
 c2672: +1 Y524,3 = +0
 c2673: +1 Y524,4 = +0
 c2674: +1 Y524,5 = +0
 c2675: +1 Y524,6 = +0
 c2676: +1 Y525,2 = +0
 c2677: +1 Y525,3 = +0
 c2678: +1 Y525,4 = +0
 c2679: +1 Y525,5 = +0
 c2680: +1 Y525,6 = +0
 c2681: +1 Y526,2 = +0
 c2682: +1 Y526,3 = +0
 c2683: +1 Y526,4 = +0
 c2684: +1 Y526,5 = +0
 c2685: +1 Y526,6 = +0
 c2686: +1 Y527,2 = +0
 c2687: +1 Y527,3 = +0
 c2688: +1 Y527,4 = +0
 c2689: +1 Y527,5 = +0
 c2690: +1 Y527,6 = +0
 c2691: +1 Y528,2 = +0
 c2692: +1 Y528,3 = +0
 c2693: +1 Y528,4 = +0
 c2694: +1 Y528,5 = +0
 c2695: +1 Y528,6 = +0
 c2696: +1 Y529,2 = +0
 c2697: +1 Y529,3 = +0
 c2698: +1 Y529,4 = +0
 c2699: +1 Y529,5 = +0
 c2700: +1 Y529,6 = +0
 c2701: +1 Y530,2 = +0
 c2702: +1 Y530,3 = +0
 c2703: +1 Y530,4 = +0
 c2704: +1 Y530,5 = +0
 c2705: +1 Y530,6 = +0
 c2706: +1 Y531,2 = +0
 c2707: +1 Y531,3 = +0
 c2708: +1 Y531,4 = +0
 c2709: +1 Y531,5 = +0
 c2710: +1 Y531,6 = +0
 c2711: +1 Y532,2 = +0
 c2712: +1 Y532,3 = +0
 c2713: +1 Y532,4 = +0
 c2714: +1 Y532,5 = +0
 c2715: +1 Y532,6 = +0
 c2716: +1 Y533,2 = +0
 c2717: +1 Y533,3 = +0
 c2718: +1 Y533,4 = +0
 c2719: +1 Y533,5 = +0
 c2720: +1 Y533,6 = +0
 c2721: +1 Y534,2 = +0
 c2722: +1 Y534,3 = +0
 c2723: +1 Y534,4 = +0
 c2724: +1 Y534,5 = +0
 c2725: +1 Y534,6 = +0
 c2726: +1 Y535,2 = +0
 c2727: +1 Y535,3 = +0
 c2728: +1 Y535,4 = +0
 c2729: +1 Y535,5 = +0
 c2730: +1 Y535,6 = +0
 c2731: +1 Y536,2 = +0
 c2732: +1 Y536,3 = +0
 c2733: +1 Y536,4 = +0
 c2734: +1 Y536,5 = +0
 c2735: +1 Y536,6 = +0
 c2736: +1 Y537,2 = +0
 c2737: +1 Y537,3 = +0
 c2738: +1 Y537,4 = +0
 c2739: +1 Y537,5 = +0
 c2740: +1 Y537,6 = +0
 c2741: +1 Y538,2 = +0
 c2742: +1 Y538,3 = +0
 c2743: +1 Y538,4 = +0
 c2744: +1 Y538,5 = +0
 c2745: +1 Y538,6 = +0
 c2746: +1 Y539,2 = +0
 c2747: +1 Y539,3 = +0
 c2748: +1 Y539,4 = +0
 c2749: +1 Y539,5 = +0
 c2750: +1 Y539,6 = +0
 c2751: +1 Y540,2 = +0
 c2752: +1 Y540,3 = +0
 c2753: +1 Y540,4 = +0
 c2754: +1 Y540,5 = +0
 c2755: +1 Y540,6 = +0
 c2756: +1 Y541,0 = +0
 c2757: +1 Y541,1 = +0
 c2758: +1 Y541,3 = +0
 c2759: +1 Y541,4 = +0
 c2760: +1 Y541,5 = +0
 c2761: +1 Y542,0 = +0
 c2762: +1 Y542,1 = +0
 c2763: +1 Y542,3 = +0
 c2764: +1 Y542,4 = +0
 c2765: +1 Y542,5 = +0
 c2766: +1 Y543,0 = +0
 c2767: +1 Y543,1 = +0
 c2768: +1 Y543,3 = +0
 c2769: +1 Y543,4 = +0
 c2770: +1 Y543,5 = +0
 c2771: +1 Y544,0 = +0
 c2772: +1 Y544,1 = +0
 c2773: +1 Y544,3 = +0
 c2774: +1 Y544,4 = +0
 c2775: +1 Y544,5 = +0
 c2776: +1 Y545,0 = +0
 c2777: +1 Y545,1 = +0
 c2778: +1 Y545,3 = +0
 c2779: +1 Y545,4 = +0
 c2780: +1 Y545,5 = +0
 c2781: +1 Y546,0 = +0
 c2782: +1 Y546,1 = +0
 c2783: +1 Y546,3 = +0
 c2784: +1 Y546,4 = +0
 c2785: +1 Y546,5 = +0
 c2786: +1 Y547,0 = +0
 c2787: +1 Y547,1 = +0
 c2788: +1 Y547,3 = +0
 c2789: +1 Y547,4 = +0
 c2790: +1 Y547,5 = +0
 c2791: +1 Y548,4 = +0
 c2792: +1 Y548,5 = +0
 c2793: +1 Y548,6 = +0
 c2794: +1 Y549,4 = +0
 c2795: +1 Y549,5 = +0
 c2796: +1 Y549,6 = +0
 c2797: +1 Y550,4 = +0
 c2798: +1 Y550,5 = +0
 c2799: +1 Y550,6 = +0
 c2800: +1 Y551,4 = +0
 c2801: +1 Y551,5 = +0
 c2802: +1 Y551,6 = +0
 c2803: +1 Y552,4 = +0
 c2804: +1 Y552,5 = +0
 c2805: +1 Y552,6 = +0
 c2806: +1 Y553,4 = +0
 c2807: +1 Y553,5 = +0
 c2808: +1 Y553,6 = +0
 c2809: +1 Y554,4 = +0
 c2810: +1 Y554,5 = +0
 c2811: +1 Y554,6 = +0
 c2812: +1 Y555,4 = +0
 c2813: +1 Y555,5 = +0
 c2814: +1 Y555,6 = +0
 c2815: +1 Y556,4 = +0
 c2816: +1 Y556,5 = +0
 c2817: +1 Y556,6 = +0
 c2818: +1 Y557,4 = +0
 c2819: +1 Y557,5 = +0
 c2820: +1 Y557,6 = +0
 c2821: +1 Y558,4 = +0
 c2822: +1 Y558,5 = +0
 c2823: +1 Y558,6 = +0
 c2824: +1 Y559,4 = +0
 c2825: +1 Y559,5 = +0
 c2826: +1 Y559,6 = +0
 c2827: +1 Y560,4 = +0
 c2828: +1 Y560,5 = +0
 c2829: +1 Y560,6 = +0
 c2830: +1 Y561,4 = +0
 c2831: +1 Y561,5 = +0
 c2832: +1 Y561,6 = +0
 c2833: +1 Y562,4 = +0
 c2834: +1 Y562,5 = +0
 c2835: +1 Y562,6 = +0
 c2836: +1 Y563,4 = +0
 c2837: +1 Y563,5 = +0
 c2838: +1 Y563,6 = +0
 c2839: +1 Y564,4 = +0
 c2840: +1 Y564,5 = +0
 c2841: +1 Y564,6 = +0
 c2842: +1 Y565,4 = +0
 c2843: +1 Y565,5 = +0
 c2844: +1 Y565,6 = +0
 c2845: +1 Y566,4 = +0
 c2846: +1 Y566,5 = +0
 c2847: +1 Y566,6 = +0
 c2848: +1 Y567,4 = +0
 c2849: +1 Y567,5 = +0
 c2850: +1 Y567,6 = +0
 c2851: +1 Y568,4 = +0
 c2852: +1 Y568,5 = +0
 c2853: +1 Y568,6 = +0
 c2854: +1 Y569,4 = +0
 c2855: +1 Y569,5 = +0
 c2856: +1 Y569,6 = +0
 c2857: +1 Y570,4 = +0
 c2858: +1 Y570,5 = +0
 c2859: +1 Y570,6 = +0
 c2860: +1 Y571,4 = +0
 c2861: +1 Y571,5 = +0
 c2862: +1 Y571,6 = +0
 c2863: +1 Y572,4 = +0
 c2864: +1 Y572,5 = +0
 c2865: +1 Y572,6 = +0
 c2866: +1 Y573,4 = +0
 c2867: +1 Y573,5 = +0
 c2868: +1 Y573,6 = +0
 c2869: +1 Y574,4 = +0
 c2870: +1 Y574,5 = +0
 c2871: +1 Y574,6 = +0
 c2872: +1 Y575,4 = +0
 c2873: +1 Y575,5 = +0
 c2874: +1 Y575,6 = +0
 c2875: +1 Y576,4 = +0
 c2876: +1 Y576,5 = +0
 c2877: +1 Y576,6 = +0
 c2878: +1 Y577,4 = +0
 c2879: +1 Y577,5 = +0
 c2880: +1 Y577,6 = +0
 c2881: +1 Y578,4 = +0
 c2882: +1 Y578,5 = +0
 c2883: +1 Y578,6 = +0
 c2884: +1 Y579,0 = +0
 c2885: +1 Y579,1 = +0
 c2886: +1 Y579,3 = +0
 c2887: +1 Y580,0 = +0
 c2888: +1 Y580,1 = +0
 c2889: +1 Y580,3 = +0
 c2890: +1 Y581,0 = +0
 c2891: +1 Y581,1 = +0
 c2892: +1 Y581,3 = +0
 c2893: +1 Y582,0 = +0
 c2894: +1 Y582,1 = +0
 c2895: +1 Y582,3 = +0
 c2896: +1 Y583,0 = +0
 c2897: +1 Y583,1 = +0
 c2898: +1 Y583,3 = +0
 c2899: +1 Y584,0 = +0
 c2900: +1 Y584,1 = +0
 c2901: +1 Y584,3 = +0
 c2902: +1 Y585,0 = +0
 c2903: +1 Y585,1 = +0
 c2904: +1 Y585,3 = +0
 c2905: +1 Y586,0 = +0
 c2906: +1 Y586,1 = +0
 c2907: +1 Y586,3 = +0
 c2908: +1 Y587,0 = +0
 c2909: +1 Y587,1 = +0
 c2910: +1 Y587,3 = +0
 c2911: +1 Y588,0 = +0
 c2912: +1 Y588,1 = +0
 c2913: +1 Y588,3 = +0
 c2914: +1 Y589,0 = +0
 c2915: +1 Y589,1 = +0
 c2916: +1 Y589,3 = +0
 c2917: +1 Y590,0 = +0
 c2918: +1 Y590,1 = +0
 c2919: +1 Y590,3 = +0
 c2920: +1 Y591,0 = +0
 c2921: +1 Y591,1 = +0
 c2922: +1 Y591,3 = +0
 c2923: +1 Y592,0 = +0
 c2924: +1 Y592,1 = +0
 c2925: +1 Y592,3 = +0
 c2926: +1 Y593,0 = +0
 c2927: +1 Y593,1 = +0
 c2928: +1 Y593,3 = +0
 c2929: +1 Y594,0 = +0
 c2930: +1 Y594,1 = +0
 c2931: +1 Y594,3 = +0
 c2932: +1 Y595,0 = +0
 c2933: +1 Y595,1 = +0
 c2934: +1 Y595,3 = +0
 c2935: +1 Y596,0 = +0
 c2936: +1 Y596,1 = +0
 c2937: +1 Y596,3 = +0
 c2938: +1 Y597,0 = +0
 c2939: +1 Y597,1 = +0
 c2940: +1 Y597,3 = +0
 c2941: +1 Y598,0 = +0
 c2942: +1 Y598,1 = +0
 c2943: +1 Y598,3 = +0
 c2944: +1 Y599,0 = +0
 c2945: +1 Y599,1 = +0
 c2946: +1 Y599,3 = +0
 c2947: +1 Y600,0 = +0
 c2948: +1 Y600,1 = +0
 c2949: +1 Y600,3 = +0
 c2950: +1 Y601,0 = +0
 c2951: +1 Y601,1 = +0
 c2952: +1 Y601,3 = +0
 c2953: +1 Y602,0 = +0
 c2954: +1 Y602,1 = +0
 c2955: +1 Y602,3 = +0
 c2956: +1 Y603,0 = +0
 c2957: +1 Y603,1 = +0
 c2958: +1 Y603,3 = +0
 c2959: +1 Y604,0 = +0
 c2960: +1 Y604,1 = +0
 c2961: +1 Y604,3 = +0
 c2962: +1 Y605,0 = +0
 c2963: +1 Y605,1 = +0
 c2964: +1 Y605,3 = +0
 c2965: +1 Y606,0 = +0
 c2966: +1 Y606,1 = +0
 c2967: +1 Y606,3 = +0
 c2968: +1 Y607,0 = +0
 c2969: +1 Y607,1 = +0
 c2970: +1 Y607,3 = +0
 c2971: +1 Y608,0 = +0
 c2972: +1 Y608,1 = +0
 c2973: +1 Y608,3 = +0
 c2974: +1 Y609,0 = +0
 c2975: +1 Y609,1 = +0
 c2976: +1 Y609,3 = +0
 c2977: +1 Y610,0 = +0
 c2978: +1 Y610,1 = +0
 c2979: +1 Y610,3 = +0
 c2980: +1 Y611,0 = +0
 c2981: +1 Y611,1 = +0
 c2982: +1 Y611,3 = +0
 c2983: +1 Y612,0 = +0
 c2984: +1 Y612,1 = +0
 c2985: +1 Y612,3 = +0
 c2986: +1 Y613,0 = +0
 c2987: +1 Y613,1 = +0
 c2988: +1 Y613,3 = +0
 c2989: +1 Y614,0 = +0
 c2990: +1 Y614,1 = +0
 c2991: +1 Y614,3 = +0
 c2992: +1 Y615,0 = +0
 c2993: +1 Y615,1 = +0
 c2994: +1 Y615,3 = +0
 c2995: +1 Y616,0 = +0
 c2996: +1 Y616,1 = +0
 c2997: +1 Y616,3 = +0
 c2998: +1 Y617,0 = +0
 c2999: +1 Y617,1 = +0
 c3000: +1 Y617,3 = +0
 c3001: +1 Y618,0 = +0
 c3002: +1 Y618,1 = +0
 c3003: +1 Y618,3 = +0
 c3004: +1 Y619,0 = +0
 c3005: +1 Y619,1 = +0
 c3006: +1 Y619,3 = +0
 c3007: +1 Y620,0 = +0
 c3008: +1 Y620,1 = +0
 c3009: +1 Y620,3 = +0
 c3010: +1 Y621,0 = +0
 c3011: +1 Y621,1 = +0
 c3012: +1 Y621,3 = +0
 c3013: +1 Y622,0 = +0
 c3014: +1 Y622,1 = +0
 c3015: +1 Y622,3 = +0
 c3016: +1 Y623,0 = +0
 c3017: +1 Y623,1 = +0
 c3018: +1 Y623,3 = +0
 c3019: +1 Y624,0 = +0
 c3020: +1 Y624,1 = +0
 c3021: +1 Y624,3 = +0
 c3022: +1 Y625,0 = +0
 c3023: +1 Y625,1 = +0
 c3024: +1 Y625,3 = +0
 c3025: +1 Y626,0 = +0
 c3026: +1 Y626,1 = +0
 c3027: +1 Y626,3 = +0
 c3028: +1 Y627,0 = +0
 c3029: +1 Y627,1 = +0
 c3030: +1 Y627,3 = +0
 c3031: +1 Y628,0 = +0
 c3032: +1 Y628,1 = +0
 c3033: +1 Y628,3 = +0
 c3034: +1 Y629,0 = +0
 c3035: +1 Y629,1 = +0
 c3036: +1 Y629,3 = +0
 c3037: +1 Y630,0 = +0
 c3038: +1 Y630,1 = +0
 c3039: +1 Y630,3 = +0
 c3040: +1 Y631,0 = +0
 c3041: +1 Y631,1 = +0
 c3042: +1 Y631,3 = +0
 c3043: +1 Y632,0 = +0
 c3044: +1 Y632,1 = +0
 c3045: +1 Y632,3 = +0
 c3046: +1 Y633,0 = +0
 c3047: +1 Y633,1 = +0
 c3048: +1 Y633,3 = +0
 c3049: +1 Y634,0 = +0
 c3050: +1 Y634,1 = +0
 c3051: +1 Y634,3 = +0
 c3052: +1 Y635,0 = +0
 c3053: +1 Y635,1 = +0
 c3054: +1 Y635,3 = +0
 c3055: +1 Y636,0 = +0
 c3056: +1 Y636,1 = +0
 c3057: +1 Y636,3 = +0
 c3058: +1 Y637,0 = +0
 c3059: +1 Y637,1 = +0
 c3060: +1 Y637,3 = +0
 c3061: +1 Y638,0 = +0
 c3062: +1 Y638,1 = +0
 c3063: +1 Y638,3 = +0
 c3064: +1 Y639,0 = +0
 c3065: +1 Y639,1 = +0
 c3066: +1 Y639,3 = +0
 c3067: +1 Y640,0 = +0
 c3068: +1 Y640,1 = +0
 c3069: +1 Y640,3 = +0
 c3070: +1 Y641,0 = +0
 c3071: +1 Y641,1 = +0
 c3072: +1 Y641,3 = +0
 c3073: +1 Y642,0 = +0
 c3074: +1 Y642,1 = +0
 c3075: +1 Y642,3 = +0
 c3076: +1 Y643,0 = +0
 c3077: +1 Y643,1 = +0
 c3078: +1 Y643,3 = +0
 c3079: +1 Y644,0 = +0
 c3080: +1 Y644,1 = +0
 c3081: +1 Y644,3 = +0
 c3082: +1 Y645,0 = +0
 c3083: +1 Y645,1 = +0
 c3084: +1 Y645,3 = +0
 c3085: +1 Y646,0 = +0
 c3086: +1 Y646,1 = +0
 c3087: +1 Y646,3 = +0
 c3088: +1 Y647,0 = +0
 c3089: +1 Y647,1 = +0
 c3090: +1 Y647,3 = +0
 c3091: +1 Y648,0 = +0
 c3092: +1 Y648,1 = +0
 c3093: +1 Y648,3 = +0
 c3094: +1 Y649,0 = +0
 c3095: +1 Y649,1 = +0
 c3096: +1 Y649,3 = +0
 c3097: +1 Y650,0 = +0
 c3098: +1 Y650,1 = +0
 c3099: +1 Y650,3 = +0
 c3100: +1 Y651,0 = +0
 c3101: +1 Y651,1 = +0
 c3102: +1 Y651,3 = +0
 c3103: +1 Y652,0 = +0
 c3104: +1 Y652,1 = +0
 c3105: +1 Y652,3 = +0
 c3106: +1 Y653,0 = +0
 c3107: +1 Y653,1 = +0
 c3108: +1 Y653,3 = +0
 c3109: +1 Y654,0 = +0
 c3110: +1 Y654,1 = +0
 c3111: +1 Y654,3 = +0
 c3112: +1 Y655,0 = +0
 c3113: +1 Y655,1 = +0
 c3114: +1 Y655,3 = +0
 c3115: +1 Y656,0 = +0
 c3116: +1 Y656,1 = +0
 c3117: +1 Y656,3 = +0
 c3118: +1 Y657,0 = +0
 c3119: +1 Y657,1 = +0
 c3120: +1 Y657,3 = +0
 c3121: +1 Y658,0 = +0
 c3122: +1 Y658,1 = +0
 c3123: +1 Y658,3 = +0
 c3124: +1 Y659,0 = +0
 c3125: +1 Y659,1 = +0
 c3126: +1 Y659,3 = +0
 c3127: +1 Y660,0 = +0
 c3128: +1 Y660,1 = +0
 c3129: +1 Y660,3 = +0
 c3130: +1 Y661,0 = +0
 c3131: +1 Y661,1 = +0
 c3132: +1 Y661,3 = +0
 c3133: +1 Y662,0 = +0
 c3134: +1 Y662,1 = +0
 c3135: +1 Y662,3 = +0
 c3136: +1 Y663,0 = +0
 c3137: +1 Y663,1 = +0
 c3138: +1 Y663,3 = +0
 c3139: +1 Y664,0 = +0
 c3140: +1 Y664,1 = +0
 c3141: +1 Y664,3 = +0
 c3142: +1 Y665,0 = +0
 c3143: +1 Y665,1 = +0
 c3144: +1 Y665,3 = +0
 c3145: +1 Y666,0 = +0
 c3146: +1 Y666,1 = +0
 c3147: +1 Y666,3 = +0
 c3148: +1 Y667,0 = +0
 c3149: +1 Y667,1 = +0
 c3150: +1 Y667,3 = +0
 c3151: +1 Y668,0 = +0
 c3152: +1 Y668,1 = +0
 c3153: +1 Y668,3 = +0
 c3154: +1 Y669,0 = +0
 c3155: +1 Y669,1 = +0
 c3156: +1 Y669,3 = +0
 c3157: +1 Y670,0 = +0
 c3158: +1 Y670,1 = +0
 c3159: +1 Y670,3 = +0
 c3160: +1 Y671,0 = +0
 c3161: +1 Y671,1 = +0
 c3162: +1 Y671,3 = +0
 c3163: +1 Y672,0 = +0
 c3164: +1 Y672,1 = +0
 c3165: +1 Y672,3 = +0
 c3166: +1 Y673,0 = +0
 c3167: +1 Y673,1 = +0
 c3168: +1 Y673,3 = +0
 c3169: +1 Y674,0 = +0
 c3170: +1 Y674,1 = +0
 c3171: +1 Y674,3 = +0
 c3172: +1 Y675,0 = +0
 c3173: +1 Y675,1 = +0
 c3174: +1 Y675,3 = +0
 c3175: +1 Y676,0 = +0
 c3176: +1 Y676,1 = +0
 c3177: +1 Y676,3 = +0
 c3178: +1 Y677,0 = +0
 c3179: +1 Y677,1 = +0
 c3180: +1 Y677,3 = +0
 c3181: +1 Y678,0 = +0
 c3182: +1 Y678,1 = +0
 c3183: +1 Y678,3 = +0
 c3184: +1 Y679,0 = +0
 c3185: +1 Y679,1 = +0
 c3186: +1 Y679,3 = +0
 c3187: +1 Y680,0 = +0
 c3188: +1 Y680,1 = +0
 c3189: +1 Y680,3 = +0
 c3190: +1 Y681,0 = +0
 c3191: +1 Y681,1 = +0
 c3192: +1 Y681,3 = +0
 c3193: +1 Y682,0 = +0
 c3194: +1 Y682,1 = +0
 c3195: +1 Y682,3 = +0
 c3196: +1 Y683,0 = +0
 c3197: +1 Y683,1 = +0
 c3198: +1 Y683,3 = +0
 c3199: +1 Y684,0 = +0
 c3200: +1 Y684,1 = +0
 c3201: +1 Y684,3 = +0
 c3202: +1 Y685,0 = +0
 c3203: +1 Y685,1 = +0
 c3204: +1 Y685,3 = +0
 c3205: +1 Y686,0 = +0
 c3206: +1 Y686,1 = +0
 c3207: +1 Y686,3 = +0
 c3208: +1 Y687,0 = +0
 c3209: +1 Y687,1 = +0
 c3210: +1 Y687,3 = +0
 c3211: +1 Y688,0 = +0
 c3212: +1 Y688,1 = +0
 c3213: +1 Y688,3 = +0
 c3214: +1 Y689,0 = +0
 c3215: +1 Y689,1 = +0
 c3216: +1 Y689,3 = +0
 c3217: +1 Y690,0 = +0
 c3218: +1 Y690,1 = +0
 c3219: +1 Y690,3 = +0
 c3220: +1 Y691,0 = +0
 c3221: +1 Y691,1 = +0
 c3222: +1 Y691,3 = +0
 c3223: +1 Y692,0 = +0
 c3224: +1 Y692,1 = +0
 c3225: +1 Y692,3 = +0
 c3226: +1 Y693,0 = +0
 c3227: +1 Y693,1 = +0
 c3228: +1 Y693,3 = +0
 c3229: +1 Y694,0 = +0
 c3230: +1 Y694,1 = +0
 c3231: +1 Y694,3 = +0
 c3232: +1 Y695,0 = +0
 c3233: +1 Y695,1 = +0
 c3234: +1 Y695,3 = +0
 c3235: +1 Y696,0 = +0
 c3236: +1 Y696,1 = +0
 c3237: +1 Y696,3 = +0
 c3238: +1 Y697,4 = +0
 c3239: +1 Y697,5 = +0
 c3240: +1 Y697,6 = +0
 c3241: +1 Y698,4 = +0
 c3242: +1 Y698,5 = +0
 c3243: +1 Y698,6 = +0
 c3244: +1 Y699,4 = +0
 c3245: +1 Y699,5 = +0
 c3246: +1 Y699,6 = +0
 c3247: +1 Y700,4 = +0
 c3248: +1 Y700,5 = +0
 c3249: +1 Y700,6 = +0
 c3250: +1 Y701,4 = +0
 c3251: +1 Y701,5 = +0
 c3252: +1 Y701,6 = +0
 c3253: +1 Y702,4 = +0
 c3254: +1 Y702,5 = +0
 c3255: +1 Y702,6 = +0
 c3256: +1 Y703,4 = +0
 c3257: +1 Y703,5 = +0
 c3258: +1 Y703,6 = +0
 c3259: +1 Y704,4 = +0
 c3260: +1 Y704,5 = +0
 c3261: +1 Y704,6 = +0
 c3262: +1 Y705,4 = +0
 c3263: +1 Y705,5 = +0
 c3264: +1 Y705,6 = +0
 c3265: +1 Y706,4 = +0
 c3266: +1 Y706,5 = +0
 c3267: +1 Y706,6 = +0
 c3268: +1 Y707,4 = +0
 c3269: +1 Y707,5 = +0
 c3270: +1 Y707,6 = +0
 c3271: +1 Y708,4 = +0
 c3272: +1 Y708,5 = +0
 c3273: +1 Y708,6 = +0
 c3274: +1 Y709,4 = +0
 c3275: +1 Y709,5 = +0
 c3276: +1 Y709,6 = +0
 c3277: +1 Y710,4 = +0
 c3278: +1 Y710,5 = +0
 c3279: +1 Y710,6 = +0
 c3280: +1 Y711,4 = +0
 c3281: +1 Y711,5 = +0
 c3282: +1 Y711,6 = +0
 c3283: +1 Y712,0 = +0
 c3284: +1 Y712,2 = +0
 c3285: +1 Y712,3 = +0
 c3286: +1 Y712,4 = +0
 c3287: +1 Y712,6 = +0
 c3288: +1 Y713,0 = +0
 c3289: +1 Y713,2 = +0
 c3290: +1 Y713,3 = +0
 c3291: +1 Y713,4 = +0
 c3292: +1 Y713,6 = +0
 c3293: +1 Y714,0 = +0
 c3294: +1 Y714,2 = +0
 c3295: +1 Y714,3 = +0
 c3296: +1 Y714,4 = +0
 c3297: +1 Y714,6 = +0
 c3298: +1 Y715,0 = +0
 c3299: +1 Y715,2 = +0
 c3300: +1 Y715,3 = +0
 c3301: +1 Y715,4 = +0
 c3302: +1 Y715,6 = +0
 c3303: +1 Y716,0 = +0
 c3304: +1 Y716,2 = +0
 c3305: +1 Y716,3 = +0
 c3306: +1 Y716,4 = +0
 c3307: +1 Y716,6 = +0
 c3308: +1 Y717,0 = +0
 c3309: +1 Y717,2 = +0
 c3310: +1 Y717,3 = +0
 c3311: +1 Y717,4 = +0
 c3312: +1 Y717,6 = +0
 c3313: +1 Y718,0 = +0
 c3314: +1 Y718,2 = +0
 c3315: +1 Y718,3 = +0
 c3316: +1 Y718,4 = +0
 c3317: +1 Y718,6 = +0
 c3318: +1 Y719,0 = +0
 c3319: +1 Y719,2 = +0
 c3320: +1 Y719,3 = +0
 c3321: +1 Y719,4 = +0
 c3322: +1 Y719,6 = +0
 c3323: +1 Y720,0 = +0
 c3324: +1 Y720,2 = +0
 c3325: +1 Y720,3 = +0
 c3326: +1 Y720,4 = +0
 c3327: +1 Y720,6 = +0
 c3328: +1 Y721,0 = +0
 c3329: +1 Y721,2 = +0
 c3330: +1 Y721,3 = +0
 c3331: +1 Y721,4 = +0
 c3332: +1 Y721,6 = +0
 c3333: +1 Y722,0 = +0
 c3334: +1 Y722,2 = +0
 c3335: +1 Y722,3 = +0
 c3336: +1 Y722,4 = +0
 c3337: +1 Y722,6 = +0
 c3338: +1 Y723,0 = +0
 c3339: +1 Y723,2 = +0
 c3340: +1 Y723,3 = +0
 c3341: +1 Y723,4 = +0
 c3342: +1 Y723,6 = +0
 c3343: +1 Y724,0 = +0
 c3344: +1 Y724,2 = +0
 c3345: +1 Y724,3 = +0
 c3346: +1 Y724,4 = +0
 c3347: +1 Y724,6 = +0
 c3348: +1 Y725,0 = +0
 c3349: +1 Y725,2 = +0
 c3350: +1 Y725,3 = +0
 c3351: +1 Y725,4 = +0
 c3352: +1 Y725,6 = +0
 c3353: +1 Y726,0 = +0
 c3354: +1 Y726,2 = +0
 c3355: +1 Y726,3 = +0
 c3356: +1 Y726,4 = +0
 c3357: +1 Y726,6 = +0
 c3358: +1 Y727,1 = +0
 c3359: +1 Y727,3 = +0
 c3360: +1 Y727,6 = +0
 c3361: +1 Y728,1 = +0
 c3362: +1 Y728,3 = +0
 c3363: +1 Y728,6 = +0
 c3364: +1 Y729,1 = +0
 c3365: +1 Y729,3 = +0
 c3366: +1 Y729,6 = +0
 c3367: +1 Y730,1 = +0
 c3368: +1 Y730,3 = +0
 c3369: +1 Y730,6 = +0
 c3370: +1 Y731,1 = +0
 c3371: +1 Y731,3 = +0
 c3372: +1 Y731,6 = +0
 c3373: +1 Y732,1 = +0
 c3374: +1 Y732,3 = +0
 c3375: +1 Y732,6 = +0
 c3376: +1 Y733,1 = +0
 c3377: +1 Y733,3 = +0
 c3378: +1 Y733,6 = +0
 c3379: +1 Y734,1 = +0
 c3380: +1 Y734,3 = +0
 c3381: +1 Y734,6 = +0
 c3382: +1 Y735,1 = +0
 c3383: +1 Y735,3 = +0
 c3384: +1 Y735,6 = +0
 c3385: +1 Y736,1 = +0
 c3386: +1 Y736,3 = +0
 c3387: +1 Y736,6 = +0
 c3388: +1 Y737,1 = +0
 c3389: +1 Y737,3 = +0
 c3390: +1 Y737,6 = +0
 c3391: +1 Y738,1 = +0
 c3392: +1 Y738,3 = +0
 c3393: +1 Y738,6 = +0
 c3394: +1 Y739,1 = +0
 c3395: +1 Y739,3 = +0
 c3396: +1 Y739,6 = +0
 c3397: +1 Y740,1 = +0
 c3398: +1 Y740,3 = +0
 c3399: +1 Y740,6 = +0
 c3400: +1 Y741,1 = +0
 c3401: +1 Y741,3 = +0
 c3402: +1 Y741,6 = +0
 c3403: +1 Y742,1 = +0
 c3404: +1 Y742,3 = +0
 c3405: +1 Y742,6 = +0
 c3406: +1 Y743,1 = +0
 c3407: +1 Y743,3 = +0
 c3408: +1 Y743,6 = +0
 c3409: +1 Y744,1 = +0
 c3410: +1 Y744,3 = +0
 c3411: +1 Y744,6 = +0
 c3412: +1 Y745,1 = +0
 c3413: +1 Y745,3 = +0
 c3414: +1 Y745,6 = +0
 c3415: +1 Y746,1 = +0
 c3416: +1 Y746,3 = +0
 c3417: +1 Y746,6 = +0
 c3418: +1 Y747,1 = +0
 c3419: +1 Y747,3 = +0
 c3420: +1 Y747,6 = +0
 c3421: +1 Y748,1 = +0
 c3422: +1 Y748,3 = +0
 c3423: +1 Y748,6 = +0
 c3424: +1 Y749,1 = +0
 c3425: +1 Y749,3 = +0
 c3426: +1 Y749,6 = +0
 c3427: +1 Y750,1 = +0
 c3428: +1 Y750,3 = +0
 c3429: +1 Y750,6 = +0
 c3430: +1 Y751,1 = +0
 c3431: +1 Y751,3 = +0
 c3432: +1 Y751,6 = +0
 c3433: +1 Y752,1 = +0
 c3434: +1 Y752,3 = +0
 c3435: +1 Y752,6 = +0
 c3436: +1 Y753,1 = +0
 c3437: +1 Y753,3 = +0
 c3438: +1 Y753,6 = +0
 c3439: +1 Y754,1 = +0
 c3440: +1 Y754,3 = +0
 c3441: +1 Y754,6 = +0
 c3442: +1 Y755,1 = +0
 c3443: +1 Y755,3 = +0
 c3444: +1 Y755,6 = +0
 c3445: +1 Y756,1 = +0
 c3446: +1 Y756,3 = +0
 c3447: +1 Y756,6 = +0
 c3448: +1 Y757,1 = +0
 c3449: +1 Y757,3 = +0
 c3450: +1 Y757,6 = +0
 c3451: +1 Y758,0 = +0
 c3452: +1 Y758,2 = +0
 c3453: +1 Y758,4 = +0
 c3454: +1 Y759,0 = +0
 c3455: +1 Y759,2 = +0
 c3456: +1 Y759,4 = +0
 c3457: +1 Y760,0 = +0
 c3458: +1 Y760,2 = +0
 c3459: +1 Y760,4 = +0
 c3460: +1 Y761,0 = +0
 c3461: +1 Y761,2 = +0
 c3462: +1 Y761,4 = +0
 c3463: +1 Y762,0 = +0
 c3464: +1 Y762,2 = +0
 c3465: +1 Y762,4 = +0
 c3466: +1 Y763,0 = +0
 c3467: +1 Y763,2 = +0
 c3468: +1 Y763,4 = +0
 c3469: +1 Y764,0 = +0
 c3470: +1 Y764,2 = +0
 c3471: +1 Y764,4 = +0
 c3472: +1 Y765,0 = +0
 c3473: +1 Y765,2 = +0
 c3474: +1 Y765,4 = +0
 c3475: +1 Y766,0 = +0
 c3476: +1 Y766,2 = +0
 c3477: +1 Y766,4 = +0
 c3478: +1 Y767,0 = +0
 c3479: +1 Y767,2 = +0
 c3480: +1 Y767,4 = +0
 c3481: +1 Y768,0 = +0
 c3482: +1 Y768,2 = +0
 c3483: +1 Y768,4 = +0
 c3484: +1 Y769,0 = +0
 c3485: +1 Y769,2 = +0
 c3486: +1 Y769,4 = +0
 c3487: +1 Y770,0 = +0
 c3488: +1 Y770,2 = +0
 c3489: +1 Y770,4 = +0
 c3490: +1 Y771,0 = +0
 c3491: +1 Y771,2 = +0
 c3492: +1 Y771,4 = +0
 c3493: +1 Y772,0 = +0
 c3494: +1 Y772,2 = +0
 c3495: +1 Y772,4 = +0
 c3496: +1 Y773,0 = +0
 c3497: +1 Y773,2 = +0
 c3498: +1 Y773,4 = +0
 c3499: +1 Y774,0 = +0
 c3500: +1 Y774,2 = +0
 c3501: +1 Y774,4 = +0
 c3502: +1 Y775,0 = +0
 c3503: +1 Y775,2 = +0
 c3504: +1 Y775,4 = +0
 c3505: +1 Y776,0 = +0
 c3506: +1 Y776,2 = +0
 c3507: +1 Y776,4 = +0
 c3508: +1 Y777,0 = +0
 c3509: +1 Y777,2 = +0
 c3510: +1 Y777,4 = +0
 c3511: +1 Y778,0 = +0
 c3512: +1 Y778,2 = +0
 c3513: +1 Y778,4 = +0
 c3514: +1 Y779,0 = +0
 c3515: +1 Y779,2 = +0
 c3516: +1 Y779,4 = +0
 c3517: +1 Y780,0 = +0
 c3518: +1 Y780,2 = +0
 c3519: +1 Y780,4 = +0
 c3520: +1 Y781,0 = +0
 c3521: +1 Y781,2 = +0
 c3522: +1 Y781,4 = +0
 c3523: +1 Y782,0 = +0
 c3524: +1 Y782,2 = +0
 c3525: +1 Y782,4 = +0
 c3526: +1 Y783,0 = +0
 c3527: +1 Y783,2 = +0
 c3528: +1 Y783,4 = +0
 c3529: +1 Y784,0 = +0
 c3530: +1 Y784,2 = +0
 c3531: +1 Y784,4 = +0
 c3532: +1 Y785,0 = +0
 c3533: +1 Y785,2 = +0
 c3534: +1 Y785,4 = +0
 c3535: +1 Y786,0 = +0
 c3536: +1 Y786,2 = +0
 c3537: +1 Y786,4 = +0
 c3538: +1 Y787,0 = +0
 c3539: +1 Y787,2 = +0
 c3540: +1 Y787,4 = +0
 c3541: +1 Y788,0 = +0
 c3542: +1 Y788,2 = +0
 c3543: +1 Y788,4 = +0
 c3544: +1 Y789,0 = +0
 c3545: +1 Y789,2 = +0
 c3546: +1 Y789,4 = +0
 c3547: +1 Y790,0 = +0
 c3548: +1 Y790,2 = +0
 c3549: +1 Y790,4 = +0
 c3550: +1 Y791,0 = +0
 c3551: +1 Y791,2 = +0
 c3552: +1 Y791,4 = +0
 c3553: +1 Y792,0 = +0
 c3554: +1 Y792,2 = +0
 c3555: +1 Y792,4 = +0
 c3556: +1 Y793,0 = +0
 c3557: +1 Y793,2 = +0
 c3558: +1 Y793,4 = +0
 c3559: +1 Y794,0 = +0
 c3560: +1 Y794,2 = +0
 c3561: +1 Y794,4 = +0
 c3562: +1 Y795,0 = +0
 c3563: +1 Y795,2 = +0
 c3564: +1 Y795,4 = +0
 c3565: +1 Y796,0 = +0
 c3566: +1 Y796,2 = +0
 c3567: +1 Y796,4 = +0
 c3568: +1 Y797,0 = +0
 c3569: +1 Y797,2 = +0
 c3570: +1 Y797,4 = +0
 c3571: +1 Y798,0 = +0
 c3572: +1 Y798,2 = +0
 c3573: +1 Y798,4 = +0
 c3574: +1 Y799,0 = +0
 c3575: +1 Y799,2 = +0
 c3576: +1 Y799,4 = +0
 c3577: +1 Y800,0 = +0
 c3578: +1 Y800,2 = +0
 c3579: +1 Y800,4 = +0
 c3580: +1 Y801,0 = +0
 c3581: +1 Y801,2 = +0
 c3582: +1 Y801,4 = +0
 c3583: +1 Y802,0 = +0
 c3584: +1 Y802,2 = +0
 c3585: +1 Y802,4 = +0
 c3586: +1 Y803,0 = +0
 c3587: +1 Y803,2 = +0
 c3588: +1 Y803,4 = +0
 c3589: +1 Y804,0 = +0
 c3590: +1 Y804,2 = +0
 c3591: +1 Y804,4 = +0
 c3592: +1 Y805,0 = +0
 c3593: +1 Y805,2 = +0
 c3594: +1 Y805,4 = +0
 c3595: +1 Y806,0 = +0
 c3596: +1 Y806,2 = +0
 c3597: +1 Y806,4 = +0
 c3598: +1 Y807,0 = +0
 c3599: +1 Y807,2 = +0
 c3600: +1 Y807,4 = +0
 c3601: +1 Y808,0 = +0
 c3602: +1 Y808,2 = +0
 c3603: +1 Y808,4 = +0
 c3604: +1 Y809,0 = +0
 c3605: +1 Y809,2 = +0
 c3606: +1 Y809,4 = +0
 c3607: +1 Y810,0 = +0
 c3608: +1 Y810,2 = +0
 c3609: +1 Y810,4 = +0
 c3610: +1 Y811,0 = +0
 c3611: +1 Y811,2 = +0
 c3612: +1 Y811,4 = +0
 c3613: +1 Y812,0 = +0
 c3614: +1 Y812,2 = +0
 c3615: +1 Y812,4 = +0
 c3616: +1 Y813,0 = +0
 c3617: +1 Y813,2 = +0
 c3618: +1 Y813,4 = +0
 c3619: +1 Y814,0 = +0
 c3620: +1 Y814,2 = +0
 c3621: +1 Y814,4 = +0
 c3622: +1 Y815,0 = +0
 c3623: +1 Y815,2 = +0
 c3624: +1 Y815,4 = +0
 c3625: +1 Y816,0 = +0
 c3626: +1 Y816,2 = +0
 c3627: +1 Y816,4 = +0
 c3628: +1 Y817,0 = +0
 c3629: +1 Y817,2 = +0
 c3630: +1 Y817,4 = +0
 c3631: +1 Y818,0 = +0
 c3632: +1 Y818,2 = +0
 c3633: +1 Y818,4 = +0
 c3634: +1 Y819,0 = +0
 c3635: +1 Y819,2 = +0
 c3636: +1 Y819,4 = +0
 c3637: +1 Y820,0 = +0
 c3638: +1 Y820,2 = +0
 c3639: +1 Y820,4 = +0
 c3640: +1 Y821,0 = +0
 c3641: +1 Y821,2 = +0
 c3642: +1 Y821,4 = +0
 c3643: +1 Y822,0 = +0
 c3644: +1 Y822,2 = +0
 c3645: +1 Y822,4 = +0
 c3646: +1 Y823,0 = +0
 c3647: +1 Y823,2 = +0
 c3648: +1 Y823,4 = +0
 c3649: +1 Y824,0 = +0
 c3650: +1 Y824,2 = +0
 c3651: +1 Y824,4 = +0
 c3652: +1 Y825,0 = +0
 c3653: +1 Y825,2 = +0
 c3654: +1 Y825,4 = +0
 c3655: +1 Y826,0 = +0
 c3656: +1 Y826,2 = +0
 c3657: +1 Y826,4 = +0
 c3658: +1 Y827,0 = +0
 c3659: +1 Y827,2 = +0
 c3660: +1 Y827,4 = +0
 c3661: +1 Y828,0 = +0
 c3662: +1 Y828,2 = +0
 c3663: +1 Y828,4 = +0
 c3664: +1 Y829,0 = +0
 c3665: +1 Y829,2 = +0
 c3666: +1 Y829,4 = +0
 c3667: +1 Y830,0 = +0
 c3668: +1 Y830,2 = +0
 c3669: +1 Y830,4 = +0
 c3670: +1 Y831,0 = +0
 c3671: +1 Y831,2 = +0
 c3672: +1 Y831,4 = +0
 c3673: +1 Y832,0 = +0
 c3674: +1 Y832,2 = +0
 c3675: +1 Y832,4 = +0
 c3676: +1 Y833,0 = +0
 c3677: +1 Y833,2 = +0
 c3678: +1 Y833,4 = +0
 c3679: +1 Y834,0 = +0
 c3680: +1 Y834,2 = +0
 c3681: +1 Y834,4 = +0
 c3682: +1 Y835,0 = +0
 c3683: +1 Y835,2 = +0
 c3684: +1 Y835,4 = +0
 c3685: +1 Y836,0 = +0
 c3686: +1 Y836,2 = +0
 c3687: +1 Y836,4 = +0
 c3688: +1 Y837,0 = +0
 c3689: +1 Y837,2 = +0
 c3690: +1 Y837,4 = +0
 c3691: +1 Y838,0 = +0
 c3692: +1 Y838,2 = +0
 c3693: +1 Y838,4 = +0
 c3694: +1 Y839,0 = +0
 c3695: +1 Y839,2 = +0
 c3696: +1 Y839,4 = +0
 c3697: +1 Y840,0 = +0
 c3698: +1 Y840,2 = +0
 c3699: +1 Y840,4 = +0
 c3700: +1 Y841,0 = +0
 c3701: +1 Y841,2 = +0
 c3702: +1 Y841,4 = +0
 c3703: +1 Y842,0 = +0
 c3704: +1 Y842,2 = +0
 c3705: +1 Y842,4 = +0
 c3706: +1 Y843,0 = +0
 c3707: +1 Y843,2 = +0
 c3708: +1 Y843,4 = +0
 c3709: +1 Y844,0 = +0
 c3710: +1 Y844,2 = +0
 c3711: +1 Y844,4 = +0
 c3712: +1 Y845,0 = +0
 c3713: +1 Y845,2 = +0
 c3714: +1 Y845,4 = +0
 c3715: +1 Y846,0 = +0
 c3716: +1 Y846,2 = +0
 c3717: +1 Y846,4 = +0
 c3718: +1 Y847,0 = +0
 c3719: +1 Y847,2 = +0
 c3720: +1 Y847,4 = +0
 c3721: +1 Y848,0 = +0
 c3722: +1 Y848,2 = +0
 c3723: +1 Y848,4 = +0
 c3724: +1 Y849,0 = +0
 c3725: +1 Y849,2 = +0
 c3726: +1 Y849,4 = +0
 c3727: +1 Y850,0 = +0
 c3728: +1 Y850,2 = +0
 c3729: +1 Y850,4 = +0
 c3730: +1 Y851,0 = +0
 c3731: +1 Y851,2 = +0
 c3732: +1 Y851,4 = +0
 c3733: +1 Y852,0 = +0
 c3734: +1 Y852,2 = +0
 c3735: +1 Y852,4 = +0
 c3736: +1 Y853,0 = +0
 c3737: +1 Y853,2 = +0
 c3738: +1 Y853,4 = +0
 c3739: +1 Y854,0 = +0
 c3740: +1 Y854,2 = +0
 c3741: +1 Y854,4 = +0
 c3742: +1 Y855,0 = +0
 c3743: +1 Y855,2 = +0
 c3744: +1 Y855,4 = +0
 c3745: +1 Y856,0 = +0
 c3746: +1 Y856,2 = +0
 c3747: +1 Y856,4 = +0
 c3748: +1 Y857,0 = +0
 c3749: +1 Y857,2 = +0
 c3750: +1 Y857,4 = +0
 c3751: +1 Y858,0 = +0
 c3752: +1 Y858,2 = +0
 c3753: +1 Y858,4 = +0
 c3754: +1 Y859,0 = +0
 c3755: +1 Y859,2 = +0
 c3756: +1 Y859,4 = +0
 c3757: +1 Y860,0 = +0
 c3758: +1 Y860,2 = +0
 c3759: +1 Y860,4 = +0
 c3760: +1 Y861,0 = +0
 c3761: +1 Y861,2 = +0
 c3762: +1 Y861,4 = +0
 c3763: +1 Y862,0 = +0
 c3764: +1 Y862,2 = +0
 c3765: +1 Y862,4 = +0
 c3766: +1 Y863,0 = +0
 c3767: +1 Y863,2 = +0
 c3768: +1 Y863,4 = +0
 c3769: +1 Y864,0 = +0
 c3770: +1 Y864,2 = +0
 c3771: +1 Y864,4 = +0
 c3772: +1 Y865,0 = +0
 c3773: +1 Y865,2 = +0
 c3774: +1 Y865,4 = +0
 c3775: +1 Y866,0 = +0
 c3776: +1 Y866,2 = +0
 c3777: +1 Y866,4 = +0
 c3778: +1 Y867,0 = +0
 c3779: +1 Y867,2 = +0
 c3780: +1 Y867,4 = +0
 c3781: +1 Y868,0 = +0
 c3782: +1 Y868,2 = +0
 c3783: +1 Y868,4 = +0
 c3784: +1 Y869,0 = +0
 c3785: +1 Y869,2 = +0
 c3786: +1 Y869,4 = +0
 c3787: +1 Y870,0 = +0
 c3788: +1 Y870,2 = +0
 c3789: +1 Y870,4 = +0
 c3790: +1 Y871,0 = +0
 c3791: +1 Y871,2 = +0
 c3792: +1 Y871,4 = +0
 c3793: +1 Y872,0 = +0
 c3794: +1 Y872,2 = +0
 c3795: +1 Y872,4 = +0
 c3796: +1 Y873,0 = +0
 c3797: +1 Y873,2 = +0
 c3798: +1 Y873,4 = +0
 c3799: +1 Y874,0 = +0
 c3800: +1 Y874,2 = +0
 c3801: +1 Y874,4 = +0
 c3802: +1 Y875,0 = +0
 c3803: +1 Y875,2 = +0
 c3804: +1 Y875,4 = +0
 c3805: +1 Y876,0 = +0
 c3806: +1 Y876,2 = +0
 c3807: +1 Y876,4 = +0
 c3808: +1 Y877,0 = +0
 c3809: +1 Y877,2 = +0
 c3810: +1 Y877,4 = +0
 c3811: +1 Y878,0 = +0
 c3812: +1 Y878,2 = +0
 c3813: +1 Y878,4 = +0
 c3814: +1 Y879,2 = +0
 c3815: +1 Y879,5 = +0
 c3816: +1 Y879,6 = +0
 c3817: +1 Y880,2 = +0
 c3818: +1 Y880,5 = +0
 c3819: +1 Y880,6 = +0
 c3820: +1 Y881,2 = +0
 c3821: +1 Y881,5 = +0
 c3822: +1 Y881,6 = +0
 c3823: +1 Y882,2 = +0
 c3824: +1 Y882,5 = +0
 c3825: +1 Y882,6 = +0
 c3826: +1 Y883,2 = +0
 c3827: +1 Y883,5 = +0
 c3828: +1 Y883,6 = +0
 c3829: +1 Y884,2 = +0
 c3830: +1 Y884,5 = +0
 c3831: +1 Y884,6 = +0
 c3832: +1 Y885,2 = +0
 c3833: +1 Y885,5 = +0
 c3834: +1 Y885,6 = +0
 c3835: +1 Y886,0 = +0
 c3836: +1 Y886,5 = +0
 c3837: +1 Y886,6 = +0
 c3838: +1 Y887,0 = +0
 c3839: +1 Y887,5 = +0
 c3840: +1 Y887,6 = +0
 c3841: +1 Y888,0 = +0
 c3842: +1 Y888,5 = +0
 c3843: +1 Y888,6 = +0
 c3844: +1 Cmax -89 Y0,0 -89 Y1,0 -89 Y2,0 -89 Y3,0 -89 Y4,0 -89 Y5,0 -89 Y6,0 -89 Y7,0 -89 Y8,0 -89 Y9,0
  -89 Y10,0 -89 Y11,0 -89 Y12,0 -89 Y13,0 -89 Y14,0 -89 Y15,0 -89 Y16,0 -89 Y17,0 -89 Y18,0 -89 Y19,0
  -89 Y20,0 -89 Y21,0 -89 Y22,0 -89 Y23,0 -89 Y24,0 -89 Y25,0 -89 Y26,0 -89 Y27,0 -89 Y28,0 -89 Y29,0
  -89 Y30,0 -89 Y31,0 -89 Y32,0 -89 Y33,0 -89 Y34,0 -89 Y35,0 -89 Y36,0 -89 Y37,0 -89 Y38,0 -89 Y39,0
  -89 Y40,0 -89 Y41,0 -89 Y42,0 -89 Y43,0 -89 Y44,0 -89 Y45,0 -89 Y46,0 -89 Y47,0 -89 Y48,0 -89 Y49,0
  -89 Y50,0 -89 Y51,0 -89 Y52,0 -89 Y53,0 -89 Y54,0 -89 Y55,0 -89 Y56,0 -89 Y57,0 -89 Y58,0 -89 Y59,0
  -89 Y60,0 -89 Y61,0 -89 Y62,0 -89 Y63,0 -89 Y64,0 -89 Y65,0 -89 Y66,0 -89 Y67,0 -89 Y68,0 -89 Y69,0
  -89 Y70,0 -89 Y71,0 -89 Y72,0 -89 Y73,0 -89 Y74,0 -89 Y75,0 -89 Y76,0 -89 Y77,0 -89 Y78,0 -89 Y79,0
  -89 Y80,0 -89 Y81,0 -89 Y82,0 -89 Y83,0 -89 Y84,0 -89 Y85,0 -89 Y86,0 -89 Y87,0 -89 Y88,0 -89 Y89,0
  -89 Y90,0 -89 Y91,0 -89 Y92,0 -89 Y93,0 -89 Y94,0 -89 Y95,0 -89 Y96,0 -89 Y97,0 -89 Y98,0 -89 Y99,0
  -89 Y100,0 -89 Y101,0 -89 Y102,0 -89 Y103,0 -89 Y104,0 -89 Y105,0 -89 Y106,0 -89 Y107,0 -89 Y108,0 -89 Y109,0
  -89 Y110,0 -89 Y111,0 -89 Y112,0 -89 Y113,0 -89 Y114,0 -89 Y115,0 -89 Y116,0 -89 Y117,0 -89 Y118,0 -89 Y119,0
  -89 Y120,0 -89 Y121,0 -89 Y122,0 -89 Y123,0 -89 Y124,0 -89 Y125,0 -89 Y126,0 -89 Y127,0 -89 Y128,0 -89 Y129,0
  -89 Y130,0 -89 Y131,0 -89 Y132,0 -89 Y133,0 -89 Y134,0 -89 Y135,0 -89 Y136,0 -89 Y137,0 -89 Y138,0 -89 Y139,0
  -89 Y140,0 -89 Y141,0 -89 Y142,0 -89 Y143,0 -89 Y144,0 -89 Y145,0 -89 Y146,0 -89 Y147,0 -89 Y148,0 -89 Y149,0
  -89 Y150,0 -89 Y151,0 -89 Y152,0 -89 Y153,0 -89 Y154,0 -89 Y155,0 -89 Y156,0 -89 Y157,0 -89 Y158,0 -89 Y159,0
  -89 Y160,0 -89 Y161,0 -89 Y162,0 -89 Y163,0 -89 Y164,0 -89 Y165,0 -89 Y166,0 -89 Y167,0 -89 Y168,0 -89 Y169,0
  -89 Y170,0 -89 Y171,0 -89 Y172,0 -89 Y173,0 -89 Y174,0 -89 Y175,0 -89 Y176,0 -89 Y177,0 -89 Y178,0 -89 Y179,0
  -89 Y180,0 -89 Y181,0 -89 Y182,0 -89 Y183,0 -89 Y184,0 -89 Y185,0 -89 Y186,0 -89 Y187,0 -89 Y188,0 -89 Y189,0
  -89 Y190,0 -89 Y191,0 -89 Y192,0 -89 Y193,0 -89 Y194,0 -89 Y195,0 -89 Y196,0 -89 Y197,0 -89 Y198,0 -89 Y199,0
  -89 Y200,0 -89 Y201,0 -89 Y202,0 -89 Y203,0 -89 Y204,0 -89 Y205,0 -89 Y206,0 -89 Y207,0 -89 Y208,0 -89 Y209,0
  -89 Y210,0 -89 Y211,0 -89 Y212,0 -89 Y213,0 -89 Y214,0 -89 Y215,0 -89 Y216,0 -89 Y217,0 -89 Y218,0 -89 Y219,0
  -89 Y220,0 -89 Y221,0 -89 Y222,0 -89 Y223,0 -89 Y224,0 -89 Y225,0 -89 Y226,0 -89 Y227,0 -89 Y228,0 -89 Y229,0
  -89 Y230,0 -89 Y231,0 -89 Y232,0 -89 Y233,0 -89 Y234,0 -89 Y235,0 -89 Y236,0 -89 Y237,0 -89 Y238,0 -89 Y239,0
  -89 Y240,0 -89 Y241,0 -89 Y242,0 -89 Y243,0 -89 Y244,0 -89 Y245,0 -89 Y246,0 -89 Y247,0 -89 Y248,0 -89 Y249,0
  -89 Y250,0 -89 Y251,0 -89 Y252,0 -89 Y253,0 -89 Y254,0 -89 Y255,0 -89 Y256,0 -89 Y257,0 -89 Y258,0 -89 Y259,0
  -89 Y260,0 -89 Y261,0 -89 Y262,0 -89 Y263,0 -89 Y264,0 -89 Y265,0 -89 Y266,0 -89 Y267,0 -89 Y268,0 -89 Y269,0
  -89 Y270,0 -89 Y271,0 -89 Y272,0 -89 Y273,0 -89 Y274,0 -89 Y275,0 -89 Y276,0 -89 Y277,0 -89 Y278,0 -89 Y279,0
  -89 Y280,0 -89 Y281,0 -89 Y282,0 -89 Y283,0 -89 Y284,0 -89 Y285,0 -89 Y286,0 -89 Y287,0 -89 Y288,0 -89 Y289,0
  -89 Y290,0 -89 Y291,0 -89 Y292,0 -89 Y293,0 -89 Y294,0 -89 Y295,0 -89 Y296,0 -89 Y297,0 -89 Y298,0 -89 Y299,0
  -89 Y300,0 -89 Y301,0 -89 Y302,0 -89 Y303,0 -89 Y304,0 -89 Y305,0 -89 Y306,0 -89 Y307,0 -89 Y308,0 -89 Y309,0
  -89 Y310,0 -89 Y311,0 -89 Y312,0 -89 Y313,0 -89 Y314,0 -89 Y315,0 -89 Y316,0 -89 Y317,0 -89 Y318,0 -89 Y319,0
  -89 Y320,0 -89 Y321,0 -89 Y322,0 -89 Y323,0 -89 Y324,0 -89 Y325,0 -89 Y326,0 -89 Y327,0 -89 Y328,0 -89 Y329,0
  -89 Y330,0 -89 Y331,0 -89 Y332,0 -89 Y333,0 -89 Y334,0 -89 Y335,0 -89 Y336,0 -89 Y337,0 -89 Y338,0 -89 Y339,0
  -89 Y340,0 -89 Y341,0 -89 Y342,0 -89 Y343,0 -89 Y344,0 -89 Y345,0 -89 Y346,0 -89 Y347,0 -89 Y348,0 -89 Y349,0
  -89 Y350,0 -89 Y351,0 -89 Y352,0 -89 Y353,0 -89 Y354,0 -89 Y355,0 -89 Y356,0 -89 Y357,0 -89 Y358,0 -89 Y359,0
  -89 Y360,0 -89 Y361,0 -89 Y362,0 -89 Y363,0 -89 Y364,0 -89 Y365,0 -89 Y366,0 -89 Y367,0 -89 Y368,0 -89 Y369,0
  -89 Y370,0 -89 Y371,0 -89 Y372,0 -89 Y373,0 -89 Y374,0 -89 Y375,0 -89 Y376,0 -89 Y377,0 -89 Y378,0 -89 Y379,0
  -89 Y380,0 -89 Y381,0 -89 Y382,0 -89 Y383,0 -89 Y384,0 -89 Y385,0 -89 Y386,0 -89 Y387,0 -89 Y388,0 -89 Y389,0
  -89 Y390,0 -89 Y391,0 -89 Y392,0 -89 Y393,0 -89 Y394,0 -89 Y395,0 -89 Y396,0 -89 Y397,0 -89 Y398,0 -89 Y399,0
  -89 Y400,0 -89 Y401,0 -89 Y402,0 -89 Y403,0 -89 Y404,0 -89 Y405,0 -89 Y406,0 -89 Y407,0 -89 Y408,0 -89 Y409,0
  -89 Y410,0 -89 Y411,0 -89 Y412,0 -89 Y413,0 -89 Y414,0 -89 Y415,0 -89 Y416,0 -89 Y417,0 -89 Y418,0 -89 Y419,0
  -89 Y420,0 -89 Y421,0 -89 Y422,0 -89 Y423,0 -89 Y424,0 -89 Y425,0 -89 Y426,0 -89 Y427,0 -89 Y428,0 -89 Y429,0
  -89 Y430,0 -89 Y431,0 -89 Y432,0 -89 Y433,0 -89 Y434,0 -89 Y435,0 -89 Y436,0 -89 Y437,0 -89 Y438,0 -89 Y439,0
  -89 Y440,0 -89 Y441,0 -89 Y442,0 -89 Y443,0 -89 Y444,0 -89 Y445,0 -89 Y446,0 -89 Y447,0 -89 Y448,0 -89 Y449,0
  -89 Y450,0 -89 Y451,0 -89 Y452,0 -89 Y453,0 -89 Y454,0 -89 Y455,0 -89 Y456,0 -89 Y457,0 -89 Y458,0 -89 Y459,0
  -89 Y460,0 -89 Y461,0 -89 Y462,0 -89 Y463,0 -89 Y464,0 -89 Y465,0 -89 Y466,0 -89 Y467,0 -89 Y468,0 -89 Y469,0
  -89 Y470,0 -89 Y471,0 -89 Y472,0 -89 Y473,0 -89 Y474,0 -89 Y475,0 -89 Y476,0 -89 Y477,0 -89 Y478,0 -89 Y479,0
  -89 Y480,0 -89 Y481,0 -89 Y482,0 -89 Y483,0 -89 Y484,0 -89 Y485,0 -89 Y486,0 -89 Y487,0 -89 Y488,0 -89 Y489,0
  -89 Y490,0 -89 Y491,0 -89 Y492,0 -89 Y493,0 -89 Y494,0 -89 Y495,0 -89 Y496,0 -89 Y497,0 -89 Y498,0 -89 Y499,0
  -89 Y500,0 -89 Y501,0 -89 Y502,0 -89 Y503,0 -89 Y504,0 -89 Y505,0 -89 Y506,0 -89 Y507,0 -89 Y508,0 -89 Y509,0
  -89 Y510,0 -89 Y511,0 -89 Y512,0 -89 Y513,0 -89 Y514,0 -89 Y515,0 -89 Y516,0 -89 Y517,0 -89 Y518,0 -89 Y519,0
  -89 Y520,0 -89 Y521,0 -89 Y522,0 -89 Y523,0 -89 Y524,0 -89 Y525,0 -89 Y526,0 -89 Y527,0 -89 Y528,0 -89 Y529,0
  -89 Y530,0 -89 Y531,0 -89 Y532,0 -89 Y533,0 -89 Y534,0 -89 Y535,0 -89 Y536,0 -89 Y537,0 -89 Y538,0 -89 Y539,0
  -89 Y540,0 -52 Y541,0 -52 Y542,0 -52 Y543,0 -52 Y544,0 -52 Y545,0 -52 Y546,0 -52 Y547,0 -63 Y548,0 -63 Y549,0
  -63 Y550,0 -63 Y551,0 -63 Y552,0 -63 Y553,0 -63 Y554,0 -63 Y555,0 -63 Y556,0 -63 Y557,0 -63 Y558,0 -63 Y559,0
  -63 Y560,0 -63 Y561,0 -63 Y562,0 -63 Y563,0 -63 Y564,0 -63 Y565,0 -63 Y566,0 -63 Y567,0 -63 Y568,0 -63 Y569,0
  -63 Y570,0 -63 Y571,0 -63 Y572,0 -63 Y573,0 -63 Y574,0 -63 Y575,0 -63 Y576,0 -63 Y577,0 -63 Y578,0 -45 Y579,0
  -45 Y580,0 -45 Y581,0 -45 Y582,0 -45 Y583,0 -45 Y584,0 -45 Y585,0 -45 Y586,0 -45 Y587,0 -45 Y588,0 -45 Y589,0
  -45 Y590,0 -45 Y591,0 -45 Y592,0 -45 Y593,0 -45 Y594,0 -45 Y595,0 -45 Y596,0 -45 Y597,0 -45 Y598,0 -45 Y599,0
  -45 Y600,0 -45 Y601,0 -45 Y602,0 -45 Y603,0 -45 Y604,0 -45 Y605,0 -45 Y606,0 -45 Y607,0 -45 Y608,0 -45 Y609,0
  -45 Y610,0 -45 Y611,0 -45 Y612,0 -45 Y613,0 -45 Y614,0 -45 Y615,0 -45 Y616,0 -45 Y617,0 -45 Y618,0 -45 Y619,0
  -45 Y620,0 -45 Y621,0 -45 Y622,0 -45 Y623,0 -45 Y624,0 -45 Y625,0 -45 Y626,0 -45 Y627,0 -45 Y628,0 -45 Y629,0
  -45 Y630,0 -45 Y631,0 -45 Y632,0 -45 Y633,0 -45 Y634,0 -45 Y635,0 -45 Y636,0 -45 Y637,0 -45 Y638,0 -45 Y639,0
  -45 Y640,0 -45 Y641,0 -45 Y642,0 -45 Y643,0 -45 Y644,0 -45 Y645,0 -45 Y646,0 -45 Y647,0 -45 Y648,0 -45 Y649,0
  -45 Y650,0 -45 Y651,0 -45 Y652,0 -45 Y653,0 -45 Y654,0 -45 Y655,0 -45 Y656,0 -45 Y657,0 -45 Y658,0 -45 Y659,0
  -45 Y660,0 -45 Y661,0 -45 Y662,0 -45 Y663,0 -45 Y664,0 -45 Y665,0 -45 Y666,0 -45 Y667,0 -45 Y668,0 -45 Y669,0
  -45 Y670,0 -45 Y671,0 -45 Y672,0 -45 Y673,0 -45 Y674,0 -45 Y675,0 -45 Y676,0 -45 Y677,0 -45 Y678,0 -45 Y679,0
  -45 Y680,0 -45 Y681,0 -45 Y682,0 -45 Y683,0 -45 Y684,0 -45 Y685,0 -45 Y686,0 -45 Y687,0 -45 Y688,0 -45 Y689,0
  -45 Y690,0 -45 Y691,0 -45 Y692,0 -45 Y693,0 -45 Y694,0 -45 Y695,0 -45 Y696,0 -57 Y697,0 -57 Y698,0 -57 Y699,0
  -57 Y700,0 -57 Y701,0 -57 Y702,0 -57 Y703,0 -57 Y704,0 -57 Y705,0 -57 Y706,0 -57 Y707,0 -57 Y708,0 -57 Y709,0
  -57 Y710,0 -57 Y711,0 -53 Y712,0 -53 Y713,0 -53 Y714,0 -53 Y715,0 -53 Y716,0 -53 Y717,0 -53 Y718,0 -53 Y719,0
  -53 Y720,0 -53 Y721,0 -53 Y722,0 -53 Y723,0 -53 Y724,0 -53 Y725,0 -53 Y726,0 -75 Y727,0 -75 Y728,0 -75 Y729,0
  -75 Y730,0 -75 Y731,0 -75 Y732,0 -75 Y733,0 -75 Y734,0 -75 Y735,0 -75 Y736,0 -75 Y737,0 -75 Y738,0 -75 Y739,0
  -75 Y740,0 -75 Y741,0 -75 Y742,0 -75 Y743,0 -75 Y744,0 -75 Y745,0 -75 Y746,0 -75 Y747,0 -75 Y748,0 -75 Y749,0
  -75 Y750,0 -75 Y751,0 -75 Y752,0 -75 Y753,0 -75 Y754,0 -75 Y755,0 -75 Y756,0 -75 Y757,0 -55 Y758,0 -55 Y759,0
  -55 Y760,0 -55 Y761,0 -55 Y762,0 -55 Y763,0 -55 Y764,0 -55 Y765,0 -55 Y766,0 -55 Y767,0 -55 Y768,0 -55 Y769,0
  -55 Y770,0 -55 Y771,0 -55 Y772,0 -55 Y773,0 -55 Y774,0 -55 Y775,0 -55 Y776,0 -55 Y777,0 -55 Y778,0 -55 Y779,0
  -55 Y780,0 -55 Y781,0 -55 Y782,0 -55 Y783,0 -55 Y784,0 -55 Y785,0 -55 Y786,0 -55 Y787,0 -55 Y788,0 -55 Y789,0
  -55 Y790,0 -55 Y791,0 -55 Y792,0 -55 Y793,0 -55 Y794,0 -55 Y795,0 -55 Y796,0 -55 Y797,0 -55 Y798,0 -55 Y799,0
  -55 Y800,0 -55 Y801,0 -55 Y802,0 -55 Y803,0 -55 Y804,0 -55 Y805,0 -55 Y806,0 -55 Y807,0 -55 Y808,0 -55 Y809,0
  -55 Y810,0 -55 Y811,0 -55 Y812,0 -55 Y813,0 -55 Y814,0 -55 Y815,0 -55 Y816,0 -55 Y817,0 -55 Y818,0 -55 Y819,0
  -55 Y820,0 -55 Y821,0 -55 Y822,0 -55 Y823,0 -55 Y824,0 -55 Y825,0 -55 Y826,0 -55 Y827,0 -55 Y828,0 -55 Y829,0
  -55 Y830,0 -55 Y831,0 -55 Y832,0 -55 Y833,0 -55 Y834,0 -55 Y835,0 -55 Y836,0 -55 Y837,0 -55 Y838,0 -55 Y839,0
  -55 Y840,0 -55 Y841,0 -55 Y842,0 -55 Y843,0 -55 Y844,0 -55 Y845,0 -55 Y846,0 -55 Y847,0 -55 Y848,0 -55 Y849,0
  -55 Y850,0 -55 Y851,0 -55 Y852,0 -55 Y853,0 -55 Y854,0 -55 Y855,0 -55 Y856,0 -55 Y857,0 -55 Y858,0 -55 Y859,0
  -55 Y860,0 -55 Y861,0 -55 Y862,0 -55 Y863,0 -55 Y864,0 -55 Y865,0 -55 Y866,0 -55 Y867,0 -55 Y868,0 -55 Y869,0
  -55 Y870,0 -55 Y871,0 -55 Y872,0 -55 Y873,0 -55 Y874,0 -55 Y875,0 -55 Y876,0 -55 Y877,0 -55 Y878,0 -70 Y879,0
  -70 Y880,0 -70 Y881,0 -70 Y882,0 -70 Y883,0 -70 Y884,0 -70 Y885,0 -79 Y886,0 -79 Y887,0 -79 Y888,0 >= +0
 c3845: +1 Cmax -89 Y0,1 -89 Y1,1 -89 Y2,1 -89 Y3,1 -89 Y4,1 -89 Y5,1 -89 Y6,1 -89 Y7,1 -89 Y8,1 -89 Y9,1
  -89 Y10,1 -89 Y11,1 -89 Y12,1 -89 Y13,1 -89 Y14,1 -89 Y15,1 -89 Y16,1 -89 Y17,1 -89 Y18,1 -89 Y19,1
  -89 Y20,1 -89 Y21,1 -89 Y22,1 -89 Y23,1 -89 Y24,1 -89 Y25,1 -89 Y26,1 -89 Y27,1 -89 Y28,1 -89 Y29,1
  -89 Y30,1 -89 Y31,1 -89 Y32,1 -89 Y33,1 -89 Y34,1 -89 Y35,1 -89 Y36,1 -89 Y37,1 -89 Y38,1 -89 Y39,1
  -89 Y40,1 -89 Y41,1 -89 Y42,1 -89 Y43,1 -89 Y44,1 -89 Y45,1 -89 Y46,1 -89 Y47,1 -89 Y48,1 -89 Y49,1
  -89 Y50,1 -89 Y51,1 -89 Y52,1 -89 Y53,1 -89 Y54,1 -89 Y55,1 -89 Y56,1 -89 Y57,1 -89 Y58,1 -89 Y59,1
  -89 Y60,1 -89 Y61,1 -89 Y62,1 -89 Y63,1 -89 Y64,1 -89 Y65,1 -89 Y66,1 -89 Y67,1 -89 Y68,1 -89 Y69,1
  -89 Y70,1 -89 Y71,1 -89 Y72,1 -89 Y73,1 -89 Y74,1 -89 Y75,1 -89 Y76,1 -89 Y77,1 -89 Y78,1 -89 Y79,1
  -89 Y80,1 -89 Y81,1 -89 Y82,1 -89 Y83,1 -89 Y84,1 -89 Y85,1 -89 Y86,1 -89 Y87,1 -89 Y88,1 -89 Y89,1
  -89 Y90,1 -89 Y91,1 -89 Y92,1 -89 Y93,1 -89 Y94,1 -89 Y95,1 -89 Y96,1 -89 Y97,1 -89 Y98,1 -89 Y99,1
  -89 Y100,1 -89 Y101,1 -89 Y102,1 -89 Y103,1 -89 Y104,1 -89 Y105,1 -89 Y106,1 -89 Y107,1 -89 Y108,1 -89 Y109,1
  -89 Y110,1 -89 Y111,1 -89 Y112,1 -89 Y113,1 -89 Y114,1 -89 Y115,1 -89 Y116,1 -89 Y117,1 -89 Y118,1 -89 Y119,1
  -89 Y120,1 -89 Y121,1 -89 Y122,1 -89 Y123,1 -89 Y124,1 -89 Y125,1 -89 Y126,1 -89 Y127,1 -89 Y128,1 -89 Y129,1
  -89 Y130,1 -89 Y131,1 -89 Y132,1 -89 Y133,1 -89 Y134,1 -89 Y135,1 -89 Y136,1 -89 Y137,1 -89 Y138,1 -89 Y139,1
  -89 Y140,1 -89 Y141,1 -89 Y142,1 -89 Y143,1 -89 Y144,1 -89 Y145,1 -89 Y146,1 -89 Y147,1 -89 Y148,1 -89 Y149,1
  -89 Y150,1 -89 Y151,1 -89 Y152,1 -89 Y153,1 -89 Y154,1 -89 Y155,1 -89 Y156,1 -89 Y157,1 -89 Y158,1 -89 Y159,1
  -89 Y160,1 -89 Y161,1 -89 Y162,1 -89 Y163,1 -89 Y164,1 -89 Y165,1 -89 Y166,1 -89 Y167,1 -89 Y168,1 -89 Y169,1
  -89 Y170,1 -89 Y171,1 -89 Y172,1 -89 Y173,1 -89 Y174,1 -89 Y175,1 -89 Y176,1 -89 Y177,1 -89 Y178,1 -89 Y179,1
  -89 Y180,1 -89 Y181,1 -89 Y182,1 -89 Y183,1 -89 Y184,1 -89 Y185,1 -89 Y186,1 -89 Y187,1 -89 Y188,1 -89 Y189,1
  -89 Y190,1 -89 Y191,1 -89 Y192,1 -89 Y193,1 -89 Y194,1 -89 Y195,1 -89 Y196,1 -89 Y197,1 -89 Y198,1 -89 Y199,1
  -89 Y200,1 -89 Y201,1 -89 Y202,1 -89 Y203,1 -89 Y204,1 -89 Y205,1 -89 Y206,1 -89 Y207,1 -89 Y208,1 -89 Y209,1
  -89 Y210,1 -89 Y211,1 -89 Y212,1 -89 Y213,1 -89 Y214,1 -89 Y215,1 -89 Y216,1 -89 Y217,1 -89 Y218,1 -89 Y219,1
  -89 Y220,1 -89 Y221,1 -89 Y222,1 -89 Y223,1 -89 Y224,1 -89 Y225,1 -89 Y226,1 -89 Y227,1 -89 Y228,1 -89 Y229,1
  -89 Y230,1 -89 Y231,1 -89 Y232,1 -89 Y233,1 -89 Y234,1 -89 Y235,1 -89 Y236,1 -89 Y237,1 -89 Y238,1 -89 Y239,1
  -89 Y240,1 -89 Y241,1 -89 Y242,1 -89 Y243,1 -89 Y244,1 -89 Y245,1 -89 Y246,1 -89 Y247,1 -89 Y248,1 -89 Y249,1
  -89 Y250,1 -89 Y251,1 -89 Y252,1 -89 Y253,1 -89 Y254,1 -89 Y255,1 -89 Y256,1 -89 Y257,1 -89 Y258,1 -89 Y259,1
  -89 Y260,1 -89 Y261,1 -89 Y262,1 -89 Y263,1 -89 Y264,1 -89 Y265,1 -89 Y266,1 -89 Y267,1 -89 Y268,1 -89 Y269,1
  -89 Y270,1 -89 Y271,1 -89 Y272,1 -89 Y273,1 -89 Y274,1 -89 Y275,1 -89 Y276,1 -89 Y277,1 -89 Y278,1 -89 Y279,1
  -89 Y280,1 -89 Y281,1 -89 Y282,1 -89 Y283,1 -89 Y284,1 -89 Y285,1 -89 Y286,1 -89 Y287,1 -89 Y288,1 -89 Y289,1
  -89 Y290,1 -89 Y291,1 -89 Y292,1 -89 Y293,1 -89 Y294,1 -89 Y295,1 -89 Y296,1 -89 Y297,1 -89 Y298,1 -89 Y299,1
  -89 Y300,1 -89 Y301,1 -89 Y302,1 -89 Y303,1 -89 Y304,1 -89 Y305,1 -89 Y306,1 -89 Y307,1 -89 Y308,1 -89 Y309,1
  -89 Y310,1 -89 Y311,1 -89 Y312,1 -89 Y313,1 -89 Y314,1 -89 Y315,1 -89 Y316,1 -89 Y317,1 -89 Y318,1 -89 Y319,1
  -89 Y320,1 -89 Y321,1 -89 Y322,1 -89 Y323,1 -89 Y324,1 -89 Y325,1 -89 Y326,1 -89 Y327,1 -89 Y328,1 -89 Y329,1
  -89 Y330,1 -89 Y331,1 -89 Y332,1 -89 Y333,1 -89 Y334,1 -89 Y335,1 -89 Y336,1 -89 Y337,1 -89 Y338,1 -89 Y339,1
  -89 Y340,1 -89 Y341,1 -89 Y342,1 -89 Y343,1 -89 Y344,1 -89 Y345,1 -89 Y346,1 -89 Y347,1 -89 Y348,1 -89 Y349,1
  -89 Y350,1 -89 Y351,1 -89 Y352,1 -89 Y353,1 -89 Y354,1 -89 Y355,1 -89 Y356,1 -89 Y357,1 -89 Y358,1 -89 Y359,1
  -89 Y360,1 -89 Y361,1 -89 Y362,1 -89 Y363,1 -89 Y364,1 -89 Y365,1 -89 Y366,1 -89 Y367,1 -89 Y368,1 -89 Y369,1
  -89 Y370,1 -89 Y371,1 -89 Y372,1 -89 Y373,1 -89 Y374,1 -89 Y375,1 -89 Y376,1 -89 Y377,1 -89 Y378,1 -89 Y379,1
  -89 Y380,1 -89 Y381,1 -89 Y382,1 -89 Y383,1 -89 Y384,1 -89 Y385,1 -89 Y386,1 -89 Y387,1 -89 Y388,1 -89 Y389,1
  -89 Y390,1 -89 Y391,1 -89 Y392,1 -89 Y393,1 -89 Y394,1 -89 Y395,1 -89 Y396,1 -89 Y397,1 -89 Y398,1 -89 Y399,1
  -89 Y400,1 -89 Y401,1 -89 Y402,1 -89 Y403,1 -89 Y404,1 -89 Y405,1 -89 Y406,1 -89 Y407,1 -89 Y408,1 -89 Y409,1
  -89 Y410,1 -89 Y411,1 -89 Y412,1 -89 Y413,1 -89 Y414,1 -89 Y415,1 -89 Y416,1 -89 Y417,1 -89 Y418,1 -89 Y419,1
  -89 Y420,1 -89 Y421,1 -89 Y422,1 -89 Y423,1 -89 Y424,1 -89 Y425,1 -89 Y426,1 -89 Y427,1 -89 Y428,1 -89 Y429,1
  -89 Y430,1 -89 Y431,1 -89 Y432,1 -89 Y433,1 -89 Y434,1 -89 Y435,1 -89 Y436,1 -89 Y437,1 -89 Y438,1 -89 Y439,1
  -89 Y440,1 -89 Y441,1 -89 Y442,1 -89 Y443,1 -89 Y444,1 -89 Y445,1 -89 Y446,1 -89 Y447,1 -89 Y448,1 -89 Y449,1
  -89 Y450,1 -89 Y451,1 -89 Y452,1 -89 Y453,1 -89 Y454,1 -89 Y455,1 -89 Y456,1 -89 Y457,1 -89 Y458,1 -89 Y459,1
  -89 Y460,1 -89 Y461,1 -89 Y462,1 -89 Y463,1 -89 Y464,1 -89 Y465,1 -89 Y466,1 -89 Y467,1 -89 Y468,1 -89 Y469,1
  -89 Y470,1 -89 Y471,1 -89 Y472,1 -89 Y473,1 -89 Y474,1 -89 Y475,1 -89 Y476,1 -89 Y477,1 -89 Y478,1 -89 Y479,1
  -89 Y480,1 -89 Y481,1 -89 Y482,1 -89 Y483,1 -89 Y484,1 -89 Y485,1 -89 Y486,1 -89 Y487,1 -89 Y488,1 -89 Y489,1
  -89 Y490,1 -89 Y491,1 -89 Y492,1 -89 Y493,1 -89 Y494,1 -89 Y495,1 -89 Y496,1 -89 Y497,1 -89 Y498,1 -89 Y499,1
  -89 Y500,1 -89 Y501,1 -89 Y502,1 -89 Y503,1 -89 Y504,1 -89 Y505,1 -89 Y506,1 -89 Y507,1 -89 Y508,1 -89 Y509,1
  -89 Y510,1 -89 Y511,1 -89 Y512,1 -89 Y513,1 -89 Y514,1 -89 Y515,1 -89 Y516,1 -89 Y517,1 -89 Y518,1 -89 Y519,1
  -89 Y520,1 -89 Y521,1 -89 Y522,1 -89 Y523,1 -89 Y524,1 -89 Y525,1 -89 Y526,1 -89 Y527,1 -89 Y528,1 -89 Y529,1
  -89 Y530,1 -89 Y531,1 -89 Y532,1 -89 Y533,1 -89 Y534,1 -89 Y535,1 -89 Y536,1 -89 Y537,1 -89 Y538,1 -89 Y539,1
  -89 Y540,1 -52 Y541,1 -52 Y542,1 -52 Y543,1 -52 Y544,1 -52 Y545,1 -52 Y546,1 -52 Y547,1 -63 Y548,1 -63 Y549,1
  -63 Y550,1 -63 Y551,1 -63 Y552,1 -63 Y553,1 -63 Y554,1 -63 Y555,1 -63 Y556,1 -63 Y557,1 -63 Y558,1 -63 Y559,1
  -63 Y560,1 -63 Y561,1 -63 Y562,1 -63 Y563,1 -63 Y564,1 -63 Y565,1 -63 Y566,1 -63 Y567,1 -63 Y568,1 -63 Y569,1
  -63 Y570,1 -63 Y571,1 -63 Y572,1 -63 Y573,1 -63 Y574,1 -63 Y575,1 -63 Y576,1 -63 Y577,1 -63 Y578,1 -45 Y579,1
  -45 Y580,1 -45 Y581,1 -45 Y582,1 -45 Y583,1 -45 Y584,1 -45 Y585,1 -45 Y586,1 -45 Y587,1 -45 Y588,1 -45 Y589,1
  -45 Y590,1 -45 Y591,1 -45 Y592,1 -45 Y593,1 -45 Y594,1 -45 Y595,1 -45 Y596,1 -45 Y597,1 -45 Y598,1 -45 Y599,1
  -45 Y600,1 -45 Y601,1 -45 Y602,1 -45 Y603,1 -45 Y604,1 -45 Y605,1 -45 Y606,1 -45 Y607,1 -45 Y608,1 -45 Y609,1
  -45 Y610,1 -45 Y611,1 -45 Y612,1 -45 Y613,1 -45 Y614,1 -45 Y615,1 -45 Y616,1 -45 Y617,1 -45 Y618,1 -45 Y619,1
  -45 Y620,1 -45 Y621,1 -45 Y622,1 -45 Y623,1 -45 Y624,1 -45 Y625,1 -45 Y626,1 -45 Y627,1 -45 Y628,1 -45 Y629,1
  -45 Y630,1 -45 Y631,1 -45 Y632,1 -45 Y633,1 -45 Y634,1 -45 Y635,1 -45 Y636,1 -45 Y637,1 -45 Y638,1 -45 Y639,1
  -45 Y640,1 -45 Y641,1 -45 Y642,1 -45 Y643,1 -45 Y644,1 -45 Y645,1 -45 Y646,1 -45 Y647,1 -45 Y648,1 -45 Y649,1
  -45 Y650,1 -45 Y651,1 -45 Y652,1 -45 Y653,1 -45 Y654,1 -45 Y655,1 -45 Y656,1 -45 Y657,1 -45 Y658,1 -45 Y659,1
  -45 Y660,1 -45 Y661,1 -45 Y662,1 -45 Y663,1 -45 Y664,1 -45 Y665,1 -45 Y666,1 -45 Y667,1 -45 Y668,1 -45 Y669,1
  -45 Y670,1 -45 Y671,1 -45 Y672,1 -45 Y673,1 -45 Y674,1 -45 Y675,1 -45 Y676,1 -45 Y677,1 -45 Y678,1 -45 Y679,1
  -45 Y680,1 -45 Y681,1 -45 Y682,1 -45 Y683,1 -45 Y684,1 -45 Y685,1 -45 Y686,1 -45 Y687,1 -45 Y688,1 -45 Y689,1
  -45 Y690,1 -45 Y691,1 -45 Y692,1 -45 Y693,1 -45 Y694,1 -45 Y695,1 -45 Y696,1 -57 Y697,1 -57 Y698,1 -57 Y699,1
  -57 Y700,1 -57 Y701,1 -57 Y702,1 -57 Y703,1 -57 Y704,1 -57 Y705,1 -57 Y706,1 -57 Y707,1 -57 Y708,1 -57 Y709,1
  -57 Y710,1 -57 Y711,1 -53 Y712,1 -53 Y713,1 -53 Y714,1 -53 Y715,1 -53 Y716,1 -53 Y717,1 -53 Y718,1 -53 Y719,1
  -53 Y720,1 -53 Y721,1 -53 Y722,1 -53 Y723,1 -53 Y724,1 -53 Y725,1 -53 Y726,1 -75 Y727,1 -75 Y728,1 -75 Y729,1
  -75 Y730,1 -75 Y731,1 -75 Y732,1 -75 Y733,1 -75 Y734,1 -75 Y735,1 -75 Y736,1 -75 Y737,1 -75 Y738,1 -75 Y739,1
  -75 Y740,1 -75 Y741,1 -75 Y742,1 -75 Y743,1 -75 Y744,1 -75 Y745,1 -75 Y746,1 -75 Y747,1 -75 Y748,1 -75 Y749,1
  -75 Y750,1 -75 Y751,1 -75 Y752,1 -75 Y753,1 -75 Y754,1 -75 Y755,1 -75 Y756,1 -75 Y757,1 -55 Y758,1 -55 Y759,1
  -55 Y760,1 -55 Y761,1 -55 Y762,1 -55 Y763,1 -55 Y764,1 -55 Y765,1 -55 Y766,1 -55 Y767,1 -55 Y768,1 -55 Y769,1
  -55 Y770,1 -55 Y771,1 -55 Y772,1 -55 Y773,1 -55 Y774,1 -55 Y775,1 -55 Y776,1 -55 Y777,1 -55 Y778,1 -55 Y779,1
  -55 Y780,1 -55 Y781,1 -55 Y782,1 -55 Y783,1 -55 Y784,1 -55 Y785,1 -55 Y786,1 -55 Y787,1 -55 Y788,1 -55 Y789,1
  -55 Y790,1 -55 Y791,1 -55 Y792,1 -55 Y793,1 -55 Y794,1 -55 Y795,1 -55 Y796,1 -55 Y797,1 -55 Y798,1 -55 Y799,1
  -55 Y800,1 -55 Y801,1 -55 Y802,1 -55 Y803,1 -55 Y804,1 -55 Y805,1 -55 Y806,1 -55 Y807,1 -55 Y808,1 -55 Y809,1
  -55 Y810,1 -55 Y811,1 -55 Y812,1 -55 Y813,1 -55 Y814,1 -55 Y815,1 -55 Y816,1 -55 Y817,1 -55 Y818,1 -55 Y819,1
  -55 Y820,1 -55 Y821,1 -55 Y822,1 -55 Y823,1 -55 Y824,1 -55 Y825,1 -55 Y826,1 -55 Y827,1 -55 Y828,1 -55 Y829,1
  -55 Y830,1 -55 Y831,1 -55 Y832,1 -55 Y833,1 -55 Y834,1 -55 Y835,1 -55 Y836,1 -55 Y837,1 -55 Y838,1 -55 Y839,1
  -55 Y840,1 -55 Y841,1 -55 Y842,1 -55 Y843,1 -55 Y844,1 -55 Y845,1 -55 Y846,1 -55 Y847,1 -55 Y848,1 -55 Y849,1
  -55 Y850,1 -55 Y851,1 -55 Y852,1 -55 Y853,1 -55 Y854,1 -55 Y855,1 -55 Y856,1 -55 Y857,1 -55 Y858,1 -55 Y859,1
  -55 Y860,1 -55 Y861,1 -55 Y862,1 -55 Y863,1 -55 Y864,1 -55 Y865,1 -55 Y866,1 -55 Y867,1 -55 Y868,1 -55 Y869,1
  -55 Y870,1 -55 Y871,1 -55 Y872,1 -55 Y873,1 -55 Y874,1 -55 Y875,1 -55 Y876,1 -55 Y877,1 -55 Y878,1 -70 Y879,1
  -70 Y880,1 -70 Y881,1 -70 Y882,1 -70 Y883,1 -70 Y884,1 -70 Y885,1 -79 Y886,1 -79 Y887,1 -79 Y888,1 >= +0
 c3846: +1 Cmax -89 Y0,2 -89 Y1,2 -89 Y2,2 -89 Y3,2 -89 Y4,2 -89 Y5,2 -89 Y6,2 -89 Y7,2 -89 Y8,2 -89 Y9,2
  -89 Y10,2 -89 Y11,2 -89 Y12,2 -89 Y13,2 -89 Y14,2 -89 Y15,2 -89 Y16,2 -89 Y17,2 -89 Y18,2 -89 Y19,2
  -89 Y20,2 -89 Y21,2 -89 Y22,2 -89 Y23,2 -89 Y24,2 -89 Y25,2 -89 Y26,2 -89 Y27,2 -89 Y28,2 -89 Y29,2
  -89 Y30,2 -89 Y31,2 -89 Y32,2 -89 Y33,2 -89 Y34,2 -89 Y35,2 -89 Y36,2 -89 Y37,2 -89 Y38,2 -89 Y39,2
  -89 Y40,2 -89 Y41,2 -89 Y42,2 -89 Y43,2 -89 Y44,2 -89 Y45,2 -89 Y46,2 -89 Y47,2 -89 Y48,2 -89 Y49,2
  -89 Y50,2 -89 Y51,2 -89 Y52,2 -89 Y53,2 -89 Y54,2 -89 Y55,2 -89 Y56,2 -89 Y57,2 -89 Y58,2 -89 Y59,2
  -89 Y60,2 -89 Y61,2 -89 Y62,2 -89 Y63,2 -89 Y64,2 -89 Y65,2 -89 Y66,2 -89 Y67,2 -89 Y68,2 -89 Y69,2
  -89 Y70,2 -89 Y71,2 -89 Y72,2 -89 Y73,2 -89 Y74,2 -89 Y75,2 -89 Y76,2 -89 Y77,2 -89 Y78,2 -89 Y79,2
  -89 Y80,2 -89 Y81,2 -89 Y82,2 -89 Y83,2 -89 Y84,2 -89 Y85,2 -89 Y86,2 -89 Y87,2 -89 Y88,2 -89 Y89,2
  -89 Y90,2 -89 Y91,2 -89 Y92,2 -89 Y93,2 -89 Y94,2 -89 Y95,2 -89 Y96,2 -89 Y97,2 -89 Y98,2 -89 Y99,2
  -89 Y100,2 -89 Y101,2 -89 Y102,2 -89 Y103,2 -89 Y104,2 -89 Y105,2 -89 Y106,2 -89 Y107,2 -89 Y108,2 -89 Y109,2
  -89 Y110,2 -89 Y111,2 -89 Y112,2 -89 Y113,2 -89 Y114,2 -89 Y115,2 -89 Y116,2 -89 Y117,2 -89 Y118,2 -89 Y119,2
  -89 Y120,2 -89 Y121,2 -89 Y122,2 -89 Y123,2 -89 Y124,2 -89 Y125,2 -89 Y126,2 -89 Y127,2 -89 Y128,2 -89 Y129,2
  -89 Y130,2 -89 Y131,2 -89 Y132,2 -89 Y133,2 -89 Y134,2 -89 Y135,2 -89 Y136,2 -89 Y137,2 -89 Y138,2 -89 Y139,2
  -89 Y140,2 -89 Y141,2 -89 Y142,2 -89 Y143,2 -89 Y144,2 -89 Y145,2 -89 Y146,2 -89 Y147,2 -89 Y148,2 -89 Y149,2
  -89 Y150,2 -89 Y151,2 -89 Y152,2 -89 Y153,2 -89 Y154,2 -89 Y155,2 -89 Y156,2 -89 Y157,2 -89 Y158,2 -89 Y159,2
  -89 Y160,2 -89 Y161,2 -89 Y162,2 -89 Y163,2 -89 Y164,2 -89 Y165,2 -89 Y166,2 -89 Y167,2 -89 Y168,2 -89 Y169,2
  -89 Y170,2 -89 Y171,2 -89 Y172,2 -89 Y173,2 -89 Y174,2 -89 Y175,2 -89 Y176,2 -89 Y177,2 -89 Y178,2 -89 Y179,2
  -89 Y180,2 -89 Y181,2 -89 Y182,2 -89 Y183,2 -89 Y184,2 -89 Y185,2 -89 Y186,2 -89 Y187,2 -89 Y188,2 -89 Y189,2
  -89 Y190,2 -89 Y191,2 -89 Y192,2 -89 Y193,2 -89 Y194,2 -89 Y195,2 -89 Y196,2 -89 Y197,2 -89 Y198,2 -89 Y199,2
  -89 Y200,2 -89 Y201,2 -89 Y202,2 -89 Y203,2 -89 Y204,2 -89 Y205,2 -89 Y206,2 -89 Y207,2 -89 Y208,2 -89 Y209,2
  -89 Y210,2 -89 Y211,2 -89 Y212,2 -89 Y213,2 -89 Y214,2 -89 Y215,2 -89 Y216,2 -89 Y217,2 -89 Y218,2 -89 Y219,2
  -89 Y220,2 -89 Y221,2 -89 Y222,2 -89 Y223,2 -89 Y224,2 -89 Y225,2 -89 Y226,2 -89 Y227,2 -89 Y228,2 -89 Y229,2
  -89 Y230,2 -89 Y231,2 -89 Y232,2 -89 Y233,2 -89 Y234,2 -89 Y235,2 -89 Y236,2 -89 Y237,2 -89 Y238,2 -89 Y239,2
  -89 Y240,2 -89 Y241,2 -89 Y242,2 -89 Y243,2 -89 Y244,2 -89 Y245,2 -89 Y246,2 -89 Y247,2 -89 Y248,2 -89 Y249,2
  -89 Y250,2 -89 Y251,2 -89 Y252,2 -89 Y253,2 -89 Y254,2 -89 Y255,2 -89 Y256,2 -89 Y257,2 -89 Y258,2 -89 Y259,2
  -89 Y260,2 -89 Y261,2 -89 Y262,2 -89 Y263,2 -89 Y264,2 -89 Y265,2 -89 Y266,2 -89 Y267,2 -89 Y268,2 -89 Y269,2
  -89 Y270,2 -89 Y271,2 -89 Y272,2 -89 Y273,2 -89 Y274,2 -89 Y275,2 -89 Y276,2 -89 Y277,2 -89 Y278,2 -89 Y279,2
  -89 Y280,2 -89 Y281,2 -89 Y282,2 -89 Y283,2 -89 Y284,2 -89 Y285,2 -89 Y286,2 -89 Y287,2 -89 Y288,2 -89 Y289,2
  -89 Y290,2 -89 Y291,2 -89 Y292,2 -89 Y293,2 -89 Y294,2 -89 Y295,2 -89 Y296,2 -89 Y297,2 -89 Y298,2 -89 Y299,2
  -89 Y300,2 -89 Y301,2 -89 Y302,2 -89 Y303,2 -89 Y304,2 -89 Y305,2 -89 Y306,2 -89 Y307,2 -89 Y308,2 -89 Y309,2
  -89 Y310,2 -89 Y311,2 -89 Y312,2 -89 Y313,2 -89 Y314,2 -89 Y315,2 -89 Y316,2 -89 Y317,2 -89 Y318,2 -89 Y319,2
  -89 Y320,2 -89 Y321,2 -89 Y322,2 -89 Y323,2 -89 Y324,2 -89 Y325,2 -89 Y326,2 -89 Y327,2 -89 Y328,2 -89 Y329,2
  -89 Y330,2 -89 Y331,2 -89 Y332,2 -89 Y333,2 -89 Y334,2 -89 Y335,2 -89 Y336,2 -89 Y337,2 -89 Y338,2 -89 Y339,2
  -89 Y340,2 -89 Y341,2 -89 Y342,2 -89 Y343,2 -89 Y344,2 -89 Y345,2 -89 Y346,2 -89 Y347,2 -89 Y348,2 -89 Y349,2
  -89 Y350,2 -89 Y351,2 -89 Y352,2 -89 Y353,2 -89 Y354,2 -89 Y355,2 -89 Y356,2 -89 Y357,2 -89 Y358,2 -89 Y359,2
  -89 Y360,2 -89 Y361,2 -89 Y362,2 -89 Y363,2 -89 Y364,2 -89 Y365,2 -89 Y366,2 -89 Y367,2 -89 Y368,2 -89 Y369,2
  -89 Y370,2 -89 Y371,2 -89 Y372,2 -89 Y373,2 -89 Y374,2 -89 Y375,2 -89 Y376,2 -89 Y377,2 -89 Y378,2 -89 Y379,2
  -89 Y380,2 -89 Y381,2 -89 Y382,2 -89 Y383,2 -89 Y384,2 -89 Y385,2 -89 Y386,2 -89 Y387,2 -89 Y388,2 -89 Y389,2
  -89 Y390,2 -89 Y391,2 -89 Y392,2 -89 Y393,2 -89 Y394,2 -89 Y395,2 -89 Y396,2 -89 Y397,2 -89 Y398,2 -89 Y399,2
  -89 Y400,2 -89 Y401,2 -89 Y402,2 -89 Y403,2 -89 Y404,2 -89 Y405,2 -89 Y406,2 -89 Y407,2 -89 Y408,2 -89 Y409,2
  -89 Y410,2 -89 Y411,2 -89 Y412,2 -89 Y413,2 -89 Y414,2 -89 Y415,2 -89 Y416,2 -89 Y417,2 -89 Y418,2 -89 Y419,2
  -89 Y420,2 -89 Y421,2 -89 Y422,2 -89 Y423,2 -89 Y424,2 -89 Y425,2 -89 Y426,2 -89 Y427,2 -89 Y428,2 -89 Y429,2
  -89 Y430,2 -89 Y431,2 -89 Y432,2 -89 Y433,2 -89 Y434,2 -89 Y435,2 -89 Y436,2 -89 Y437,2 -89 Y438,2 -89 Y439,2
  -89 Y440,2 -89 Y441,2 -89 Y442,2 -89 Y443,2 -89 Y444,2 -89 Y445,2 -89 Y446,2 -89 Y447,2 -89 Y448,2 -89 Y449,2
  -89 Y450,2 -89 Y451,2 -89 Y452,2 -89 Y453,2 -89 Y454,2 -89 Y455,2 -89 Y456,2 -89 Y457,2 -89 Y458,2 -89 Y459,2
  -89 Y460,2 -89 Y461,2 -89 Y462,2 -89 Y463,2 -89 Y464,2 -89 Y465,2 -89 Y466,2 -89 Y467,2 -89 Y468,2 -89 Y469,2
  -89 Y470,2 -89 Y471,2 -89 Y472,2 -89 Y473,2 -89 Y474,2 -89 Y475,2 -89 Y476,2 -89 Y477,2 -89 Y478,2 -89 Y479,2
  -89 Y480,2 -89 Y481,2 -89 Y482,2 -89 Y483,2 -89 Y484,2 -89 Y485,2 -89 Y486,2 -89 Y487,2 -89 Y488,2 -89 Y489,2
  -89 Y490,2 -89 Y491,2 -89 Y492,2 -89 Y493,2 -89 Y494,2 -89 Y495,2 -89 Y496,2 -89 Y497,2 -89 Y498,2 -89 Y499,2
  -89 Y500,2 -89 Y501,2 -89 Y502,2 -89 Y503,2 -89 Y504,2 -89 Y505,2 -89 Y506,2 -89 Y507,2 -89 Y508,2 -89 Y509,2
  -89 Y510,2 -89 Y511,2 -89 Y512,2 -89 Y513,2 -89 Y514,2 -89 Y515,2 -89 Y516,2 -89 Y517,2 -89 Y518,2 -89 Y519,2
  -89 Y520,2 -89 Y521,2 -89 Y522,2 -89 Y523,2 -89 Y524,2 -89 Y525,2 -89 Y526,2 -89 Y527,2 -89 Y528,2 -89 Y529,2
  -89 Y530,2 -89 Y531,2 -89 Y532,2 -89 Y533,2 -89 Y534,2 -89 Y535,2 -89 Y536,2 -89 Y537,2 -89 Y538,2 -89 Y539,2
  -89 Y540,2 -52 Y541,2 -52 Y542,2 -52 Y543,2 -52 Y544,2 -52 Y545,2 -52 Y546,2 -52 Y547,2 -63 Y548,2 -63 Y549,2
  -63 Y550,2 -63 Y551,2 -63 Y552,2 -63 Y553,2 -63 Y554,2 -63 Y555,2 -63 Y556,2 -63 Y557,2 -63 Y558,2 -63 Y559,2
  -63 Y560,2 -63 Y561,2 -63 Y562,2 -63 Y563,2 -63 Y564,2 -63 Y565,2 -63 Y566,2 -63 Y567,2 -63 Y568,2 -63 Y569,2
  -63 Y570,2 -63 Y571,2 -63 Y572,2 -63 Y573,2 -63 Y574,2 -63 Y575,2 -63 Y576,2 -63 Y577,2 -63 Y578,2 -45 Y579,2
  -45 Y580,2 -45 Y581,2 -45 Y582,2 -45 Y583,2 -45 Y584,2 -45 Y585,2 -45 Y586,2 -45 Y587,2 -45 Y588,2 -45 Y589,2
  -45 Y590,2 -45 Y591,2 -45 Y592,2 -45 Y593,2 -45 Y594,2 -45 Y595,2 -45 Y596,2 -45 Y597,2 -45 Y598,2 -45 Y599,2
  -45 Y600,2 -45 Y601,2 -45 Y602,2 -45 Y603,2 -45 Y604,2 -45 Y605,2 -45 Y606,2 -45 Y607,2 -45 Y608,2 -45 Y609,2
  -45 Y610,2 -45 Y611,2 -45 Y612,2 -45 Y613,2 -45 Y614,2 -45 Y615,2 -45 Y616,2 -45 Y617,2 -45 Y618,2 -45 Y619,2
  -45 Y620,2 -45 Y621,2 -45 Y622,2 -45 Y623,2 -45 Y624,2 -45 Y625,2 -45 Y626,2 -45 Y627,2 -45 Y628,2 -45 Y629,2
  -45 Y630,2 -45 Y631,2 -45 Y632,2 -45 Y633,2 -45 Y634,2 -45 Y635,2 -45 Y636,2 -45 Y637,2 -45 Y638,2 -45 Y639,2
  -45 Y640,2 -45 Y641,2 -45 Y642,2 -45 Y643,2 -45 Y644,2 -45 Y645,2 -45 Y646,2 -45 Y647,2 -45 Y648,2 -45 Y649,2
  -45 Y650,2 -45 Y651,2 -45 Y652,2 -45 Y653,2 -45 Y654,2 -45 Y655,2 -45 Y656,2 -45 Y657,2 -45 Y658,2 -45 Y659,2
  -45 Y660,2 -45 Y661,2 -45 Y662,2 -45 Y663,2 -45 Y664,2 -45 Y665,2 -45 Y666,2 -45 Y667,2 -45 Y668,2 -45 Y669,2
  -45 Y670,2 -45 Y671,2 -45 Y672,2 -45 Y673,2 -45 Y674,2 -45 Y675,2 -45 Y676,2 -45 Y677,2 -45 Y678,2 -45 Y679,2
  -45 Y680,2 -45 Y681,2 -45 Y682,2 -45 Y683,2 -45 Y684,2 -45 Y685,2 -45 Y686,2 -45 Y687,2 -45 Y688,2 -45 Y689,2
  -45 Y690,2 -45 Y691,2 -45 Y692,2 -45 Y693,2 -45 Y694,2 -45 Y695,2 -45 Y696,2 -57 Y697,2 -57 Y698,2 -57 Y699,2
  -57 Y700,2 -57 Y701,2 -57 Y702,2 -57 Y703,2 -57 Y704,2 -57 Y705,2 -57 Y706,2 -57 Y707,2 -57 Y708,2 -57 Y709,2
  -57 Y710,2 -57 Y711,2 -53 Y712,2 -53 Y713,2 -53 Y714,2 -53 Y715,2 -53 Y716,2 -53 Y717,2 -53 Y718,2 -53 Y719,2
  -53 Y720,2 -53 Y721,2 -53 Y722,2 -53 Y723,2 -53 Y724,2 -53 Y725,2 -53 Y726,2 -75 Y727,2 -75 Y728,2 -75 Y729,2
  -75 Y730,2 -75 Y731,2 -75 Y732,2 -75 Y733,2 -75 Y734,2 -75 Y735,2 -75 Y736,2 -75 Y737,2 -75 Y738,2 -75 Y739,2
  -75 Y740,2 -75 Y741,2 -75 Y742,2 -75 Y743,2 -75 Y744,2 -75 Y745,2 -75 Y746,2 -75 Y747,2 -75 Y748,2 -75 Y749,2
  -75 Y750,2 -75 Y751,2 -75 Y752,2 -75 Y753,2 -75 Y754,2 -75 Y755,2 -75 Y756,2 -75 Y757,2 -55 Y758,2 -55 Y759,2
  -55 Y760,2 -55 Y761,2 -55 Y762,2 -55 Y763,2 -55 Y764,2 -55 Y765,2 -55 Y766,2 -55 Y767,2 -55 Y768,2 -55 Y769,2
  -55 Y770,2 -55 Y771,2 -55 Y772,2 -55 Y773,2 -55 Y774,2 -55 Y775,2 -55 Y776,2 -55 Y777,2 -55 Y778,2 -55 Y779,2
  -55 Y780,2 -55 Y781,2 -55 Y782,2 -55 Y783,2 -55 Y784,2 -55 Y785,2 -55 Y786,2 -55 Y787,2 -55 Y788,2 -55 Y789,2
  -55 Y790,2 -55 Y791,2 -55 Y792,2 -55 Y793,2 -55 Y794,2 -55 Y795,2 -55 Y796,2 -55 Y797,2 -55 Y798,2 -55 Y799,2
  -55 Y800,2 -55 Y801,2 -55 Y802,2 -55 Y803,2 -55 Y804,2 -55 Y805,2 -55 Y806,2 -55 Y807,2 -55 Y808,2 -55 Y809,2
  -55 Y810,2 -55 Y811,2 -55 Y812,2 -55 Y813,2 -55 Y814,2 -55 Y815,2 -55 Y816,2 -55 Y817,2 -55 Y818,2 -55 Y819,2
  -55 Y820,2 -55 Y821,2 -55 Y822,2 -55 Y823,2 -55 Y824,2 -55 Y825,2 -55 Y826,2 -55 Y827,2 -55 Y828,2 -55 Y829,2
  -55 Y830,2 -55 Y831,2 -55 Y832,2 -55 Y833,2 -55 Y834,2 -55 Y835,2 -55 Y836,2 -55 Y837,2 -55 Y838,2 -55 Y839,2
  -55 Y840,2 -55 Y841,2 -55 Y842,2 -55 Y843,2 -55 Y844,2 -55 Y845,2 -55 Y846,2 -55 Y847,2 -55 Y848,2 -55 Y849,2
  -55 Y850,2 -55 Y851,2 -55 Y852,2 -55 Y853,2 -55 Y854,2 -55 Y855,2 -55 Y856,2 -55 Y857,2 -55 Y858,2 -55 Y859,2
  -55 Y860,2 -55 Y861,2 -55 Y862,2 -55 Y863,2 -55 Y864,2 -55 Y865,2 -55 Y866,2 -55 Y867,2 -55 Y868,2 -55 Y869,2
  -55 Y870,2 -55 Y871,2 -55 Y872,2 -55 Y873,2 -55 Y874,2 -55 Y875,2 -55 Y876,2 -55 Y877,2 -55 Y878,2 -70 Y879,2
  -70 Y880,2 -70 Y881,2 -70 Y882,2 -70 Y883,2 -70 Y884,2 -70 Y885,2 -79 Y886,2 -79 Y887,2 -79 Y888,2 >= +0
 c3847: +1 Cmax -89 Y0,3 -89 Y1,3 -89 Y2,3 -89 Y3,3 -89 Y4,3 -89 Y5,3 -89 Y6,3 -89 Y7,3 -89 Y8,3 -89 Y9,3
  -89 Y10,3 -89 Y11,3 -89 Y12,3 -89 Y13,3 -89 Y14,3 -89 Y15,3 -89 Y16,3 -89 Y17,3 -89 Y18,3 -89 Y19,3
  -89 Y20,3 -89 Y21,3 -89 Y22,3 -89 Y23,3 -89 Y24,3 -89 Y25,3 -89 Y26,3 -89 Y27,3 -89 Y28,3 -89 Y29,3
  -89 Y30,3 -89 Y31,3 -89 Y32,3 -89 Y33,3 -89 Y34,3 -89 Y35,3 -89 Y36,3 -89 Y37,3 -89 Y38,3 -89 Y39,3
  -89 Y40,3 -89 Y41,3 -89 Y42,3 -89 Y43,3 -89 Y44,3 -89 Y45,3 -89 Y46,3 -89 Y47,3 -89 Y48,3 -89 Y49,3
  -89 Y50,3 -89 Y51,3 -89 Y52,3 -89 Y53,3 -89 Y54,3 -89 Y55,3 -89 Y56,3 -89 Y57,3 -89 Y58,3 -89 Y59,3
  -89 Y60,3 -89 Y61,3 -89 Y62,3 -89 Y63,3 -89 Y64,3 -89 Y65,3 -89 Y66,3 -89 Y67,3 -89 Y68,3 -89 Y69,3
  -89 Y70,3 -89 Y71,3 -89 Y72,3 -89 Y73,3 -89 Y74,3 -89 Y75,3 -89 Y76,3 -89 Y77,3 -89 Y78,3 -89 Y79,3
  -89 Y80,3 -89 Y81,3 -89 Y82,3 -89 Y83,3 -89 Y84,3 -89 Y85,3 -89 Y86,3 -89 Y87,3 -89 Y88,3 -89 Y89,3
  -89 Y90,3 -89 Y91,3 -89 Y92,3 -89 Y93,3 -89 Y94,3 -89 Y95,3 -89 Y96,3 -89 Y97,3 -89 Y98,3 -89 Y99,3
  -89 Y100,3 -89 Y101,3 -89 Y102,3 -89 Y103,3 -89 Y104,3 -89 Y105,3 -89 Y106,3 -89 Y107,3 -89 Y108,3 -89 Y109,3
  -89 Y110,3 -89 Y111,3 -89 Y112,3 -89 Y113,3 -89 Y114,3 -89 Y115,3 -89 Y116,3 -89 Y117,3 -89 Y118,3 -89 Y119,3
  -89 Y120,3 -89 Y121,3 -89 Y122,3 -89 Y123,3 -89 Y124,3 -89 Y125,3 -89 Y126,3 -89 Y127,3 -89 Y128,3 -89 Y129,3
  -89 Y130,3 -89 Y131,3 -89 Y132,3 -89 Y133,3 -89 Y134,3 -89 Y135,3 -89 Y136,3 -89 Y137,3 -89 Y138,3 -89 Y139,3
  -89 Y140,3 -89 Y141,3 -89 Y142,3 -89 Y143,3 -89 Y144,3 -89 Y145,3 -89 Y146,3 -89 Y147,3 -89 Y148,3 -89 Y149,3
  -89 Y150,3 -89 Y151,3 -89 Y152,3 -89 Y153,3 -89 Y154,3 -89 Y155,3 -89 Y156,3 -89 Y157,3 -89 Y158,3 -89 Y159,3
  -89 Y160,3 -89 Y161,3 -89 Y162,3 -89 Y163,3 -89 Y164,3 -89 Y165,3 -89 Y166,3 -89 Y167,3 -89 Y168,3 -89 Y169,3
  -89 Y170,3 -89 Y171,3 -89 Y172,3 -89 Y173,3 -89 Y174,3 -89 Y175,3 -89 Y176,3 -89 Y177,3 -89 Y178,3 -89 Y179,3
  -89 Y180,3 -89 Y181,3 -89 Y182,3 -89 Y183,3 -89 Y184,3 -89 Y185,3 -89 Y186,3 -89 Y187,3 -89 Y188,3 -89 Y189,3
  -89 Y190,3 -89 Y191,3 -89 Y192,3 -89 Y193,3 -89 Y194,3 -89 Y195,3 -89 Y196,3 -89 Y197,3 -89 Y198,3 -89 Y199,3
  -89 Y200,3 -89 Y201,3 -89 Y202,3 -89 Y203,3 -89 Y204,3 -89 Y205,3 -89 Y206,3 -89 Y207,3 -89 Y208,3 -89 Y209,3
  -89 Y210,3 -89 Y211,3 -89 Y212,3 -89 Y213,3 -89 Y214,3 -89 Y215,3 -89 Y216,3 -89 Y217,3 -89 Y218,3 -89 Y219,3
  -89 Y220,3 -89 Y221,3 -89 Y222,3 -89 Y223,3 -89 Y224,3 -89 Y225,3 -89 Y226,3 -89 Y227,3 -89 Y228,3 -89 Y229,3
  -89 Y230,3 -89 Y231,3 -89 Y232,3 -89 Y233,3 -89 Y234,3 -89 Y235,3 -89 Y236,3 -89 Y237,3 -89 Y238,3 -89 Y239,3
  -89 Y240,3 -89 Y241,3 -89 Y242,3 -89 Y243,3 -89 Y244,3 -89 Y245,3 -89 Y246,3 -89 Y247,3 -89 Y248,3 -89 Y249,3
  -89 Y250,3 -89 Y251,3 -89 Y252,3 -89 Y253,3 -89 Y254,3 -89 Y255,3 -89 Y256,3 -89 Y257,3 -89 Y258,3 -89 Y259,3
  -89 Y260,3 -89 Y261,3 -89 Y262,3 -89 Y263,3 -89 Y264,3 -89 Y265,3 -89 Y266,3 -89 Y267,3 -89 Y268,3 -89 Y269,3
  -89 Y270,3 -89 Y271,3 -89 Y272,3 -89 Y273,3 -89 Y274,3 -89 Y275,3 -89 Y276,3 -89 Y277,3 -89 Y278,3 -89 Y279,3
  -89 Y280,3 -89 Y281,3 -89 Y282,3 -89 Y283,3 -89 Y284,3 -89 Y285,3 -89 Y286,3 -89 Y287,3 -89 Y288,3 -89 Y289,3
  -89 Y290,3 -89 Y291,3 -89 Y292,3 -89 Y293,3 -89 Y294,3 -89 Y295,3 -89 Y296,3 -89 Y297,3 -89 Y298,3 -89 Y299,3
  -89 Y300,3 -89 Y301,3 -89 Y302,3 -89 Y303,3 -89 Y304,3 -89 Y305,3 -89 Y306,3 -89 Y307,3 -89 Y308,3 -89 Y309,3
  -89 Y310,3 -89 Y311,3 -89 Y312,3 -89 Y313,3 -89 Y314,3 -89 Y315,3 -89 Y316,3 -89 Y317,3 -89 Y318,3 -89 Y319,3
  -89 Y320,3 -89 Y321,3 -89 Y322,3 -89 Y323,3 -89 Y324,3 -89 Y325,3 -89 Y326,3 -89 Y327,3 -89 Y328,3 -89 Y329,3
  -89 Y330,3 -89 Y331,3 -89 Y332,3 -89 Y333,3 -89 Y334,3 -89 Y335,3 -89 Y336,3 -89 Y337,3 -89 Y338,3 -89 Y339,3
  -89 Y340,3 -89 Y341,3 -89 Y342,3 -89 Y343,3 -89 Y344,3 -89 Y345,3 -89 Y346,3 -89 Y347,3 -89 Y348,3 -89 Y349,3
  -89 Y350,3 -89 Y351,3 -89 Y352,3 -89 Y353,3 -89 Y354,3 -89 Y355,3 -89 Y356,3 -89 Y357,3 -89 Y358,3 -89 Y359,3
  -89 Y360,3 -89 Y361,3 -89 Y362,3 -89 Y363,3 -89 Y364,3 -89 Y365,3 -89 Y366,3 -89 Y367,3 -89 Y368,3 -89 Y369,3
  -89 Y370,3 -89 Y371,3 -89 Y372,3 -89 Y373,3 -89 Y374,3 -89 Y375,3 -89 Y376,3 -89 Y377,3 -89 Y378,3 -89 Y379,3
  -89 Y380,3 -89 Y381,3 -89 Y382,3 -89 Y383,3 -89 Y384,3 -89 Y385,3 -89 Y386,3 -89 Y387,3 -89 Y388,3 -89 Y389,3
  -89 Y390,3 -89 Y391,3 -89 Y392,3 -89 Y393,3 -89 Y394,3 -89 Y395,3 -89 Y396,3 -89 Y397,3 -89 Y398,3 -89 Y399,3
  -89 Y400,3 -89 Y401,3 -89 Y402,3 -89 Y403,3 -89 Y404,3 -89 Y405,3 -89 Y406,3 -89 Y407,3 -89 Y408,3 -89 Y409,3
  -89 Y410,3 -89 Y411,3 -89 Y412,3 -89 Y413,3 -89 Y414,3 -89 Y415,3 -89 Y416,3 -89 Y417,3 -89 Y418,3 -89 Y419,3
  -89 Y420,3 -89 Y421,3 -89 Y422,3 -89 Y423,3 -89 Y424,3 -89 Y425,3 -89 Y426,3 -89 Y427,3 -89 Y428,3 -89 Y429,3
  -89 Y430,3 -89 Y431,3 -89 Y432,3 -89 Y433,3 -89 Y434,3 -89 Y435,3 -89 Y436,3 -89 Y437,3 -89 Y438,3 -89 Y439,3
  -89 Y440,3 -89 Y441,3 -89 Y442,3 -89 Y443,3 -89 Y444,3 -89 Y445,3 -89 Y446,3 -89 Y447,3 -89 Y448,3 -89 Y449,3
  -89 Y450,3 -89 Y451,3 -89 Y452,3 -89 Y453,3 -89 Y454,3 -89 Y455,3 -89 Y456,3 -89 Y457,3 -89 Y458,3 -89 Y459,3
  -89 Y460,3 -89 Y461,3 -89 Y462,3 -89 Y463,3 -89 Y464,3 -89 Y465,3 -89 Y466,3 -89 Y467,3 -89 Y468,3 -89 Y469,3
  -89 Y470,3 -89 Y471,3 -89 Y472,3 -89 Y473,3 -89 Y474,3 -89 Y475,3 -89 Y476,3 -89 Y477,3 -89 Y478,3 -89 Y479,3
  -89 Y480,3 -89 Y481,3 -89 Y482,3 -89 Y483,3 -89 Y484,3 -89 Y485,3 -89 Y486,3 -89 Y487,3 -89 Y488,3 -89 Y489,3
  -89 Y490,3 -89 Y491,3 -89 Y492,3 -89 Y493,3 -89 Y494,3 -89 Y495,3 -89 Y496,3 -89 Y497,3 -89 Y498,3 -89 Y499,3
  -89 Y500,3 -89 Y501,3 -89 Y502,3 -89 Y503,3 -89 Y504,3 -89 Y505,3 -89 Y506,3 -89 Y507,3 -89 Y508,3 -89 Y509,3
  -89 Y510,3 -89 Y511,3 -89 Y512,3 -89 Y513,3 -89 Y514,3 -89 Y515,3 -89 Y516,3 -89 Y517,3 -89 Y518,3 -89 Y519,3
  -89 Y520,3 -89 Y521,3 -89 Y522,3 -89 Y523,3 -89 Y524,3 -89 Y525,3 -89 Y526,3 -89 Y527,3 -89 Y528,3 -89 Y529,3
  -89 Y530,3 -89 Y531,3 -89 Y532,3 -89 Y533,3 -89 Y534,3 -89 Y535,3 -89 Y536,3 -89 Y537,3 -89 Y538,3 -89 Y539,3
  -89 Y540,3 -52 Y541,3 -52 Y542,3 -52 Y543,3 -52 Y544,3 -52 Y545,3 -52 Y546,3 -52 Y547,3 -63 Y548,3 -63 Y549,3
  -63 Y550,3 -63 Y551,3 -63 Y552,3 -63 Y553,3 -63 Y554,3 -63 Y555,3 -63 Y556,3 -63 Y557,3 -63 Y558,3 -63 Y559,3
  -63 Y560,3 -63 Y561,3 -63 Y562,3 -63 Y563,3 -63 Y564,3 -63 Y565,3 -63 Y566,3 -63 Y567,3 -63 Y568,3 -63 Y569,3
  -63 Y570,3 -63 Y571,3 -63 Y572,3 -63 Y573,3 -63 Y574,3 -63 Y575,3 -63 Y576,3 -63 Y577,3 -63 Y578,3 -45 Y579,3
  -45 Y580,3 -45 Y581,3 -45 Y582,3 -45 Y583,3 -45 Y584,3 -45 Y585,3 -45 Y586,3 -45 Y587,3 -45 Y588,3 -45 Y589,3
  -45 Y590,3 -45 Y591,3 -45 Y592,3 -45 Y593,3 -45 Y594,3 -45 Y595,3 -45 Y596,3 -45 Y597,3 -45 Y598,3 -45 Y599,3
  -45 Y600,3 -45 Y601,3 -45 Y602,3 -45 Y603,3 -45 Y604,3 -45 Y605,3 -45 Y606,3 -45 Y607,3 -45 Y608,3 -45 Y609,3
  -45 Y610,3 -45 Y611,3 -45 Y612,3 -45 Y613,3 -45 Y614,3 -45 Y615,3 -45 Y616,3 -45 Y617,3 -45 Y618,3 -45 Y619,3
  -45 Y620,3 -45 Y621,3 -45 Y622,3 -45 Y623,3 -45 Y624,3 -45 Y625,3 -45 Y626,3 -45 Y627,3 -45 Y628,3 -45 Y629,3
  -45 Y630,3 -45 Y631,3 -45 Y632,3 -45 Y633,3 -45 Y634,3 -45 Y635,3 -45 Y636,3 -45 Y637,3 -45 Y638,3 -45 Y639,3
  -45 Y640,3 -45 Y641,3 -45 Y642,3 -45 Y643,3 -45 Y644,3 -45 Y645,3 -45 Y646,3 -45 Y647,3 -45 Y648,3 -45 Y649,3
  -45 Y650,3 -45 Y651,3 -45 Y652,3 -45 Y653,3 -45 Y654,3 -45 Y655,3 -45 Y656,3 -45 Y657,3 -45 Y658,3 -45 Y659,3
  -45 Y660,3 -45 Y661,3 -45 Y662,3 -45 Y663,3 -45 Y664,3 -45 Y665,3 -45 Y666,3 -45 Y667,3 -45 Y668,3 -45 Y669,3
  -45 Y670,3 -45 Y671,3 -45 Y672,3 -45 Y673,3 -45 Y674,3 -45 Y675,3 -45 Y676,3 -45 Y677,3 -45 Y678,3 -45 Y679,3
  -45 Y680,3 -45 Y681,3 -45 Y682,3 -45 Y683,3 -45 Y684,3 -45 Y685,3 -45 Y686,3 -45 Y687,3 -45 Y688,3 -45 Y689,3
  -45 Y690,3 -45 Y691,3 -45 Y692,3 -45 Y693,3 -45 Y694,3 -45 Y695,3 -45 Y696,3 -57 Y697,3 -57 Y698,3 -57 Y699,3
  -57 Y700,3 -57 Y701,3 -57 Y702,3 -57 Y703,3 -57 Y704,3 -57 Y705,3 -57 Y706,3 -57 Y707,3 -57 Y708,3 -57 Y709,3
  -57 Y710,3 -57 Y711,3 -53 Y712,3 -53 Y713,3 -53 Y714,3 -53 Y715,3 -53 Y716,3 -53 Y717,3 -53 Y718,3 -53 Y719,3
  -53 Y720,3 -53 Y721,3 -53 Y722,3 -53 Y723,3 -53 Y724,3 -53 Y725,3 -53 Y726,3 -75 Y727,3 -75 Y728,3 -75 Y729,3
  -75 Y730,3 -75 Y731,3 -75 Y732,3 -75 Y733,3 -75 Y734,3 -75 Y735,3 -75 Y736,3 -75 Y737,3 -75 Y738,3 -75 Y739,3
  -75 Y740,3 -75 Y741,3 -75 Y742,3 -75 Y743,3 -75 Y744,3 -75 Y745,3 -75 Y746,3 -75 Y747,3 -75 Y748,3 -75 Y749,3
  -75 Y750,3 -75 Y751,3 -75 Y752,3 -75 Y753,3 -75 Y754,3 -75 Y755,3 -75 Y756,3 -75 Y757,3 -55 Y758,3 -55 Y759,3
  -55 Y760,3 -55 Y761,3 -55 Y762,3 -55 Y763,3 -55 Y764,3 -55 Y765,3 -55 Y766,3 -55 Y767,3 -55 Y768,3 -55 Y769,3
  -55 Y770,3 -55 Y771,3 -55 Y772,3 -55 Y773,3 -55 Y774,3 -55 Y775,3 -55 Y776,3 -55 Y777,3 -55 Y778,3 -55 Y779,3
  -55 Y780,3 -55 Y781,3 -55 Y782,3 -55 Y783,3 -55 Y784,3 -55 Y785,3 -55 Y786,3 -55 Y787,3 -55 Y788,3 -55 Y789,3
  -55 Y790,3 -55 Y791,3 -55 Y792,3 -55 Y793,3 -55 Y794,3 -55 Y795,3 -55 Y796,3 -55 Y797,3 -55 Y798,3 -55 Y799,3
  -55 Y800,3 -55 Y801,3 -55 Y802,3 -55 Y803,3 -55 Y804,3 -55 Y805,3 -55 Y806,3 -55 Y807,3 -55 Y808,3 -55 Y809,3
  -55 Y810,3 -55 Y811,3 -55 Y812,3 -55 Y813,3 -55 Y814,3 -55 Y815,3 -55 Y816,3 -55 Y817,3 -55 Y818,3 -55 Y819,3
  -55 Y820,3 -55 Y821,3 -55 Y822,3 -55 Y823,3 -55 Y824,3 -55 Y825,3 -55 Y826,3 -55 Y827,3 -55 Y828,3 -55 Y829,3
  -55 Y830,3 -55 Y831,3 -55 Y832,3 -55 Y833,3 -55 Y834,3 -55 Y835,3 -55 Y836,3 -55 Y837,3 -55 Y838,3 -55 Y839,3
  -55 Y840,3 -55 Y841,3 -55 Y842,3 -55 Y843,3 -55 Y844,3 -55 Y845,3 -55 Y846,3 -55 Y847,3 -55 Y848,3 -55 Y849,3
  -55 Y850,3 -55 Y851,3 -55 Y852,3 -55 Y853,3 -55 Y854,3 -55 Y855,3 -55 Y856,3 -55 Y857,3 -55 Y858,3 -55 Y859,3
  -55 Y860,3 -55 Y861,3 -55 Y862,3 -55 Y863,3 -55 Y864,3 -55 Y865,3 -55 Y866,3 -55 Y867,3 -55 Y868,3 -55 Y869,3
  -55 Y870,3 -55 Y871,3 -55 Y872,3 -55 Y873,3 -55 Y874,3 -55 Y875,3 -55 Y876,3 -55 Y877,3 -55 Y878,3 -70 Y879,3
  -70 Y880,3 -70 Y881,3 -70 Y882,3 -70 Y883,3 -70 Y884,3 -70 Y885,3 -79 Y886,3 -79 Y887,3 -79 Y888,3 >= +0
 c3848: +1 Cmax -89 Y0,4 -89 Y1,4 -89 Y2,4 -89 Y3,4 -89 Y4,4 -89 Y5,4 -89 Y6,4 -89 Y7,4 -89 Y8,4 -89 Y9,4
  -89 Y10,4 -89 Y11,4 -89 Y12,4 -89 Y13,4 -89 Y14,4 -89 Y15,4 -89 Y16,4 -89 Y17,4 -89 Y18,4 -89 Y19,4
  -89 Y20,4 -89 Y21,4 -89 Y22,4 -89 Y23,4 -89 Y24,4 -89 Y25,4 -89 Y26,4 -89 Y27,4 -89 Y28,4 -89 Y29,4
  -89 Y30,4 -89 Y31,4 -89 Y32,4 -89 Y33,4 -89 Y34,4 -89 Y35,4 -89 Y36,4 -89 Y37,4 -89 Y38,4 -89 Y39,4
  -89 Y40,4 -89 Y41,4 -89 Y42,4 -89 Y43,4 -89 Y44,4 -89 Y45,4 -89 Y46,4 -89 Y47,4 -89 Y48,4 -89 Y49,4
  -89 Y50,4 -89 Y51,4 -89 Y52,4 -89 Y53,4 -89 Y54,4 -89 Y55,4 -89 Y56,4 -89 Y57,4 -89 Y58,4 -89 Y59,4
  -89 Y60,4 -89 Y61,4 -89 Y62,4 -89 Y63,4 -89 Y64,4 -89 Y65,4 -89 Y66,4 -89 Y67,4 -89 Y68,4 -89 Y69,4
  -89 Y70,4 -89 Y71,4 -89 Y72,4 -89 Y73,4 -89 Y74,4 -89 Y75,4 -89 Y76,4 -89 Y77,4 -89 Y78,4 -89 Y79,4
  -89 Y80,4 -89 Y81,4 -89 Y82,4 -89 Y83,4 -89 Y84,4 -89 Y85,4 -89 Y86,4 -89 Y87,4 -89 Y88,4 -89 Y89,4
  -89 Y90,4 -89 Y91,4 -89 Y92,4 -89 Y93,4 -89 Y94,4 -89 Y95,4 -89 Y96,4 -89 Y97,4 -89 Y98,4 -89 Y99,4
  -89 Y100,4 -89 Y101,4 -89 Y102,4 -89 Y103,4 -89 Y104,4 -89 Y105,4 -89 Y106,4 -89 Y107,4 -89 Y108,4 -89 Y109,4
  -89 Y110,4 -89 Y111,4 -89 Y112,4 -89 Y113,4 -89 Y114,4 -89 Y115,4 -89 Y116,4 -89 Y117,4 -89 Y118,4 -89 Y119,4
  -89 Y120,4 -89 Y121,4 -89 Y122,4 -89 Y123,4 -89 Y124,4 -89 Y125,4 -89 Y126,4 -89 Y127,4 -89 Y128,4 -89 Y129,4
  -89 Y130,4 -89 Y131,4 -89 Y132,4 -89 Y133,4 -89 Y134,4 -89 Y135,4 -89 Y136,4 -89 Y137,4 -89 Y138,4 -89 Y139,4
  -89 Y140,4 -89 Y141,4 -89 Y142,4 -89 Y143,4 -89 Y144,4 -89 Y145,4 -89 Y146,4 -89 Y147,4 -89 Y148,4 -89 Y149,4
  -89 Y150,4 -89 Y151,4 -89 Y152,4 -89 Y153,4 -89 Y154,4 -89 Y155,4 -89 Y156,4 -89 Y157,4 -89 Y158,4 -89 Y159,4
  -89 Y160,4 -89 Y161,4 -89 Y162,4 -89 Y163,4 -89 Y164,4 -89 Y165,4 -89 Y166,4 -89 Y167,4 -89 Y168,4 -89 Y169,4
  -89 Y170,4 -89 Y171,4 -89 Y172,4 -89 Y173,4 -89 Y174,4 -89 Y175,4 -89 Y176,4 -89 Y177,4 -89 Y178,4 -89 Y179,4
  -89 Y180,4 -89 Y181,4 -89 Y182,4 -89 Y183,4 -89 Y184,4 -89 Y185,4 -89 Y186,4 -89 Y187,4 -89 Y188,4 -89 Y189,4
  -89 Y190,4 -89 Y191,4 -89 Y192,4 -89 Y193,4 -89 Y194,4 -89 Y195,4 -89 Y196,4 -89 Y197,4 -89 Y198,4 -89 Y199,4
  -89 Y200,4 -89 Y201,4 -89 Y202,4 -89 Y203,4 -89 Y204,4 -89 Y205,4 -89 Y206,4 -89 Y207,4 -89 Y208,4 -89 Y209,4
  -89 Y210,4 -89 Y211,4 -89 Y212,4 -89 Y213,4 -89 Y214,4 -89 Y215,4 -89 Y216,4 -89 Y217,4 -89 Y218,4 -89 Y219,4
  -89 Y220,4 -89 Y221,4 -89 Y222,4 -89 Y223,4 -89 Y224,4 -89 Y225,4 -89 Y226,4 -89 Y227,4 -89 Y228,4 -89 Y229,4
  -89 Y230,4 -89 Y231,4 -89 Y232,4 -89 Y233,4 -89 Y234,4 -89 Y235,4 -89 Y236,4 -89 Y237,4 -89 Y238,4 -89 Y239,4
  -89 Y240,4 -89 Y241,4 -89 Y242,4 -89 Y243,4 -89 Y244,4 -89 Y245,4 -89 Y246,4 -89 Y247,4 -89 Y248,4 -89 Y249,4
  -89 Y250,4 -89 Y251,4 -89 Y252,4 -89 Y253,4 -89 Y254,4 -89 Y255,4 -89 Y256,4 -89 Y257,4 -89 Y258,4 -89 Y259,4
  -89 Y260,4 -89 Y261,4 -89 Y262,4 -89 Y263,4 -89 Y264,4 -89 Y265,4 -89 Y266,4 -89 Y267,4 -89 Y268,4 -89 Y269,4
  -89 Y270,4 -89 Y271,4 -89 Y272,4 -89 Y273,4 -89 Y274,4 -89 Y275,4 -89 Y276,4 -89 Y277,4 -89 Y278,4 -89 Y279,4
  -89 Y280,4 -89 Y281,4 -89 Y282,4 -89 Y283,4 -89 Y284,4 -89 Y285,4 -89 Y286,4 -89 Y287,4 -89 Y288,4 -89 Y289,4
  -89 Y290,4 -89 Y291,4 -89 Y292,4 -89 Y293,4 -89 Y294,4 -89 Y295,4 -89 Y296,4 -89 Y297,4 -89 Y298,4 -89 Y299,4
  -89 Y300,4 -89 Y301,4 -89 Y302,4 -89 Y303,4 -89 Y304,4 -89 Y305,4 -89 Y306,4 -89 Y307,4 -89 Y308,4 -89 Y309,4
  -89 Y310,4 -89 Y311,4 -89 Y312,4 -89 Y313,4 -89 Y314,4 -89 Y315,4 -89 Y316,4 -89 Y317,4 -89 Y318,4 -89 Y319,4
  -89 Y320,4 -89 Y321,4 -89 Y322,4 -89 Y323,4 -89 Y324,4 -89 Y325,4 -89 Y326,4 -89 Y327,4 -89 Y328,4 -89 Y329,4
  -89 Y330,4 -89 Y331,4 -89 Y332,4 -89 Y333,4 -89 Y334,4 -89 Y335,4 -89 Y336,4 -89 Y337,4 -89 Y338,4 -89 Y339,4
  -89 Y340,4 -89 Y341,4 -89 Y342,4 -89 Y343,4 -89 Y344,4 -89 Y345,4 -89 Y346,4 -89 Y347,4 -89 Y348,4 -89 Y349,4
  -89 Y350,4 -89 Y351,4 -89 Y352,4 -89 Y353,4 -89 Y354,4 -89 Y355,4 -89 Y356,4 -89 Y357,4 -89 Y358,4 -89 Y359,4
  -89 Y360,4 -89 Y361,4 -89 Y362,4 -89 Y363,4 -89 Y364,4 -89 Y365,4 -89 Y366,4 -89 Y367,4 -89 Y368,4 -89 Y369,4
  -89 Y370,4 -89 Y371,4 -89 Y372,4 -89 Y373,4 -89 Y374,4 -89 Y375,4 -89 Y376,4 -89 Y377,4 -89 Y378,4 -89 Y379,4
  -89 Y380,4 -89 Y381,4 -89 Y382,4 -89 Y383,4 -89 Y384,4 -89 Y385,4 -89 Y386,4 -89 Y387,4 -89 Y388,4 -89 Y389,4
  -89 Y390,4 -89 Y391,4 -89 Y392,4 -89 Y393,4 -89 Y394,4 -89 Y395,4 -89 Y396,4 -89 Y397,4 -89 Y398,4 -89 Y399,4
  -89 Y400,4 -89 Y401,4 -89 Y402,4 -89 Y403,4 -89 Y404,4 -89 Y405,4 -89 Y406,4 -89 Y407,4 -89 Y408,4 -89 Y409,4
  -89 Y410,4 -89 Y411,4 -89 Y412,4 -89 Y413,4 -89 Y414,4 -89 Y415,4 -89 Y416,4 -89 Y417,4 -89 Y418,4 -89 Y419,4
  -89 Y420,4 -89 Y421,4 -89 Y422,4 -89 Y423,4 -89 Y424,4 -89 Y425,4 -89 Y426,4 -89 Y427,4 -89 Y428,4 -89 Y429,4
  -89 Y430,4 -89 Y431,4 -89 Y432,4 -89 Y433,4 -89 Y434,4 -89 Y435,4 -89 Y436,4 -89 Y437,4 -89 Y438,4 -89 Y439,4
  -89 Y440,4 -89 Y441,4 -89 Y442,4 -89 Y443,4 -89 Y444,4 -89 Y445,4 -89 Y446,4 -89 Y447,4 -89 Y448,4 -89 Y449,4
  -89 Y450,4 -89 Y451,4 -89 Y452,4 -89 Y453,4 -89 Y454,4 -89 Y455,4 -89 Y456,4 -89 Y457,4 -89 Y458,4 -89 Y459,4
  -89 Y460,4 -89 Y461,4 -89 Y462,4 -89 Y463,4 -89 Y464,4 -89 Y465,4 -89 Y466,4 -89 Y467,4 -89 Y468,4 -89 Y469,4
  -89 Y470,4 -89 Y471,4 -89 Y472,4 -89 Y473,4 -89 Y474,4 -89 Y475,4 -89 Y476,4 -89 Y477,4 -89 Y478,4 -89 Y479,4
  -89 Y480,4 -89 Y481,4 -89 Y482,4 -89 Y483,4 -89 Y484,4 -89 Y485,4 -89 Y486,4 -89 Y487,4 -89 Y488,4 -89 Y489,4
  -89 Y490,4 -89 Y491,4 -89 Y492,4 -89 Y493,4 -89 Y494,4 -89 Y495,4 -89 Y496,4 -89 Y497,4 -89 Y498,4 -89 Y499,4
  -89 Y500,4 -89 Y501,4 -89 Y502,4 -89 Y503,4 -89 Y504,4 -89 Y505,4 -89 Y506,4 -89 Y507,4 -89 Y508,4 -89 Y509,4
  -89 Y510,4 -89 Y511,4 -89 Y512,4 -89 Y513,4 -89 Y514,4 -89 Y515,4 -89 Y516,4 -89 Y517,4 -89 Y518,4 -89 Y519,4
  -89 Y520,4 -89 Y521,4 -89 Y522,4 -89 Y523,4 -89 Y524,4 -89 Y525,4 -89 Y526,4 -89 Y527,4 -89 Y528,4 -89 Y529,4
  -89 Y530,4 -89 Y531,4 -89 Y532,4 -89 Y533,4 -89 Y534,4 -89 Y535,4 -89 Y536,4 -89 Y537,4 -89 Y538,4 -89 Y539,4
  -89 Y540,4 -52 Y541,4 -52 Y542,4 -52 Y543,4 -52 Y544,4 -52 Y545,4 -52 Y546,4 -52 Y547,4 -63 Y548,4 -63 Y549,4
  -63 Y550,4 -63 Y551,4 -63 Y552,4 -63 Y553,4 -63 Y554,4 -63 Y555,4 -63 Y556,4 -63 Y557,4 -63 Y558,4 -63 Y559,4
  -63 Y560,4 -63 Y561,4 -63 Y562,4 -63 Y563,4 -63 Y564,4 -63 Y565,4 -63 Y566,4 -63 Y567,4 -63 Y568,4 -63 Y569,4
  -63 Y570,4 -63 Y571,4 -63 Y572,4 -63 Y573,4 -63 Y574,4 -63 Y575,4 -63 Y576,4 -63 Y577,4 -63 Y578,4 -45 Y579,4
  -45 Y580,4 -45 Y581,4 -45 Y582,4 -45 Y583,4 -45 Y584,4 -45 Y585,4 -45 Y586,4 -45 Y587,4 -45 Y588,4 -45 Y589,4
  -45 Y590,4 -45 Y591,4 -45 Y592,4 -45 Y593,4 -45 Y594,4 -45 Y595,4 -45 Y596,4 -45 Y597,4 -45 Y598,4 -45 Y599,4
  -45 Y600,4 -45 Y601,4 -45 Y602,4 -45 Y603,4 -45 Y604,4 -45 Y605,4 -45 Y606,4 -45 Y607,4 -45 Y608,4 -45 Y609,4
  -45 Y610,4 -45 Y611,4 -45 Y612,4 -45 Y613,4 -45 Y614,4 -45 Y615,4 -45 Y616,4 -45 Y617,4 -45 Y618,4 -45 Y619,4
  -45 Y620,4 -45 Y621,4 -45 Y622,4 -45 Y623,4 -45 Y624,4 -45 Y625,4 -45 Y626,4 -45 Y627,4 -45 Y628,4 -45 Y629,4
  -45 Y630,4 -45 Y631,4 -45 Y632,4 -45 Y633,4 -45 Y634,4 -45 Y635,4 -45 Y636,4 -45 Y637,4 -45 Y638,4 -45 Y639,4
  -45 Y640,4 -45 Y641,4 -45 Y642,4 -45 Y643,4 -45 Y644,4 -45 Y645,4 -45 Y646,4 -45 Y647,4 -45 Y648,4 -45 Y649,4
  -45 Y650,4 -45 Y651,4 -45 Y652,4 -45 Y653,4 -45 Y654,4 -45 Y655,4 -45 Y656,4 -45 Y657,4 -45 Y658,4 -45 Y659,4
  -45 Y660,4 -45 Y661,4 -45 Y662,4 -45 Y663,4 -45 Y664,4 -45 Y665,4 -45 Y666,4 -45 Y667,4 -45 Y668,4 -45 Y669,4
  -45 Y670,4 -45 Y671,4 -45 Y672,4 -45 Y673,4 -45 Y674,4 -45 Y675,4 -45 Y676,4 -45 Y677,4 -45 Y678,4 -45 Y679,4
  -45 Y680,4 -45 Y681,4 -45 Y682,4 -45 Y683,4 -45 Y684,4 -45 Y685,4 -45 Y686,4 -45 Y687,4 -45 Y688,4 -45 Y689,4
  -45 Y690,4 -45 Y691,4 -45 Y692,4 -45 Y693,4 -45 Y694,4 -45 Y695,4 -45 Y696,4 -57 Y697,4 -57 Y698,4 -57 Y699,4
  -57 Y700,4 -57 Y701,4 -57 Y702,4 -57 Y703,4 -57 Y704,4 -57 Y705,4 -57 Y706,4 -57 Y707,4 -57 Y708,4 -57 Y709,4
  -57 Y710,4 -57 Y711,4 -53 Y712,4 -53 Y713,4 -53 Y714,4 -53 Y715,4 -53 Y716,4 -53 Y717,4 -53 Y718,4 -53 Y719,4
  -53 Y720,4 -53 Y721,4 -53 Y722,4 -53 Y723,4 -53 Y724,4 -53 Y725,4 -53 Y726,4 -75 Y727,4 -75 Y728,4 -75 Y729,4
  -75 Y730,4 -75 Y731,4 -75 Y732,4 -75 Y733,4 -75 Y734,4 -75 Y735,4 -75 Y736,4 -75 Y737,4 -75 Y738,4 -75 Y739,4
  -75 Y740,4 -75 Y741,4 -75 Y742,4 -75 Y743,4 -75 Y744,4 -75 Y745,4 -75 Y746,4 -75 Y747,4 -75 Y748,4 -75 Y749,4
  -75 Y750,4 -75 Y751,4 -75 Y752,4 -75 Y753,4 -75 Y754,4 -75 Y755,4 -75 Y756,4 -75 Y757,4 -55 Y758,4 -55 Y759,4
  -55 Y760,4 -55 Y761,4 -55 Y762,4 -55 Y763,4 -55 Y764,4 -55 Y765,4 -55 Y766,4 -55 Y767,4 -55 Y768,4 -55 Y769,4
  -55 Y770,4 -55 Y771,4 -55 Y772,4 -55 Y773,4 -55 Y774,4 -55 Y775,4 -55 Y776,4 -55 Y777,4 -55 Y778,4 -55 Y779,4
  -55 Y780,4 -55 Y781,4 -55 Y782,4 -55 Y783,4 -55 Y784,4 -55 Y785,4 -55 Y786,4 -55 Y787,4 -55 Y788,4 -55 Y789,4
  -55 Y790,4 -55 Y791,4 -55 Y792,4 -55 Y793,4 -55 Y794,4 -55 Y795,4 -55 Y796,4 -55 Y797,4 -55 Y798,4 -55 Y799,4
  -55 Y800,4 -55 Y801,4 -55 Y802,4 -55 Y803,4 -55 Y804,4 -55 Y805,4 -55 Y806,4 -55 Y807,4 -55 Y808,4 -55 Y809,4
  -55 Y810,4 -55 Y811,4 -55 Y812,4 -55 Y813,4 -55 Y814,4 -55 Y815,4 -55 Y816,4 -55 Y817,4 -55 Y818,4 -55 Y819,4
  -55 Y820,4 -55 Y821,4 -55 Y822,4 -55 Y823,4 -55 Y824,4 -55 Y825,4 -55 Y826,4 -55 Y827,4 -55 Y828,4 -55 Y829,4
  -55 Y830,4 -55 Y831,4 -55 Y832,4 -55 Y833,4 -55 Y834,4 -55 Y835,4 -55 Y836,4 -55 Y837,4 -55 Y838,4 -55 Y839,4
  -55 Y840,4 -55 Y841,4 -55 Y842,4 -55 Y843,4 -55 Y844,4 -55 Y845,4 -55 Y846,4 -55 Y847,4 -55 Y848,4 -55 Y849,4
  -55 Y850,4 -55 Y851,4 -55 Y852,4 -55 Y853,4 -55 Y854,4 -55 Y855,4 -55 Y856,4 -55 Y857,4 -55 Y858,4 -55 Y859,4
  -55 Y860,4 -55 Y861,4 -55 Y862,4 -55 Y863,4 -55 Y864,4 -55 Y865,4 -55 Y866,4 -55 Y867,4 -55 Y868,4 -55 Y869,4
  -55 Y870,4 -55 Y871,4 -55 Y872,4 -55 Y873,4 -55 Y874,4 -55 Y875,4 -55 Y876,4 -55 Y877,4 -55 Y878,4 -70 Y879,4
  -70 Y880,4 -70 Y881,4 -70 Y882,4 -70 Y883,4 -70 Y884,4 -70 Y885,4 -79 Y886,4 -79 Y887,4 -79 Y888,4 >= +0
 c3849: +1 Cmax -89 Y0,5 -89 Y1,5 -89 Y2,5 -89 Y3,5 -89 Y4,5 -89 Y5,5 -89 Y6,5 -89 Y7,5 -89 Y8,5 -89 Y9,5
  -89 Y10,5 -89 Y11,5 -89 Y12,5 -89 Y13,5 -89 Y14,5 -89 Y15,5 -89 Y16,5 -89 Y17,5 -89 Y18,5 -89 Y19,5
  -89 Y20,5 -89 Y21,5 -89 Y22,5 -89 Y23,5 -89 Y24,5 -89 Y25,5 -89 Y26,5 -89 Y27,5 -89 Y28,5 -89 Y29,5
  -89 Y30,5 -89 Y31,5 -89 Y32,5 -89 Y33,5 -89 Y34,5 -89 Y35,5 -89 Y36,5 -89 Y37,5 -89 Y38,5 -89 Y39,5
  -89 Y40,5 -89 Y41,5 -89 Y42,5 -89 Y43,5 -89 Y44,5 -89 Y45,5 -89 Y46,5 -89 Y47,5 -89 Y48,5 -89 Y49,5
  -89 Y50,5 -89 Y51,5 -89 Y52,5 -89 Y53,5 -89 Y54,5 -89 Y55,5 -89 Y56,5 -89 Y57,5 -89 Y58,5 -89 Y59,5
  -89 Y60,5 -89 Y61,5 -89 Y62,5 -89 Y63,5 -89 Y64,5 -89 Y65,5 -89 Y66,5 -89 Y67,5 -89 Y68,5 -89 Y69,5
  -89 Y70,5 -89 Y71,5 -89 Y72,5 -89 Y73,5 -89 Y74,5 -89 Y75,5 -89 Y76,5 -89 Y77,5 -89 Y78,5 -89 Y79,5
  -89 Y80,5 -89 Y81,5 -89 Y82,5 -89 Y83,5 -89 Y84,5 -89 Y85,5 -89 Y86,5 -89 Y87,5 -89 Y88,5 -89 Y89,5
  -89 Y90,5 -89 Y91,5 -89 Y92,5 -89 Y93,5 -89 Y94,5 -89 Y95,5 -89 Y96,5 -89 Y97,5 -89 Y98,5 -89 Y99,5
  -89 Y100,5 -89 Y101,5 -89 Y102,5 -89 Y103,5 -89 Y104,5 -89 Y105,5 -89 Y106,5 -89 Y107,5 -89 Y108,5 -89 Y109,5
  -89 Y110,5 -89 Y111,5 -89 Y112,5 -89 Y113,5 -89 Y114,5 -89 Y115,5 -89 Y116,5 -89 Y117,5 -89 Y118,5 -89 Y119,5
  -89 Y120,5 -89 Y121,5 -89 Y122,5 -89 Y123,5 -89 Y124,5 -89 Y125,5 -89 Y126,5 -89 Y127,5 -89 Y128,5 -89 Y129,5
  -89 Y130,5 -89 Y131,5 -89 Y132,5 -89 Y133,5 -89 Y134,5 -89 Y135,5 -89 Y136,5 -89 Y137,5 -89 Y138,5 -89 Y139,5
  -89 Y140,5 -89 Y141,5 -89 Y142,5 -89 Y143,5 -89 Y144,5 -89 Y145,5 -89 Y146,5 -89 Y147,5 -89 Y148,5 -89 Y149,5
  -89 Y150,5 -89 Y151,5 -89 Y152,5 -89 Y153,5 -89 Y154,5 -89 Y155,5 -89 Y156,5 -89 Y157,5 -89 Y158,5 -89 Y159,5
  -89 Y160,5 -89 Y161,5 -89 Y162,5 -89 Y163,5 -89 Y164,5 -89 Y165,5 -89 Y166,5 -89 Y167,5 -89 Y168,5 -89 Y169,5
  -89 Y170,5 -89 Y171,5 -89 Y172,5 -89 Y173,5 -89 Y174,5 -89 Y175,5 -89 Y176,5 -89 Y177,5 -89 Y178,5 -89 Y179,5
  -89 Y180,5 -89 Y181,5 -89 Y182,5 -89 Y183,5 -89 Y184,5 -89 Y185,5 -89 Y186,5 -89 Y187,5 -89 Y188,5 -89 Y189,5
  -89 Y190,5 -89 Y191,5 -89 Y192,5 -89 Y193,5 -89 Y194,5 -89 Y195,5 -89 Y196,5 -89 Y197,5 -89 Y198,5 -89 Y199,5
  -89 Y200,5 -89 Y201,5 -89 Y202,5 -89 Y203,5 -89 Y204,5 -89 Y205,5 -89 Y206,5 -89 Y207,5 -89 Y208,5 -89 Y209,5
  -89 Y210,5 -89 Y211,5 -89 Y212,5 -89 Y213,5 -89 Y214,5 -89 Y215,5 -89 Y216,5 -89 Y217,5 -89 Y218,5 -89 Y219,5
  -89 Y220,5 -89 Y221,5 -89 Y222,5 -89 Y223,5 -89 Y224,5 -89 Y225,5 -89 Y226,5 -89 Y227,5 -89 Y228,5 -89 Y229,5
  -89 Y230,5 -89 Y231,5 -89 Y232,5 -89 Y233,5 -89 Y234,5 -89 Y235,5 -89 Y236,5 -89 Y237,5 -89 Y238,5 -89 Y239,5
  -89 Y240,5 -89 Y241,5 -89 Y242,5 -89 Y243,5 -89 Y244,5 -89 Y245,5 -89 Y246,5 -89 Y247,5 -89 Y248,5 -89 Y249,5
  -89 Y250,5 -89 Y251,5 -89 Y252,5 -89 Y253,5 -89 Y254,5 -89 Y255,5 -89 Y256,5 -89 Y257,5 -89 Y258,5 -89 Y259,5
  -89 Y260,5 -89 Y261,5 -89 Y262,5 -89 Y263,5 -89 Y264,5 -89 Y265,5 -89 Y266,5 -89 Y267,5 -89 Y268,5 -89 Y269,5
  -89 Y270,5 -89 Y271,5 -89 Y272,5 -89 Y273,5 -89 Y274,5 -89 Y275,5 -89 Y276,5 -89 Y277,5 -89 Y278,5 -89 Y279,5
  -89 Y280,5 -89 Y281,5 -89 Y282,5 -89 Y283,5 -89 Y284,5 -89 Y285,5 -89 Y286,5 -89 Y287,5 -89 Y288,5 -89 Y289,5
  -89 Y290,5 -89 Y291,5 -89 Y292,5 -89 Y293,5 -89 Y294,5 -89 Y295,5 -89 Y296,5 -89 Y297,5 -89 Y298,5 -89 Y299,5
  -89 Y300,5 -89 Y301,5 -89 Y302,5 -89 Y303,5 -89 Y304,5 -89 Y305,5 -89 Y306,5 -89 Y307,5 -89 Y308,5 -89 Y309,5
  -89 Y310,5 -89 Y311,5 -89 Y312,5 -89 Y313,5 -89 Y314,5 -89 Y315,5 -89 Y316,5 -89 Y317,5 -89 Y318,5 -89 Y319,5
  -89 Y320,5 -89 Y321,5 -89 Y322,5 -89 Y323,5 -89 Y324,5 -89 Y325,5 -89 Y326,5 -89 Y327,5 -89 Y328,5 -89 Y329,5
  -89 Y330,5 -89 Y331,5 -89 Y332,5 -89 Y333,5 -89 Y334,5 -89 Y335,5 -89 Y336,5 -89 Y337,5 -89 Y338,5 -89 Y339,5
  -89 Y340,5 -89 Y341,5 -89 Y342,5 -89 Y343,5 -89 Y344,5 -89 Y345,5 -89 Y346,5 -89 Y347,5 -89 Y348,5 -89 Y349,5
  -89 Y350,5 -89 Y351,5 -89 Y352,5 -89 Y353,5 -89 Y354,5 -89 Y355,5 -89 Y356,5 -89 Y357,5 -89 Y358,5 -89 Y359,5
  -89 Y360,5 -89 Y361,5 -89 Y362,5 -89 Y363,5 -89 Y364,5 -89 Y365,5 -89 Y366,5 -89 Y367,5 -89 Y368,5 -89 Y369,5
  -89 Y370,5 -89 Y371,5 -89 Y372,5 -89 Y373,5 -89 Y374,5 -89 Y375,5 -89 Y376,5 -89 Y377,5 -89 Y378,5 -89 Y379,5
  -89 Y380,5 -89 Y381,5 -89 Y382,5 -89 Y383,5 -89 Y384,5 -89 Y385,5 -89 Y386,5 -89 Y387,5 -89 Y388,5 -89 Y389,5
  -89 Y390,5 -89 Y391,5 -89 Y392,5 -89 Y393,5 -89 Y394,5 -89 Y395,5 -89 Y396,5 -89 Y397,5 -89 Y398,5 -89 Y399,5
  -89 Y400,5 -89 Y401,5 -89 Y402,5 -89 Y403,5 -89 Y404,5 -89 Y405,5 -89 Y406,5 -89 Y407,5 -89 Y408,5 -89 Y409,5
  -89 Y410,5 -89 Y411,5 -89 Y412,5 -89 Y413,5 -89 Y414,5 -89 Y415,5 -89 Y416,5 -89 Y417,5 -89 Y418,5 -89 Y419,5
  -89 Y420,5 -89 Y421,5 -89 Y422,5 -89 Y423,5 -89 Y424,5 -89 Y425,5 -89 Y426,5 -89 Y427,5 -89 Y428,5 -89 Y429,5
  -89 Y430,5 -89 Y431,5 -89 Y432,5 -89 Y433,5 -89 Y434,5 -89 Y435,5 -89 Y436,5 -89 Y437,5 -89 Y438,5 -89 Y439,5
  -89 Y440,5 -89 Y441,5 -89 Y442,5 -89 Y443,5 -89 Y444,5 -89 Y445,5 -89 Y446,5 -89 Y447,5 -89 Y448,5 -89 Y449,5
  -89 Y450,5 -89 Y451,5 -89 Y452,5 -89 Y453,5 -89 Y454,5 -89 Y455,5 -89 Y456,5 -89 Y457,5 -89 Y458,5 -89 Y459,5
  -89 Y460,5 -89 Y461,5 -89 Y462,5 -89 Y463,5 -89 Y464,5 -89 Y465,5 -89 Y466,5 -89 Y467,5 -89 Y468,5 -89 Y469,5
  -89 Y470,5 -89 Y471,5 -89 Y472,5 -89 Y473,5 -89 Y474,5 -89 Y475,5 -89 Y476,5 -89 Y477,5 -89 Y478,5 -89 Y479,5
  -89 Y480,5 -89 Y481,5 -89 Y482,5 -89 Y483,5 -89 Y484,5 -89 Y485,5 -89 Y486,5 -89 Y487,5 -89 Y488,5 -89 Y489,5
  -89 Y490,5 -89 Y491,5 -89 Y492,5 -89 Y493,5 -89 Y494,5 -89 Y495,5 -89 Y496,5 -89 Y497,5 -89 Y498,5 -89 Y499,5
  -89 Y500,5 -89 Y501,5 -89 Y502,5 -89 Y503,5 -89 Y504,5 -89 Y505,5 -89 Y506,5 -89 Y507,5 -89 Y508,5 -89 Y509,5
  -89 Y510,5 -89 Y511,5 -89 Y512,5 -89 Y513,5 -89 Y514,5 -89 Y515,5 -89 Y516,5 -89 Y517,5 -89 Y518,5 -89 Y519,5
  -89 Y520,5 -89 Y521,5 -89 Y522,5 -89 Y523,5 -89 Y524,5 -89 Y525,5 -89 Y526,5 -89 Y527,5 -89 Y528,5 -89 Y529,5
  -89 Y530,5 -89 Y531,5 -89 Y532,5 -89 Y533,5 -89 Y534,5 -89 Y535,5 -89 Y536,5 -89 Y537,5 -89 Y538,5 -89 Y539,5
  -89 Y540,5 -52 Y541,5 -52 Y542,5 -52 Y543,5 -52 Y544,5 -52 Y545,5 -52 Y546,5 -52 Y547,5 -63 Y548,5 -63 Y549,5
  -63 Y550,5 -63 Y551,5 -63 Y552,5 -63 Y553,5 -63 Y554,5 -63 Y555,5 -63 Y556,5 -63 Y557,5 -63 Y558,5 -63 Y559,5
  -63 Y560,5 -63 Y561,5 -63 Y562,5 -63 Y563,5 -63 Y564,5 -63 Y565,5 -63 Y566,5 -63 Y567,5 -63 Y568,5 -63 Y569,5
  -63 Y570,5 -63 Y571,5 -63 Y572,5 -63 Y573,5 -63 Y574,5 -63 Y575,5 -63 Y576,5 -63 Y577,5 -63 Y578,5 -45 Y579,5
  -45 Y580,5 -45 Y581,5 -45 Y582,5 -45 Y583,5 -45 Y584,5 -45 Y585,5 -45 Y586,5 -45 Y587,5 -45 Y588,5 -45 Y589,5
  -45 Y590,5 -45 Y591,5 -45 Y592,5 -45 Y593,5 -45 Y594,5 -45 Y595,5 -45 Y596,5 -45 Y597,5 -45 Y598,5 -45 Y599,5
  -45 Y600,5 -45 Y601,5 -45 Y602,5 -45 Y603,5 -45 Y604,5 -45 Y605,5 -45 Y606,5 -45 Y607,5 -45 Y608,5 -45 Y609,5
  -45 Y610,5 -45 Y611,5 -45 Y612,5 -45 Y613,5 -45 Y614,5 -45 Y615,5 -45 Y616,5 -45 Y617,5 -45 Y618,5 -45 Y619,5
  -45 Y620,5 -45 Y621,5 -45 Y622,5 -45 Y623,5 -45 Y624,5 -45 Y625,5 -45 Y626,5 -45 Y627,5 -45 Y628,5 -45 Y629,5
  -45 Y630,5 -45 Y631,5 -45 Y632,5 -45 Y633,5 -45 Y634,5 -45 Y635,5 -45 Y636,5 -45 Y637,5 -45 Y638,5 -45 Y639,5
  -45 Y640,5 -45 Y641,5 -45 Y642,5 -45 Y643,5 -45 Y644,5 -45 Y645,5 -45 Y646,5 -45 Y647,5 -45 Y648,5 -45 Y649,5
  -45 Y650,5 -45 Y651,5 -45 Y652,5 -45 Y653,5 -45 Y654,5 -45 Y655,5 -45 Y656,5 -45 Y657,5 -45 Y658,5 -45 Y659,5
  -45 Y660,5 -45 Y661,5 -45 Y662,5 -45 Y663,5 -45 Y664,5 -45 Y665,5 -45 Y666,5 -45 Y667,5 -45 Y668,5 -45 Y669,5
  -45 Y670,5 -45 Y671,5 -45 Y672,5 -45 Y673,5 -45 Y674,5 -45 Y675,5 -45 Y676,5 -45 Y677,5 -45 Y678,5 -45 Y679,5
  -45 Y680,5 -45 Y681,5 -45 Y682,5 -45 Y683,5 -45 Y684,5 -45 Y685,5 -45 Y686,5 -45 Y687,5 -45 Y688,5 -45 Y689,5
  -45 Y690,5 -45 Y691,5 -45 Y692,5 -45 Y693,5 -45 Y694,5 -45 Y695,5 -45 Y696,5 -57 Y697,5 -57 Y698,5 -57 Y699,5
  -57 Y700,5 -57 Y701,5 -57 Y702,5 -57 Y703,5 -57 Y704,5 -57 Y705,5 -57 Y706,5 -57 Y707,5 -57 Y708,5 -57 Y709,5
  -57 Y710,5 -57 Y711,5 -53 Y712,5 -53 Y713,5 -53 Y714,5 -53 Y715,5 -53 Y716,5 -53 Y717,5 -53 Y718,5 -53 Y719,5
  -53 Y720,5 -53 Y721,5 -53 Y722,5 -53 Y723,5 -53 Y724,5 -53 Y725,5 -53 Y726,5 -75 Y727,5 -75 Y728,5 -75 Y729,5
  -75 Y730,5 -75 Y731,5 -75 Y732,5 -75 Y733,5 -75 Y734,5 -75 Y735,5 -75 Y736,5 -75 Y737,5 -75 Y738,5 -75 Y739,5
  -75 Y740,5 -75 Y741,5 -75 Y742,5 -75 Y743,5 -75 Y744,5 -75 Y745,5 -75 Y746,5 -75 Y747,5 -75 Y748,5 -75 Y749,5
  -75 Y750,5 -75 Y751,5 -75 Y752,5 -75 Y753,5 -75 Y754,5 -75 Y755,5 -75 Y756,5 -75 Y757,5 -55 Y758,5 -55 Y759,5
  -55 Y760,5 -55 Y761,5 -55 Y762,5 -55 Y763,5 -55 Y764,5 -55 Y765,5 -55 Y766,5 -55 Y767,5 -55 Y768,5 -55 Y769,5
  -55 Y770,5 -55 Y771,5 -55 Y772,5 -55 Y773,5 -55 Y774,5 -55 Y775,5 -55 Y776,5 -55 Y777,5 -55 Y778,5 -55 Y779,5
  -55 Y780,5 -55 Y781,5 -55 Y782,5 -55 Y783,5 -55 Y784,5 -55 Y785,5 -55 Y786,5 -55 Y787,5 -55 Y788,5 -55 Y789,5
  -55 Y790,5 -55 Y791,5 -55 Y792,5 -55 Y793,5 -55 Y794,5 -55 Y795,5 -55 Y796,5 -55 Y797,5 -55 Y798,5 -55 Y799,5
  -55 Y800,5 -55 Y801,5 -55 Y802,5 -55 Y803,5 -55 Y804,5 -55 Y805,5 -55 Y806,5 -55 Y807,5 -55 Y808,5 -55 Y809,5
  -55 Y810,5 -55 Y811,5 -55 Y812,5 -55 Y813,5 -55 Y814,5 -55 Y815,5 -55 Y816,5 -55 Y817,5 -55 Y818,5 -55 Y819,5
  -55 Y820,5 -55 Y821,5 -55 Y822,5 -55 Y823,5 -55 Y824,5 -55 Y825,5 -55 Y826,5 -55 Y827,5 -55 Y828,5 -55 Y829,5
  -55 Y830,5 -55 Y831,5 -55 Y832,5 -55 Y833,5 -55 Y834,5 -55 Y835,5 -55 Y836,5 -55 Y837,5 -55 Y838,5 -55 Y839,5
  -55 Y840,5 -55 Y841,5 -55 Y842,5 -55 Y843,5 -55 Y844,5 -55 Y845,5 -55 Y846,5 -55 Y847,5 -55 Y848,5 -55 Y849,5
  -55 Y850,5 -55 Y851,5 -55 Y852,5 -55 Y853,5 -55 Y854,5 -55 Y855,5 -55 Y856,5 -55 Y857,5 -55 Y858,5 -55 Y859,5
  -55 Y860,5 -55 Y861,5 -55 Y862,5 -55 Y863,5 -55 Y864,5 -55 Y865,5 -55 Y866,5 -55 Y867,5 -55 Y868,5 -55 Y869,5
  -55 Y870,5 -55 Y871,5 -55 Y872,5 -55 Y873,5 -55 Y874,5 -55 Y875,5 -55 Y876,5 -55 Y877,5 -55 Y878,5 -70 Y879,5
  -70 Y880,5 -70 Y881,5 -70 Y882,5 -70 Y883,5 -70 Y884,5 -70 Y885,5 -79 Y886,5 -79 Y887,5 -79 Y888,5 >= +0
 c3850: +1 Cmax -89 Y0,6 -89 Y1,6 -89 Y2,6 -89 Y3,6 -89 Y4,6 -89 Y5,6 -89 Y6,6 -89 Y7,6 -89 Y8,6 -89 Y9,6
  -89 Y10,6 -89 Y11,6 -89 Y12,6 -89 Y13,6 -89 Y14,6 -89 Y15,6 -89 Y16,6 -89 Y17,6 -89 Y18,6 -89 Y19,6
  -89 Y20,6 -89 Y21,6 -89 Y22,6 -89 Y23,6 -89 Y24,6 -89 Y25,6 -89 Y26,6 -89 Y27,6 -89 Y28,6 -89 Y29,6
  -89 Y30,6 -89 Y31,6 -89 Y32,6 -89 Y33,6 -89 Y34,6 -89 Y35,6 -89 Y36,6 -89 Y37,6 -89 Y38,6 -89 Y39,6
  -89 Y40,6 -89 Y41,6 -89 Y42,6 -89 Y43,6 -89 Y44,6 -89 Y45,6 -89 Y46,6 -89 Y47,6 -89 Y48,6 -89 Y49,6
  -89 Y50,6 -89 Y51,6 -89 Y52,6 -89 Y53,6 -89 Y54,6 -89 Y55,6 -89 Y56,6 -89 Y57,6 -89 Y58,6 -89 Y59,6
  -89 Y60,6 -89 Y61,6 -89 Y62,6 -89 Y63,6 -89 Y64,6 -89 Y65,6 -89 Y66,6 -89 Y67,6 -89 Y68,6 -89 Y69,6
  -89 Y70,6 -89 Y71,6 -89 Y72,6 -89 Y73,6 -89 Y74,6 -89 Y75,6 -89 Y76,6 -89 Y77,6 -89 Y78,6 -89 Y79,6
  -89 Y80,6 -89 Y81,6 -89 Y82,6 -89 Y83,6 -89 Y84,6 -89 Y85,6 -89 Y86,6 -89 Y87,6 -89 Y88,6 -89 Y89,6
  -89 Y90,6 -89 Y91,6 -89 Y92,6 -89 Y93,6 -89 Y94,6 -89 Y95,6 -89 Y96,6 -89 Y97,6 -89 Y98,6 -89 Y99,6
  -89 Y100,6 -89 Y101,6 -89 Y102,6 -89 Y103,6 -89 Y104,6 -89 Y105,6 -89 Y106,6 -89 Y107,6 -89 Y108,6 -89 Y109,6
  -89 Y110,6 -89 Y111,6 -89 Y112,6 -89 Y113,6 -89 Y114,6 -89 Y115,6 -89 Y116,6 -89 Y117,6 -89 Y118,6 -89 Y119,6
  -89 Y120,6 -89 Y121,6 -89 Y122,6 -89 Y123,6 -89 Y124,6 -89 Y125,6 -89 Y126,6 -89 Y127,6 -89 Y128,6 -89 Y129,6
  -89 Y130,6 -89 Y131,6 -89 Y132,6 -89 Y133,6 -89 Y134,6 -89 Y135,6 -89 Y136,6 -89 Y137,6 -89 Y138,6 -89 Y139,6
  -89 Y140,6 -89 Y141,6 -89 Y142,6 -89 Y143,6 -89 Y144,6 -89 Y145,6 -89 Y146,6 -89 Y147,6 -89 Y148,6 -89 Y149,6
  -89 Y150,6 -89 Y151,6 -89 Y152,6 -89 Y153,6 -89 Y154,6 -89 Y155,6 -89 Y156,6 -89 Y157,6 -89 Y158,6 -89 Y159,6
  -89 Y160,6 -89 Y161,6 -89 Y162,6 -89 Y163,6 -89 Y164,6 -89 Y165,6 -89 Y166,6 -89 Y167,6 -89 Y168,6 -89 Y169,6
  -89 Y170,6 -89 Y171,6 -89 Y172,6 -89 Y173,6 -89 Y174,6 -89 Y175,6 -89 Y176,6 -89 Y177,6 -89 Y178,6 -89 Y179,6
  -89 Y180,6 -89 Y181,6 -89 Y182,6 -89 Y183,6 -89 Y184,6 -89 Y185,6 -89 Y186,6 -89 Y187,6 -89 Y188,6 -89 Y189,6
  -89 Y190,6 -89 Y191,6 -89 Y192,6 -89 Y193,6 -89 Y194,6 -89 Y195,6 -89 Y196,6 -89 Y197,6 -89 Y198,6 -89 Y199,6
  -89 Y200,6 -89 Y201,6 -89 Y202,6 -89 Y203,6 -89 Y204,6 -89 Y205,6 -89 Y206,6 -89 Y207,6 -89 Y208,6 -89 Y209,6
  -89 Y210,6 -89 Y211,6 -89 Y212,6 -89 Y213,6 -89 Y214,6 -89 Y215,6 -89 Y216,6 -89 Y217,6 -89 Y218,6 -89 Y219,6
  -89 Y220,6 -89 Y221,6 -89 Y222,6 -89 Y223,6 -89 Y224,6 -89 Y225,6 -89 Y226,6 -89 Y227,6 -89 Y228,6 -89 Y229,6
  -89 Y230,6 -89 Y231,6 -89 Y232,6 -89 Y233,6 -89 Y234,6 -89 Y235,6 -89 Y236,6 -89 Y237,6 -89 Y238,6 -89 Y239,6
  -89 Y240,6 -89 Y241,6 -89 Y242,6 -89 Y243,6 -89 Y244,6 -89 Y245,6 -89 Y246,6 -89 Y247,6 -89 Y248,6 -89 Y249,6
  -89 Y250,6 -89 Y251,6 -89 Y252,6 -89 Y253,6 -89 Y254,6 -89 Y255,6 -89 Y256,6 -89 Y257,6 -89 Y258,6 -89 Y259,6
  -89 Y260,6 -89 Y261,6 -89 Y262,6 -89 Y263,6 -89 Y264,6 -89 Y265,6 -89 Y266,6 -89 Y267,6 -89 Y268,6 -89 Y269,6
  -89 Y270,6 -89 Y271,6 -89 Y272,6 -89 Y273,6 -89 Y274,6 -89 Y275,6 -89 Y276,6 -89 Y277,6 -89 Y278,6 -89 Y279,6
  -89 Y280,6 -89 Y281,6 -89 Y282,6 -89 Y283,6 -89 Y284,6 -89 Y285,6 -89 Y286,6 -89 Y287,6 -89 Y288,6 -89 Y289,6
  -89 Y290,6 -89 Y291,6 -89 Y292,6 -89 Y293,6 -89 Y294,6 -89 Y295,6 -89 Y296,6 -89 Y297,6 -89 Y298,6 -89 Y299,6
  -89 Y300,6 -89 Y301,6 -89 Y302,6 -89 Y303,6 -89 Y304,6 -89 Y305,6 -89 Y306,6 -89 Y307,6 -89 Y308,6 -89 Y309,6
  -89 Y310,6 -89 Y311,6 -89 Y312,6 -89 Y313,6 -89 Y314,6 -89 Y315,6 -89 Y316,6 -89 Y317,6 -89 Y318,6 -89 Y319,6
  -89 Y320,6 -89 Y321,6 -89 Y322,6 -89 Y323,6 -89 Y324,6 -89 Y325,6 -89 Y326,6 -89 Y327,6 -89 Y328,6 -89 Y329,6
  -89 Y330,6 -89 Y331,6 -89 Y332,6 -89 Y333,6 -89 Y334,6 -89 Y335,6 -89 Y336,6 -89 Y337,6 -89 Y338,6 -89 Y339,6
  -89 Y340,6 -89 Y341,6 -89 Y342,6 -89 Y343,6 -89 Y344,6 -89 Y345,6 -89 Y346,6 -89 Y347,6 -89 Y348,6 -89 Y349,6
  -89 Y350,6 -89 Y351,6 -89 Y352,6 -89 Y353,6 -89 Y354,6 -89 Y355,6 -89 Y356,6 -89 Y357,6 -89 Y358,6 -89 Y359,6
  -89 Y360,6 -89 Y361,6 -89 Y362,6 -89 Y363,6 -89 Y364,6 -89 Y365,6 -89 Y366,6 -89 Y367,6 -89 Y368,6 -89 Y369,6
  -89 Y370,6 -89 Y371,6 -89 Y372,6 -89 Y373,6 -89 Y374,6 -89 Y375,6 -89 Y376,6 -89 Y377,6 -89 Y378,6 -89 Y379,6
  -89 Y380,6 -89 Y381,6 -89 Y382,6 -89 Y383,6 -89 Y384,6 -89 Y385,6 -89 Y386,6 -89 Y387,6 -89 Y388,6 -89 Y389,6
  -89 Y390,6 -89 Y391,6 -89 Y392,6 -89 Y393,6 -89 Y394,6 -89 Y395,6 -89 Y396,6 -89 Y397,6 -89 Y398,6 -89 Y399,6
  -89 Y400,6 -89 Y401,6 -89 Y402,6 -89 Y403,6 -89 Y404,6 -89 Y405,6 -89 Y406,6 -89 Y407,6 -89 Y408,6 -89 Y409,6
  -89 Y410,6 -89 Y411,6 -89 Y412,6 -89 Y413,6 -89 Y414,6 -89 Y415,6 -89 Y416,6 -89 Y417,6 -89 Y418,6 -89 Y419,6
  -89 Y420,6 -89 Y421,6 -89 Y422,6 -89 Y423,6 -89 Y424,6 -89 Y425,6 -89 Y426,6 -89 Y427,6 -89 Y428,6 -89 Y429,6
  -89 Y430,6 -89 Y431,6 -89 Y432,6 -89 Y433,6 -89 Y434,6 -89 Y435,6 -89 Y436,6 -89 Y437,6 -89 Y438,6 -89 Y439,6
  -89 Y440,6 -89 Y441,6 -89 Y442,6 -89 Y443,6 -89 Y444,6 -89 Y445,6 -89 Y446,6 -89 Y447,6 -89 Y448,6 -89 Y449,6
  -89 Y450,6 -89 Y451,6 -89 Y452,6 -89 Y453,6 -89 Y454,6 -89 Y455,6 -89 Y456,6 -89 Y457,6 -89 Y458,6 -89 Y459,6
  -89 Y460,6 -89 Y461,6 -89 Y462,6 -89 Y463,6 -89 Y464,6 -89 Y465,6 -89 Y466,6 -89 Y467,6 -89 Y468,6 -89 Y469,6
  -89 Y470,6 -89 Y471,6 -89 Y472,6 -89 Y473,6 -89 Y474,6 -89 Y475,6 -89 Y476,6 -89 Y477,6 -89 Y478,6 -89 Y479,6
  -89 Y480,6 -89 Y481,6 -89 Y482,6 -89 Y483,6 -89 Y484,6 -89 Y485,6 -89 Y486,6 -89 Y487,6 -89 Y488,6 -89 Y489,6
  -89 Y490,6 -89 Y491,6 -89 Y492,6 -89 Y493,6 -89 Y494,6 -89 Y495,6 -89 Y496,6 -89 Y497,6 -89 Y498,6 -89 Y499,6
  -89 Y500,6 -89 Y501,6 -89 Y502,6 -89 Y503,6 -89 Y504,6 -89 Y505,6 -89 Y506,6 -89 Y507,6 -89 Y508,6 -89 Y509,6
  -89 Y510,6 -89 Y511,6 -89 Y512,6 -89 Y513,6 -89 Y514,6 -89 Y515,6 -89 Y516,6 -89 Y517,6 -89 Y518,6 -89 Y519,6
  -89 Y520,6 -89 Y521,6 -89 Y522,6 -89 Y523,6 -89 Y524,6 -89 Y525,6 -89 Y526,6 -89 Y527,6 -89 Y528,6 -89 Y529,6
  -89 Y530,6 -89 Y531,6 -89 Y532,6 -89 Y533,6 -89 Y534,6 -89 Y535,6 -89 Y536,6 -89 Y537,6 -89 Y538,6 -89 Y539,6
  -89 Y540,6 -52 Y541,6 -52 Y542,6 -52 Y543,6 -52 Y544,6 -52 Y545,6 -52 Y546,6 -52 Y547,6 -63 Y548,6 -63 Y549,6
  -63 Y550,6 -63 Y551,6 -63 Y552,6 -63 Y553,6 -63 Y554,6 -63 Y555,6 -63 Y556,6 -63 Y557,6 -63 Y558,6 -63 Y559,6
  -63 Y560,6 -63 Y561,6 -63 Y562,6 -63 Y563,6 -63 Y564,6 -63 Y565,6 -63 Y566,6 -63 Y567,6 -63 Y568,6 -63 Y569,6
  -63 Y570,6 -63 Y571,6 -63 Y572,6 -63 Y573,6 -63 Y574,6 -63 Y575,6 -63 Y576,6 -63 Y577,6 -63 Y578,6 -45 Y579,6
  -45 Y580,6 -45 Y581,6 -45 Y582,6 -45 Y583,6 -45 Y584,6 -45 Y585,6 -45 Y586,6 -45 Y587,6 -45 Y588,6 -45 Y589,6
  -45 Y590,6 -45 Y591,6 -45 Y592,6 -45 Y593,6 -45 Y594,6 -45 Y595,6 -45 Y596,6 -45 Y597,6 -45 Y598,6 -45 Y599,6
  -45 Y600,6 -45 Y601,6 -45 Y602,6 -45 Y603,6 -45 Y604,6 -45 Y605,6 -45 Y606,6 -45 Y607,6 -45 Y608,6 -45 Y609,6
  -45 Y610,6 -45 Y611,6 -45 Y612,6 -45 Y613,6 -45 Y614,6 -45 Y615,6 -45 Y616,6 -45 Y617,6 -45 Y618,6 -45 Y619,6
  -45 Y620,6 -45 Y621,6 -45 Y622,6 -45 Y623,6 -45 Y624,6 -45 Y625,6 -45 Y626,6 -45 Y627,6 -45 Y628,6 -45 Y629,6
  -45 Y630,6 -45 Y631,6 -45 Y632,6 -45 Y633,6 -45 Y634,6 -45 Y635,6 -45 Y636,6 -45 Y637,6 -45 Y638,6 -45 Y639,6
  -45 Y640,6 -45 Y641,6 -45 Y642,6 -45 Y643,6 -45 Y644,6 -45 Y645,6 -45 Y646,6 -45 Y647,6 -45 Y648,6 -45 Y649,6
  -45 Y650,6 -45 Y651,6 -45 Y652,6 -45 Y653,6 -45 Y654,6 -45 Y655,6 -45 Y656,6 -45 Y657,6 -45 Y658,6 -45 Y659,6
  -45 Y660,6 -45 Y661,6 -45 Y662,6 -45 Y663,6 -45 Y664,6 -45 Y665,6 -45 Y666,6 -45 Y667,6 -45 Y668,6 -45 Y669,6
  -45 Y670,6 -45 Y671,6 -45 Y672,6 -45 Y673,6 -45 Y674,6 -45 Y675,6 -45 Y676,6 -45 Y677,6 -45 Y678,6 -45 Y679,6
  -45 Y680,6 -45 Y681,6 -45 Y682,6 -45 Y683,6 -45 Y684,6 -45 Y685,6 -45 Y686,6 -45 Y687,6 -45 Y688,6 -45 Y689,6
  -45 Y690,6 -45 Y691,6 -45 Y692,6 -45 Y693,6 -45 Y694,6 -45 Y695,6 -45 Y696,6 -57 Y697,6 -57 Y698,6 -57 Y699,6
  -57 Y700,6 -57 Y701,6 -57 Y702,6 -57 Y703,6 -57 Y704,6 -57 Y705,6 -57 Y706,6 -57 Y707,6 -57 Y708,6 -57 Y709,6
  -57 Y710,6 -57 Y711,6 -53 Y712,6 -53 Y713,6 -53 Y714,6 -53 Y715,6 -53 Y716,6 -53 Y717,6 -53 Y718,6 -53 Y719,6
  -53 Y720,6 -53 Y721,6 -53 Y722,6 -53 Y723,6 -53 Y724,6 -53 Y725,6 -53 Y726,6 -75 Y727,6 -75 Y728,6 -75 Y729,6
  -75 Y730,6 -75 Y731,6 -75 Y732,6 -75 Y733,6 -75 Y734,6 -75 Y735,6 -75 Y736,6 -75 Y737,6 -75 Y738,6 -75 Y739,6
  -75 Y740,6 -75 Y741,6 -75 Y742,6 -75 Y743,6 -75 Y744,6 -75 Y745,6 -75 Y746,6 -75 Y747,6 -75 Y748,6 -75 Y749,6
  -75 Y750,6 -75 Y751,6 -75 Y752,6 -75 Y753,6 -75 Y754,6 -75 Y755,6 -75 Y756,6 -75 Y757,6 -55 Y758,6 -55 Y759,6
  -55 Y760,6 -55 Y761,6 -55 Y762,6 -55 Y763,6 -55 Y764,6 -55 Y765,6 -55 Y766,6 -55 Y767,6 -55 Y768,6 -55 Y769,6
  -55 Y770,6 -55 Y771,6 -55 Y772,6 -55 Y773,6 -55 Y774,6 -55 Y775,6 -55 Y776,6 -55 Y777,6 -55 Y778,6 -55 Y779,6
  -55 Y780,6 -55 Y781,6 -55 Y782,6 -55 Y783,6 -55 Y784,6 -55 Y785,6 -55 Y786,6 -55 Y787,6 -55 Y788,6 -55 Y789,6
  -55 Y790,6 -55 Y791,6 -55 Y792,6 -55 Y793,6 -55 Y794,6 -55 Y795,6 -55 Y796,6 -55 Y797,6 -55 Y798,6 -55 Y799,6
  -55 Y800,6 -55 Y801,6 -55 Y802,6 -55 Y803,6 -55 Y804,6 -55 Y805,6 -55 Y806,6 -55 Y807,6 -55 Y808,6 -55 Y809,6
  -55 Y810,6 -55 Y811,6 -55 Y812,6 -55 Y813,6 -55 Y814,6 -55 Y815,6 -55 Y816,6 -55 Y817,6 -55 Y818,6 -55 Y819,6
  -55 Y820,6 -55 Y821,6 -55 Y822,6 -55 Y823,6 -55 Y824,6 -55 Y825,6 -55 Y826,6 -55 Y827,6 -55 Y828,6 -55 Y829,6
  -55 Y830,6 -55 Y831,6 -55 Y832,6 -55 Y833,6 -55 Y834,6 -55 Y835,6 -55 Y836,6 -55 Y837,6 -55 Y838,6 -55 Y839,6
  -55 Y840,6 -55 Y841,6 -55 Y842,6 -55 Y843,6 -55 Y844,6 -55 Y845,6 -55 Y846,6 -55 Y847,6 -55 Y848,6 -55 Y849,6
  -55 Y850,6 -55 Y851,6 -55 Y852,6 -55 Y853,6 -55 Y854,6 -55 Y855,6 -55 Y856,6 -55 Y857,6 -55 Y858,6 -55 Y859,6
  -55 Y860,6 -55 Y861,6 -55 Y862,6 -55 Y863,6 -55 Y864,6 -55 Y865,6 -55 Y866,6 -55 Y867,6 -55 Y868,6 -55 Y869,6
  -55 Y870,6 -55 Y871,6 -55 Y872,6 -55 Y873,6 -55 Y874,6 -55 Y875,6 -55 Y876,6 -55 Y877,6 -55 Y878,6 -70 Y879,6
  -70 Y880,6 -70 Y881,6 -70 Y882,6 -70 Y883,6 -70 Y884,6 -70 Y885,6 -79 Y886,6 -79 Y887,6 -79 Y888,6 >= +0
 c3851: +20.9 Y0,0 <= +70
 c3852: +20.9 Y0,1 <= +70
 c3853: +20.9 Y0,2 <= +60
 c3854: +20.9 Y0,3 <= +50
 c3855: +20.9 Y0,4 <= +40
 c3856: +20.9 Y0,5 <= +70
 c3857: +20.9 Y0,6 <= +80
 c3858: +21 Y1,0 <= +70
 c3859: +21 Y1,1 <= +70
 c3860: +21 Y1,2 <= +60
 c3861: +21 Y1,3 <= +50
 c3862: +21 Y1,4 <= +40
 c3863: +21 Y1,5 <= +70
 c3864: +21 Y1,6 <= +80
 c3865: +23.2 Y2,0 <= +70
 c3866: +23.2 Y2,1 <= +70
 c3867: +23.2 Y2,2 <= +60
 c3868: +23.2 Y2,3 <= +50
 c3869: +23.2 Y2,4 <= +40
 c3870: +23.2 Y2,5 <= +70
 c3871: +23.2 Y2,6 <= +80
 c3872: +24.2 Y3,0 <= +70
 c3873: +24.2 Y3,1 <= +70
 c3874: +24.2 Y3,2 <= +60
 c3875: +24.2 Y3,3 <= +50
 c3876: +24.2 Y3,4 <= +40
 c3877: +24.2 Y3,5 <= +70
 c3878: +24.2 Y3,6 <= +80
 c3879: +10.6 Y4,0 <= +70
 c3880: +10.6 Y4,1 <= +70
 c3881: +10.6 Y4,2 <= +60
 c3882: +10.6 Y4,3 <= +50
 c3883: +10.6 Y4,4 <= +40
 c3884: +10.6 Y4,5 <= +70
 c3885: +10.6 Y4,6 <= +80
 c3886: +23.9 Y5,0 <= +70
 c3887: +23.9 Y5,1 <= +70
 c3888: +23.9 Y5,2 <= +60
 c3889: +23.9 Y5,3 <= +50
 c3890: +23.9 Y5,4 <= +40
 c3891: +23.9 Y5,5 <= +70
 c3892: +23.9 Y5,6 <= +80
 c3893: +5.3 Y6,0 <= +70
 c3894: +5.3 Y6,1 <= +70
 c3895: +5.3 Y6,2 <= +60
 c3896: +5.3 Y6,3 <= +50
 c3897: +5.3 Y6,4 <= +40
 c3898: +5.3 Y6,5 <= +70
 c3899: +5.3 Y6,6 <= +80
 c3900: +10.1 Y7,0 <= +70
 c3901: +10.1 Y7,1 <= +70
 c3902: +10.1 Y7,2 <= +60
 c3903: +10.1 Y7,3 <= +50
 c3904: +10.1 Y7,4 <= +40
 c3905: +10.1 Y7,5 <= +70
 c3906: +10.1 Y7,6 <= +80
 c3907: +8.1 Y8,0 <= +70
 c3908: +8.1 Y8,1 <= +70
 c3909: +8.1 Y8,2 <= +60
 c3910: +8.1 Y8,3 <= +50
 c3911: +8.1 Y8,4 <= +40
 c3912: +8.1 Y8,5 <= +70
 c3913: +8.1 Y8,6 <= +80
 c3914: +9.1 Y9,0 <= +70
 c3915: +9.1 Y9,1 <= +70
 c3916: +9.1 Y9,2 <= +60
 c3917: +9.1 Y9,3 <= +50
 c3918: +9.1 Y9,4 <= +40
 c3919: +9.1 Y9,5 <= +70
 c3920: +9.1 Y9,6 <= +80
 c3921: +41.9 Y10,0 <= +70
 c3922: +41.9 Y10,1 <= +70
 c3923: +41.9 Y10,2 <= +60
 c3924: +41.9 Y10,3 <= +50
 c3925: +41.9 Y10,4 <= +40
 c3926: +41.9 Y10,5 <= +70
 c3927: +41.9 Y10,6 <= +80
 c3928: +44.1 Y11,0 <= +70
 c3929: +44.1 Y11,1 <= +70
 c3930: +44.1 Y11,2 <= +60
 c3931: +44.1 Y11,3 <= +50
 c3932: +44.1 Y11,4 <= +40
 c3933: +44.1 Y11,5 <= +70
 c3934: +44.1 Y11,6 <= +80
 c3935: +45.1 Y12,0 <= +70
 c3936: +45.1 Y12,1 <= +70
 c3937: +45.1 Y12,2 <= +60
 c3938: +45.1 Y12,3 <= +50
 c3939: +45.1 Y12,4 <= +40
 c3940: +45.1 Y12,5 <= +70
 c3941: +45.1 Y12,6 <= +80
 c3942: +31.5 Y13,0 <= +70
 c3943: +31.5 Y13,1 <= +70
 c3944: +31.5 Y13,2 <= +60
 c3945: +31.5 Y13,3 <= +50
 c3946: +31.5 Y13,4 <= +40
 c3947: +31.5 Y13,5 <= +70
 c3948: +31.5 Y13,6 <= +80
 c3949: +44.8 Y14,0 <= +70
 c3950: +44.8 Y14,1 <= +70
 c3951: +44.8 Y14,2 <= +60
 c3952: +44.8 Y14,3 <= +50
 c3953: +44.8 Y14,4 <= +40
 c3954: +44.8 Y14,5 <= +70
 c3955: +44.8 Y14,6 <= +80
 c3956: +26.2 Y15,0 <= +70
 c3957: +26.2 Y15,1 <= +70
 c3958: +26.2 Y15,2 <= +60
 c3959: +26.2 Y15,3 <= +50
 c3960: +26.2 Y15,4 <= +40
 c3961: +26.2 Y15,5 <= +70
 c3962: +26.2 Y15,6 <= +80
 c3963: +31 Y16,0 <= +70
 c3964: +31 Y16,1 <= +70
 c3965: +31 Y16,2 <= +60
 c3966: +31 Y16,3 <= +50
 c3967: +31 Y16,4 <= +40
 c3968: +31 Y16,5 <= +70
 c3969: +31 Y16,6 <= +80
 c3970: +29 Y17,0 <= +70
 c3971: +29 Y17,1 <= +70
 c3972: +29 Y17,2 <= +60
 c3973: +29 Y17,3 <= +50
 c3974: +29 Y17,4 <= +40
 c3975: +29 Y17,5 <= +70
 c3976: +29 Y17,6 <= +80
 c3977: +30 Y18,0 <= +70
 c3978: +30 Y18,1 <= +70
 c3979: +30 Y18,2 <= +60
 c3980: +30 Y18,3 <= +50
 c3981: +30 Y18,4 <= +40
 c3982: +30 Y18,5 <= +70
 c3983: +30 Y18,6 <= +80
 c3984: +44.2 Y19,0 <= +70
 c3985: +44.2 Y19,1 <= +70
 c3986: +44.2 Y19,2 <= +60
 c3987: +44.2 Y19,3 <= +50
 c3988: +44.2 Y19,4 <= +40
 c3989: +44.2 Y19,5 <= +70
 c3990: +44.2 Y19,6 <= +80
 c3991: +45.2 Y20,0 <= +70
 c3992: +45.2 Y20,1 <= +70
 c3993: +45.2 Y20,2 <= +60
 c3994: +45.2 Y20,3 <= +50
 c3995: +45.2 Y20,4 <= +40
 c3996: +45.2 Y20,5 <= +70
 c3997: +45.2 Y20,6 <= +80
 c3998: +31.6 Y21,0 <= +70
 c3999: +31.6 Y21,1 <= +70
 c4000: +31.6 Y21,2 <= +60
 c4001: +31.6 Y21,3 <= +50
 c4002: +31.6 Y21,4 <= +40
 c4003: +31.6 Y21,5 <= +70
 c4004: +31.6 Y21,6 <= +80
 c4005: +44.9 Y22,0 <= +70
 c4006: +44.9 Y22,1 <= +70
 c4007: +44.9 Y22,2 <= +60
 c4008: +44.9 Y22,3 <= +50
 c4009: +44.9 Y22,4 <= +40
 c4010: +44.9 Y22,5 <= +70
 c4011: +44.9 Y22,6 <= +80
 c4012: +26.3 Y23,0 <= +70
 c4013: +26.3 Y23,1 <= +70
 c4014: +26.3 Y23,2 <= +60
 c4015: +26.3 Y23,3 <= +50
 c4016: +26.3 Y23,4 <= +40
 c4017: +26.3 Y23,5 <= +70
 c4018: +26.3 Y23,6 <= +80
 c4019: +31.1 Y24,0 <= +70
 c4020: +31.1 Y24,1 <= +70
 c4021: +31.1 Y24,2 <= +60
 c4022: +31.1 Y24,3 <= +50
 c4023: +31.1 Y24,4 <= +40
 c4024: +31.1 Y24,5 <= +70
 c4025: +31.1 Y24,6 <= +80
 c4026: +29.1 Y25,0 <= +70
 c4027: +29.1 Y25,1 <= +70
 c4028: +29.1 Y25,2 <= +60
 c4029: +29.1 Y25,3 <= +50
 c4030: +29.1 Y25,4 <= +40
 c4031: +29.1 Y25,5 <= +70
 c4032: +29.1 Y25,6 <= +80
 c4033: +30.1 Y26,0 <= +70
 c4034: +30.1 Y26,1 <= +70
 c4035: +30.1 Y26,2 <= +60
 c4036: +30.1 Y26,3 <= +50
 c4037: +30.1 Y26,4 <= +40
 c4038: +30.1 Y26,5 <= +70
 c4039: +30.1 Y26,6 <= +80
 c4040: +47.4 Y27,0 <= +70
 c4041: +47.4 Y27,1 <= +70
 c4042: +47.4 Y27,2 <= +60
 c4043: +47.4 Y27,3 <= +50
 c4044: +47.4 Y27,4 <= +40
 c4045: +47.4 Y27,5 <= +70
 c4046: +47.4 Y27,6 <= +80
 c4047: +33.8 Y28,0 <= +70
 c4048: +33.8 Y28,1 <= +70
 c4049: +33.8 Y28,2 <= +60
 c4050: +33.8 Y28,3 <= +50
 c4051: +33.8 Y28,4 <= +40
 c4052: +33.8 Y28,5 <= +70
 c4053: +33.8 Y28,6 <= +80
 c4054: +47.1 Y29,0 <= +70
 c4055: +47.1 Y29,1 <= +70
 c4056: +47.1 Y29,2 <= +60
 c4057: +47.1 Y29,3 <= +50
 c4058: +47.1 Y29,4 <= +40
 c4059: +47.1 Y29,5 <= +70
 c4060: +47.1 Y29,6 <= +80
 c4061: +28.5 Y30,0 <= +70
 c4062: +28.5 Y30,1 <= +70
 c4063: +28.5 Y30,2 <= +60
 c4064: +28.5 Y30,3 <= +50
 c4065: +28.5 Y30,4 <= +40
 c4066: +28.5 Y30,5 <= +70
 c4067: +28.5 Y30,6 <= +80
 c4068: +33.3 Y31,0 <= +70
 c4069: +33.3 Y31,1 <= +70
 c4070: +33.3 Y31,2 <= +60
 c4071: +33.3 Y31,3 <= +50
 c4072: +33.3 Y31,4 <= +40
 c4073: +33.3 Y31,5 <= +70
 c4074: +33.3 Y31,6 <= +80
 c4075: +31.3 Y32,0 <= +70
 c4076: +31.3 Y32,1 <= +70
 c4077: +31.3 Y32,2 <= +60
 c4078: +31.3 Y32,3 <= +50
 c4079: +31.3 Y32,4 <= +40
 c4080: +31.3 Y32,5 <= +70
 c4081: +31.3 Y32,6 <= +80
 c4082: +32.3 Y33,0 <= +70
 c4083: +32.3 Y33,1 <= +70
 c4084: +32.3 Y33,2 <= +60
 c4085: +32.3 Y33,3 <= +50
 c4086: +32.3 Y33,4 <= +40
 c4087: +32.3 Y33,5 <= +70
 c4088: +32.3 Y33,6 <= +80
 c4089: +34.8 Y34,0 <= +70
 c4090: +34.8 Y34,1 <= +70
 c4091: +34.8 Y34,2 <= +60
 c4092: +34.8 Y34,3 <= +50
 c4093: +34.8 Y34,4 <= +40
 c4094: +34.8 Y34,5 <= +70
 c4095: +34.8 Y34,6 <= +80
 c4096: +48.1 Y35,0 <= +70
 c4097: +48.1 Y35,1 <= +70
 c4098: +48.1 Y35,2 <= +60
 c4099: +48.1 Y35,3 <= +50
 c4100: +48.1 Y35,4 <= +40
 c4101: +48.1 Y35,5 <= +70
 c4102: +48.1 Y35,6 <= +80
 c4103: +29.5 Y36,0 <= +70
 c4104: +29.5 Y36,1 <= +70
 c4105: +29.5 Y36,2 <= +60
 c4106: +29.5 Y36,3 <= +50
 c4107: +29.5 Y36,4 <= +40
 c4108: +29.5 Y36,5 <= +70
 c4109: +29.5 Y36,6 <= +80
 c4110: +34.3 Y37,0 <= +70
 c4111: +34.3 Y37,1 <= +70
 c4112: +34.3 Y37,2 <= +60
 c4113: +34.3 Y37,3 <= +50
 c4114: +34.3 Y37,4 <= +40
 c4115: +34.3 Y37,5 <= +70
 c4116: +34.3 Y37,6 <= +80
 c4117: +32.3 Y38,0 <= +70
 c4118: +32.3 Y38,1 <= +70
 c4119: +32.3 Y38,2 <= +60
 c4120: +32.3 Y38,3 <= +50
 c4121: +32.3 Y38,4 <= +40
 c4122: +32.3 Y38,5 <= +70
 c4123: +32.3 Y38,6 <= +80
 c4124: +33.3 Y39,0 <= +70
 c4125: +33.3 Y39,1 <= +70
 c4126: +33.3 Y39,2 <= +60
 c4127: +33.3 Y39,3 <= +50
 c4128: +33.3 Y39,4 <= +40
 c4129: +33.3 Y39,5 <= +70
 c4130: +33.3 Y39,6 <= +80
 c4131: +34.5 Y40,0 <= +70
 c4132: +34.5 Y40,1 <= +70
 c4133: +34.5 Y40,2 <= +60
 c4134: +34.5 Y40,3 <= +50
 c4135: +34.5 Y40,4 <= +40
 c4136: +34.5 Y40,5 <= +70
 c4137: +34.5 Y40,6 <= +80
 c4138: +15.9 Y41,0 <= +70
 c4139: +15.9 Y41,1 <= +70
 c4140: +15.9 Y41,2 <= +60
 c4141: +15.9 Y41,3 <= +50
 c4142: +15.9 Y41,4 <= +40
 c4143: +15.9 Y41,5 <= +70
 c4144: +15.9 Y41,6 <= +80
 c4145: +20.7 Y42,0 <= +70
 c4146: +20.7 Y42,1 <= +70
 c4147: +20.7 Y42,2 <= +60
 c4148: +20.7 Y42,3 <= +50
 c4149: +20.7 Y42,4 <= +40
 c4150: +20.7 Y42,5 <= +70
 c4151: +20.7 Y42,6 <= +80
 c4152: +18.7 Y43,0 <= +70
 c4153: +18.7 Y43,1 <= +70
 c4154: +18.7 Y43,2 <= +60
 c4155: +18.7 Y43,3 <= +50
 c4156: +18.7 Y43,4 <= +40
 c4157: +18.7 Y43,5 <= +70
 c4158: +18.7 Y43,6 <= +80
 c4159: +19.7 Y44,0 <= +70
 c4160: +19.7 Y44,1 <= +70
 c4161: +19.7 Y44,2 <= +60
 c4162: +19.7 Y44,3 <= +50
 c4163: +19.7 Y44,4 <= +40
 c4164: +19.7 Y44,5 <= +70
 c4165: +19.7 Y44,6 <= +80
 c4166: +29.2 Y45,0 <= +70
 c4167: +29.2 Y45,1 <= +70
 c4168: +29.2 Y45,2 <= +60
 c4169: +29.2 Y45,3 <= +50
 c4170: +29.2 Y45,4 <= +40
 c4171: +29.2 Y45,5 <= +70
 c4172: +29.2 Y45,6 <= +80
 c4173: +34 Y46,0 <= +70
 c4174: +34 Y46,1 <= +70
 c4175: +34 Y46,2 <= +60
 c4176: +34 Y46,3 <= +50
 c4177: +34 Y46,4 <= +40
 c4178: +34 Y46,5 <= +70
 c4179: +34 Y46,6 <= +80
 c4180: +32 Y47,0 <= +70
 c4181: +32 Y47,1 <= +70
 c4182: +32 Y47,2 <= +60
 c4183: +32 Y47,3 <= +50
 c4184: +32 Y47,4 <= +40
 c4185: +32 Y47,5 <= +70
 c4186: +32 Y47,6 <= +80
 c4187: +33 Y48,0 <= +70
 c4188: +33 Y48,1 <= +70
 c4189: +33 Y48,2 <= +60
 c4190: +33 Y48,3 <= +50
 c4191: +33 Y48,4 <= +40
 c4192: +33 Y48,5 <= +70
 c4193: +33 Y48,6 <= +80
 c4194: +15.4 Y49,0 <= +70
 c4195: +15.4 Y49,1 <= +70
 c4196: +15.4 Y49,2 <= +60
 c4197: +15.4 Y49,3 <= +50
 c4198: +15.4 Y49,4 <= +40
 c4199: +15.4 Y49,5 <= +70
 c4200: +15.4 Y49,6 <= +80
 c4201: +13.4 Y50,0 <= +70
 c4202: +13.4 Y50,1 <= +70
 c4203: +13.4 Y50,2 <= +60
 c4204: +13.4 Y50,3 <= +50
 c4205: +13.4 Y50,4 <= +40
 c4206: +13.4 Y50,5 <= +70
 c4207: +13.4 Y50,6 <= +80
 c4208: +14.4 Y51,0 <= +70
 c4209: +14.4 Y51,1 <= +70
 c4210: +14.4 Y51,2 <= +60
 c4211: +14.4 Y51,3 <= +50
 c4212: +14.4 Y51,4 <= +40
 c4213: +14.4 Y51,5 <= +70
 c4214: +14.4 Y51,6 <= +80
 c4215: +18.2 Y52,0 <= +70
 c4216: +18.2 Y52,1 <= +70
 c4217: +18.2 Y52,2 <= +60
 c4218: +18.2 Y52,3 <= +50
 c4219: +18.2 Y52,4 <= +40
 c4220: +18.2 Y52,5 <= +70
 c4221: +18.2 Y52,6 <= +80
 c4222: +19.2 Y53,0 <= +70
 c4223: +19.2 Y53,1 <= +70
 c4224: +19.2 Y53,2 <= +60
 c4225: +19.2 Y53,3 <= +50
 c4226: +19.2 Y53,4 <= +40
 c4227: +19.2 Y53,5 <= +70
 c4228: +19.2 Y53,6 <= +80
 c4229: +17.2 Y54,0 <= +70
 c4230: +17.2 Y54,1 <= +70
 c4231: +17.2 Y54,2 <= +60
 c4232: +17.2 Y54,3 <= +50
 c4233: +17.2 Y54,4 <= +40
 c4234: +17.2 Y54,5 <= +70
 c4235: +17.2 Y54,6 <= +80
 c4236: +65.1 Y55,0 <= +70
 c4237: +65.1 Y55,1 <= +70
 c4238: +65.1 Y55,2 <= +60
 c4239: +65.1 Y55,3 <= +50
 c4240: +65.1 Y55,4 <= +40
 c4241: +65.1 Y55,5 <= +70
 c4242: +65.1 Y55,6 <= +80
 c4243: +66.1 Y56,0 <= +70
 c4244: +66.1 Y56,1 <= +70
 c4245: +66.1 Y56,2 <= +60
 c4246: +66.1 Y56,3 <= +50
 c4247: +66.1 Y56,4 <= +40
 c4248: +66.1 Y56,5 <= +70
 c4249: +66.1 Y56,6 <= +80
 c4250: +52.5 Y57,0 <= +70
 c4251: +52.5 Y57,1 <= +70
 c4252: +52.5 Y57,2 <= +60
 c4253: +52.5 Y57,3 <= +50
 c4254: +52.5 Y57,4 <= +40
 c4255: +52.5 Y57,5 <= +70
 c4256: +52.5 Y57,6 <= +80
 c4257: +65.8 Y58,0 <= +70
 c4258: +65.8 Y58,1 <= +70
 c4259: +65.8 Y58,2 <= +60
 c4260: +65.8 Y58,3 <= +50
 c4261: +65.8 Y58,4 <= +40
 c4262: +65.8 Y58,5 <= +70
 c4263: +65.8 Y58,6 <= +80
 c4264: +47.2 Y59,0 <= +70
 c4265: +47.2 Y59,1 <= +70
 c4266: +47.2 Y59,2 <= +60
 c4267: +47.2 Y59,3 <= +50
 c4268: +47.2 Y59,4 <= +40
 c4269: +47.2 Y59,5 <= +70
 c4270: +47.2 Y59,6 <= +80
 c4271: +52 Y60,0 <= +70
 c4272: +52 Y60,1 <= +70
 c4273: +52 Y60,2 <= +60
 c4274: +52 Y60,3 <= +50
 c4275: +52 Y60,4 <= +40
 c4276: +52 Y60,5 <= +70
 c4277: +52 Y60,6 <= +80
 c4278: +50 Y61,0 <= +70
 c4279: +50 Y61,1 <= +70
 c4280: +50 Y61,2 <= +60
 c4281: +50 Y61,3 <= +50
 c4282: +50 Y61,4 <= +40
 c4283: +50 Y61,5 <= +70
 c4284: +50 Y61,6 <= +80
 c4285: +51 Y62,0 <= +70
 c4286: +51 Y62,1 <= +70
 c4287: +51 Y62,2 <= +60
 c4288: +51 Y62,3 <= +50
 c4289: +51 Y62,4 <= +40
 c4290: +51 Y62,5 <= +70
 c4291: +51 Y62,6 <= +80
 c4292: +68.3 Y63,0 <= +70
 c4293: +68.3 Y63,1 <= +70
 c4294: +68.3 Y63,2 <= +60
 c4295: +68.3 Y63,3 <= +50
 c4296: +68.3 Y63,4 <= +40
 c4297: +68.3 Y63,5 <= +70
 c4298: +68.3 Y63,6 <= +80
 c4299: +54.7 Y64,0 <= +70
 c4300: +54.7 Y64,1 <= +70
 c4301: +54.7 Y64,2 <= +60
 c4302: +54.7 Y64,3 <= +50
 c4303: +54.7 Y64,4 <= +40
 c4304: +54.7 Y64,5 <= +70
 c4305: +54.7 Y64,6 <= +80
 c4306: +68 Y65,0 <= +70
 c4307: +68 Y65,1 <= +70
 c4308: +68 Y65,2 <= +60
 c4309: +68 Y65,3 <= +50
 c4310: +68 Y65,4 <= +40
 c4311: +68 Y65,5 <= +70
 c4312: +68 Y65,6 <= +80
 c4313: +49.4 Y66,0 <= +70
 c4314: +49.4 Y66,1 <= +70
 c4315: +49.4 Y66,2 <= +60
 c4316: +49.4 Y66,3 <= +50
 c4317: +49.4 Y66,4 <= +40
 c4318: +49.4 Y66,5 <= +70
 c4319: +49.4 Y66,6 <= +80
 c4320: +54.2 Y67,0 <= +70
 c4321: +54.2 Y67,1 <= +70
 c4322: +54.2 Y67,2 <= +60
 c4323: +54.2 Y67,3 <= +50
 c4324: +54.2 Y67,4 <= +40
 c4325: +54.2 Y67,5 <= +70
 c4326: +54.2 Y67,6 <= +80
 c4327: +52.2 Y68,0 <= +70
 c4328: +52.2 Y68,1 <= +70
 c4329: +52.2 Y68,2 <= +60
 c4330: +52.2 Y68,3 <= +50
 c4331: +52.2 Y68,4 <= +40
 c4332: +52.2 Y68,5 <= +70
 c4333: +52.2 Y68,6 <= +80
 c4334: +53.2 Y69,0 <= +70
 c4335: +53.2 Y69,1 <= +70
 c4336: +53.2 Y69,2 <= +60
 c4337: +53.2 Y69,3 <= +50
 c4338: +53.2 Y69,4 <= +40
 c4339: +53.2 Y69,5 <= +70
 c4340: +53.2 Y69,6 <= +80
 c4341: +55.7 Y70,0 <= +70
 c4342: +55.7 Y70,1 <= +70
 c4343: +55.7 Y70,2 <= +60
 c4344: +55.7 Y70,3 <= +50
 c4345: +55.7 Y70,4 <= +40
 c4346: +55.7 Y70,5 <= +70
 c4347: +55.7 Y70,6 <= +80
 c4348: +69 Y71,0 <= +70
 c4349: +69 Y71,1 <= +70
 c4350: +69 Y71,2 <= +60
 c4351: +69 Y71,3 <= +50
 c4352: +69 Y71,4 <= +40
 c4353: +69 Y71,5 <= +70
 c4354: +69 Y71,6 <= +80
 c4355: +50.4 Y72,0 <= +70
 c4356: +50.4 Y72,1 <= +70
 c4357: +50.4 Y72,2 <= +60
 c4358: +50.4 Y72,3 <= +50
 c4359: +50.4 Y72,4 <= +40
 c4360: +50.4 Y72,5 <= +70
 c4361: +50.4 Y72,6 <= +80
 c4362: +55.2 Y73,0 <= +70
 c4363: +55.2 Y73,1 <= +70
 c4364: +55.2 Y73,2 <= +60
 c4365: +55.2 Y73,3 <= +50
 c4366: +55.2 Y73,4 <= +40
 c4367: +55.2 Y73,5 <= +70
 c4368: +55.2 Y73,6 <= +80
 c4369: +53.2 Y74,0 <= +70
 c4370: +53.2 Y74,1 <= +70
 c4371: +53.2 Y74,2 <= +60
 c4372: +53.2 Y74,3 <= +50
 c4373: +53.2 Y74,4 <= +40
 c4374: +53.2 Y74,5 <= +70
 c4375: +53.2 Y74,6 <= +80
 c4376: +54.2 Y75,0 <= +70
 c4377: +54.2 Y75,1 <= +70
 c4378: +54.2 Y75,2 <= +60
 c4379: +54.2 Y75,3 <= +50
 c4380: +54.2 Y75,4 <= +40
 c4381: +54.2 Y75,5 <= +70
 c4382: +54.2 Y75,6 <= +80
 c4383: +55.4 Y76,0 <= +70
 c4384: +55.4 Y76,1 <= +70
 c4385: +55.4 Y76,2 <= +60
 c4386: +55.4 Y76,3 <= +50
 c4387: +55.4 Y76,4 <= +40
 c4388: +55.4 Y76,5 <= +70
 c4389: +55.4 Y76,6 <= +80
 c4390: +36.8 Y77,0 <= +70
 c4391: +36.8 Y77,1 <= +70
 c4392: +36.8 Y77,2 <= +60
 c4393: +36.8 Y77,3 <= +50
 c4394: +36.8 Y77,4 <= +40
 c4395: +36.8 Y77,5 <= +70
 c4396: +36.8 Y77,6 <= +80
 c4397: +41.6 Y78,0 <= +70
 c4398: +41.6 Y78,1 <= +70
 c4399: +41.6 Y78,2 <= +60
 c4400: +41.6 Y78,3 <= +50
 c4401: +41.6 Y78,4 <= +40
 c4402: +41.6 Y78,5 <= +70
 c4403: +41.6 Y78,6 <= +80
 c4404: +39.6 Y79,0 <= +70
 c4405: +39.6 Y79,1 <= +70
 c4406: +39.6 Y79,2 <= +60
 c4407: +39.6 Y79,3 <= +50
 c4408: +39.6 Y79,4 <= +40
 c4409: +39.6 Y79,5 <= +70
 c4410: +39.6 Y79,6 <= +80
 c4411: +40.6 Y80,0 <= +70
 c4412: +40.6 Y80,1 <= +70
 c4413: +40.6 Y80,2 <= +60
 c4414: +40.6 Y80,3 <= +50
 c4415: +40.6 Y80,4 <= +40
 c4416: +40.6 Y80,5 <= +70
 c4417: +40.6 Y80,6 <= +80
 c4418: +50.1 Y81,0 <= +70
 c4419: +50.1 Y81,1 <= +70
 c4420: +50.1 Y81,2 <= +60
 c4421: +50.1 Y81,3 <= +50
 c4422: +50.1 Y81,4 <= +40
 c4423: +50.1 Y81,5 <= +70
 c4424: +50.1 Y81,6 <= +80
 c4425: +54.9 Y82,0 <= +70
 c4426: +54.9 Y82,1 <= +70
 c4427: +54.9 Y82,2 <= +60
 c4428: +54.9 Y82,3 <= +50
 c4429: +54.9 Y82,4 <= +40
 c4430: +54.9 Y82,5 <= +70
 c4431: +54.9 Y82,6 <= +80
 c4432: +52.9 Y83,0 <= +70
 c4433: +52.9 Y83,1 <= +70
 c4434: +52.9 Y83,2 <= +60
 c4435: +52.9 Y83,3 <= +50
 c4436: +52.9 Y83,4 <= +40
 c4437: +52.9 Y83,5 <= +70
 c4438: +52.9 Y83,6 <= +80
 c4439: +53.9 Y84,0 <= +70
 c4440: +53.9 Y84,1 <= +70
 c4441: +53.9 Y84,2 <= +60
 c4442: +53.9 Y84,3 <= +50
 c4443: +53.9 Y84,4 <= +40
 c4444: +53.9 Y84,5 <= +70
 c4445: +53.9 Y84,6 <= +80
 c4446: +36.3 Y85,0 <= +70
 c4447: +36.3 Y85,1 <= +70
 c4448: +36.3 Y85,2 <= +60
 c4449: +36.3 Y85,3 <= +50
 c4450: +36.3 Y85,4 <= +40
 c4451: +36.3 Y85,5 <= +70
 c4452: +36.3 Y85,6 <= +80
 c4453: +34.3 Y86,0 <= +70
 c4454: +34.3 Y86,1 <= +70
 c4455: +34.3 Y86,2 <= +60
 c4456: +34.3 Y86,3 <= +50
 c4457: +34.3 Y86,4 <= +40
 c4458: +34.3 Y86,5 <= +70
 c4459: +34.3 Y86,6 <= +80
 c4460: +35.3 Y87,0 <= +70
 c4461: +35.3 Y87,1 <= +70
 c4462: +35.3 Y87,2 <= +60
 c4463: +35.3 Y87,3 <= +50
 c4464: +35.3 Y87,4 <= +40
 c4465: +35.3 Y87,5 <= +70
 c4466: +35.3 Y87,6 <= +80
 c4467: +39.1 Y88,0 <= +70
 c4468: +39.1 Y88,1 <= +70
 c4469: +39.1 Y88,2 <= +60
 c4470: +39.1 Y88,3 <= +50
 c4471: +39.1 Y88,4 <= +40
 c4472: +39.1 Y88,5 <= +70
 c4473: +39.1 Y88,6 <= +80
 c4474: +40.1 Y89,0 <= +70
 c4475: +40.1 Y89,1 <= +70
 c4476: +40.1 Y89,2 <= +60
 c4477: +40.1 Y89,3 <= +50
 c4478: +40.1 Y89,4 <= +40
 c4479: +40.1 Y89,5 <= +70
 c4480: +40.1 Y89,6 <= +80
 c4481: +38.1 Y90,0 <= +70
 c4482: +38.1 Y90,1 <= +70
 c4483: +38.1 Y90,2 <= +60
 c4484: +38.1 Y90,3 <= +50
 c4485: +38.1 Y90,4 <= +40
 c4486: +38.1 Y90,5 <= +70
 c4487: +38.1 Y90,6 <= +80
 c4488: +68.4 Y91,0 <= +70
 c4489: +68.4 Y91,1 <= +70
 c4490: +68.4 Y91,2 <= +60
 c4491: +68.4 Y91,3 <= +50
 c4492: +68.4 Y91,4 <= +40
 c4493: +68.4 Y91,5 <= +70
 c4494: +68.4 Y91,6 <= +80
 c4495: +54.8 Y92,0 <= +70
 c4496: +54.8 Y92,1 <= +70
 c4497: +54.8 Y92,2 <= +60
 c4498: +54.8 Y92,3 <= +50
 c4499: +54.8 Y92,4 <= +40
 c4500: +54.8 Y92,5 <= +70
 c4501: +54.8 Y92,6 <= +80
 c4502: +68.1 Y93,0 <= +70
 c4503: +68.1 Y93,1 <= +70
 c4504: +68.1 Y93,2 <= +60
 c4505: +68.1 Y93,3 <= +50
 c4506: +68.1 Y93,4 <= +40
 c4507: +68.1 Y93,5 <= +70
 c4508: +68.1 Y93,6 <= +80
 c4509: +49.5 Y94,0 <= +70
 c4510: +49.5 Y94,1 <= +70
 c4511: +49.5 Y94,2 <= +60
 c4512: +49.5 Y94,3 <= +50
 c4513: +49.5 Y94,4 <= +40
 c4514: +49.5 Y94,5 <= +70
 c4515: +49.5 Y94,6 <= +80
 c4516: +54.3 Y95,0 <= +70
 c4517: +54.3 Y95,1 <= +70
 c4518: +54.3 Y95,2 <= +60
 c4519: +54.3 Y95,3 <= +50
 c4520: +54.3 Y95,4 <= +40
 c4521: +54.3 Y95,5 <= +70
 c4522: +54.3 Y95,6 <= +80
 c4523: +52.3 Y96,0 <= +70
 c4524: +52.3 Y96,1 <= +70
 c4525: +52.3 Y96,2 <= +60
 c4526: +52.3 Y96,3 <= +50
 c4527: +52.3 Y96,4 <= +40
 c4528: +52.3 Y96,5 <= +70
 c4529: +52.3 Y96,6 <= +80
 c4530: +53.3 Y97,0 <= +70
 c4531: +53.3 Y97,1 <= +70
 c4532: +53.3 Y97,2 <= +60
 c4533: +53.3 Y97,3 <= +50
 c4534: +53.3 Y97,4 <= +40
 c4535: +53.3 Y97,5 <= +70
 c4536: +53.3 Y97,6 <= +80
 c4537: +55.8 Y98,0 <= +70
 c4538: +55.8 Y98,1 <= +70
 c4539: +55.8 Y98,2 <= +60
 c4540: +55.8 Y98,3 <= +50
 c4541: +55.8 Y98,4 <= +40
 c4542: +55.8 Y98,5 <= +70
 c4543: +55.8 Y98,6 <= +80
 c4544: +69.1 Y99,0 <= +70
 c4545: +69.1 Y99,1 <= +70
 c4546: +69.1 Y99,2 <= +60
 c4547: +69.1 Y99,3 <= +50
 c4548: +69.1 Y99,4 <= +40
 c4549: +69.1 Y99,5 <= +70
 c4550: +69.1 Y99,6 <= +80
 c4551: +50.5 Y100,0 <= +70
 c4552: +50.5 Y100,1 <= +70
 c4553: +50.5 Y100,2 <= +60
 c4554: +50.5 Y100,3 <= +50
 c4555: +50.5 Y100,4 <= +40
 c4556: +50.5 Y100,5 <= +70
 c4557: +50.5 Y100,6 <= +80
 c4558: +55.3 Y101,0 <= +70
 c4559: +55.3 Y101,1 <= +70
 c4560: +55.3 Y101,2 <= +60
 c4561: +55.3 Y101,3 <= +50
 c4562: +55.3 Y101,4 <= +40
 c4563: +55.3 Y101,5 <= +70
 c4564: +55.3 Y101,6 <= +80
 c4565: +53.3 Y102,0 <= +70
 c4566: +53.3 Y102,1 <= +70
 c4567: +53.3 Y102,2 <= +60
 c4568: +53.3 Y102,3 <= +50
 c4569: +53.3 Y102,4 <= +40
 c4570: +53.3 Y102,5 <= +70
 c4571: +53.3 Y102,6 <= +80
 c4572: +54.3 Y103,0 <= +70
 c4573: +54.3 Y103,1 <= +70
 c4574: +54.3 Y103,2 <= +60
 c4575: +54.3 Y103,3 <= +50
 c4576: +54.3 Y103,4 <= +40
 c4577: +54.3 Y103,5 <= +70
 c4578: +54.3 Y103,6 <= +80
 c4579: +55.5 Y104,0 <= +70
 c4580: +55.5 Y104,1 <= +70
 c4581: +55.5 Y104,2 <= +60
 c4582: +55.5 Y104,3 <= +50
 c4583: +55.5 Y104,4 <= +40
 c4584: +55.5 Y104,5 <= +70
 c4585: +55.5 Y104,6 <= +80
 c4586: +36.9 Y105,0 <= +70
 c4587: +36.9 Y105,1 <= +70
 c4588: +36.9 Y105,2 <= +60
 c4589: +36.9 Y105,3 <= +50
 c4590: +36.9 Y105,4 <= +40
 c4591: +36.9 Y105,5 <= +70
 c4592: +36.9 Y105,6 <= +80
 c4593: +41.7 Y106,0 <= +70
 c4594: +41.7 Y106,1 <= +70
 c4595: +41.7 Y106,2 <= +60
 c4596: +41.7 Y106,3 <= +50
 c4597: +41.7 Y106,4 <= +40
 c4598: +41.7 Y106,5 <= +70
 c4599: +41.7 Y106,6 <= +80
 c4600: +39.7 Y107,0 <= +70
 c4601: +39.7 Y107,1 <= +70
 c4602: +39.7 Y107,2 <= +60
 c4603: +39.7 Y107,3 <= +50
 c4604: +39.7 Y107,4 <= +40
 c4605: +39.7 Y107,5 <= +70
 c4606: +39.7 Y107,6 <= +80
 c4607: +40.7 Y108,0 <= +70
 c4608: +40.7 Y108,1 <= +70
 c4609: +40.7 Y108,2 <= +60
 c4610: +40.7 Y108,3 <= +50
 c4611: +40.7 Y108,4 <= +40
 c4612: +40.7 Y108,5 <= +70
 c4613: +40.7 Y108,6 <= +80
 c4614: +50.2 Y109,0 <= +70
 c4615: +50.2 Y109,1 <= +70
 c4616: +50.2 Y109,2 <= +60
 c4617: +50.2 Y109,3 <= +50
 c4618: +50.2 Y109,4 <= +40
 c4619: +50.2 Y109,5 <= +70
 c4620: +50.2 Y109,6 <= +80
 c4621: +55 Y110,0 <= +70
 c4622: +55 Y110,1 <= +70
 c4623: +55 Y110,2 <= +60
 c4624: +55 Y110,3 <= +50
 c4625: +55 Y110,4 <= +40
 c4626: +55 Y110,5 <= +70
 c4627: +55 Y110,6 <= +80
 c4628: +53 Y111,0 <= +70
 c4629: +53 Y111,1 <= +70
 c4630: +53 Y111,2 <= +60
 c4631: +53 Y111,3 <= +50
 c4632: +53 Y111,4 <= +40
 c4633: +53 Y111,5 <= +70
 c4634: +53 Y111,6 <= +80
 c4635: +54 Y112,0 <= +70
 c4636: +54 Y112,1 <= +70
 c4637: +54 Y112,2 <= +60
 c4638: +54 Y112,3 <= +50
 c4639: +54 Y112,4 <= +40
 c4640: +54 Y112,5 <= +70
 c4641: +54 Y112,6 <= +80
 c4642: +36.4 Y113,0 <= +70
 c4643: +36.4 Y113,1 <= +70
 c4644: +36.4 Y113,2 <= +60
 c4645: +36.4 Y113,3 <= +50
 c4646: +36.4 Y113,4 <= +40
 c4647: +36.4 Y113,5 <= +70
 c4648: +36.4 Y113,6 <= +80
 c4649: +34.4 Y114,0 <= +70
 c4650: +34.4 Y114,1 <= +70
 c4651: +34.4 Y114,2 <= +60
 c4652: +34.4 Y114,3 <= +50
 c4653: +34.4 Y114,4 <= +40
 c4654: +34.4 Y114,5 <= +70
 c4655: +34.4 Y114,6 <= +80
 c4656: +35.4 Y115,0 <= +70
 c4657: +35.4 Y115,1 <= +70
 c4658: +35.4 Y115,2 <= +60
 c4659: +35.4 Y115,3 <= +50
 c4660: +35.4 Y115,4 <= +40
 c4661: +35.4 Y115,5 <= +70
 c4662: +35.4 Y115,6 <= +80
 c4663: +39.2 Y116,0 <= +70
 c4664: +39.2 Y116,1 <= +70
 c4665: +39.2 Y116,2 <= +60
 c4666: +39.2 Y116,3 <= +50
 c4667: +39.2 Y116,4 <= +40
 c4668: +39.2 Y116,5 <= +70
 c4669: +39.2 Y116,6 <= +80
 c4670: +40.2 Y117,0 <= +70
 c4671: +40.2 Y117,1 <= +70
 c4672: +40.2 Y117,2 <= +60
 c4673: +40.2 Y117,3 <= +50
 c4674: +40.2 Y117,4 <= +40
 c4675: +40.2 Y117,5 <= +70
 c4676: +40.2 Y117,6 <= +80
 c4677: +38.2 Y118,0 <= +70
 c4678: +38.2 Y118,1 <= +70
 c4679: +38.2 Y118,2 <= +60
 c4680: +38.2 Y118,3 <= +50
 c4681: +38.2 Y118,4 <= +40
 c4682: +38.2 Y118,5 <= +70
 c4683: +38.2 Y118,6 <= +80
 c4684: +58 Y119,0 <= +70
 c4685: +58 Y119,1 <= +70
 c4686: +58 Y119,2 <= +60
 c4687: +58 Y119,3 <= +50
 c4688: +58 Y119,4 <= +40
 c4689: +58 Y119,5 <= +70
 c4690: +58 Y119,6 <= +80
 c4691: +71.3 Y120,0 <= +70
 c4692: +71.3 Y120,1 <= +70
 c4693: +71.3 Y120,2 <= +60
 c4694: +71.3 Y120,3 <= +50
 c4695: +71.3 Y120,4 <= +40
 c4696: +71.3 Y120,5 <= +70
 c4697: +71.3 Y120,6 <= +80
 c4698: +52.7 Y121,0 <= +70
 c4699: +52.7 Y121,1 <= +70
 c4700: +52.7 Y121,2 <= +60
 c4701: +52.7 Y121,3 <= +50
 c4702: +52.7 Y121,4 <= +40
 c4703: +52.7 Y121,5 <= +70
 c4704: +52.7 Y121,6 <= +80
 c4705: +57.5 Y122,0 <= +70
 c4706: +57.5 Y122,1 <= +70
 c4707: +57.5 Y122,2 <= +60
 c4708: +57.5 Y122,3 <= +50
 c4709: +57.5 Y122,4 <= +40
 c4710: +57.5 Y122,5 <= +70
 c4711: +57.5 Y122,6 <= +80
 c4712: +55.5 Y123,0 <= +70
 c4713: +55.5 Y123,1 <= +70
 c4714: +55.5 Y123,2 <= +60
 c4715: +55.5 Y123,3 <= +50
 c4716: +55.5 Y123,4 <= +40
 c4717: +55.5 Y123,5 <= +70
 c4718: +55.5 Y123,6 <= +80
 c4719: +56.5 Y124,0 <= +70
 c4720: +56.5 Y124,1 <= +70
 c4721: +56.5 Y124,2 <= +60
 c4722: +56.5 Y124,3 <= +50
 c4723: +56.5 Y124,4 <= +40
 c4724: +56.5 Y124,5 <= +70
 c4725: +56.5 Y124,6 <= +80
 c4726: +57.7 Y125,0 <= +70
 c4727: +57.7 Y125,1 <= +70
 c4728: +57.7 Y125,2 <= +60
 c4729: +57.7 Y125,3 <= +50
 c4730: +57.7 Y125,4 <= +40
 c4731: +57.7 Y125,5 <= +70
 c4732: +57.7 Y125,6 <= +80
 c4733: +39.1 Y126,0 <= +70
 c4734: +39.1 Y126,1 <= +70
 c4735: +39.1 Y126,2 <= +60
 c4736: +39.1 Y126,3 <= +50
 c4737: +39.1 Y126,4 <= +40
 c4738: +39.1 Y126,5 <= +70
 c4739: +39.1 Y126,6 <= +80
 c4740: +43.9 Y127,0 <= +70
 c4741: +43.9 Y127,1 <= +70
 c4742: +43.9 Y127,2 <= +60
 c4743: +43.9 Y127,3 <= +50
 c4744: +43.9 Y127,4 <= +40
 c4745: +43.9 Y127,5 <= +70
 c4746: +43.9 Y127,6 <= +80
 c4747: +41.9 Y128,0 <= +70
 c4748: +41.9 Y128,1 <= +70
 c4749: +41.9 Y128,2 <= +60
 c4750: +41.9 Y128,3 <= +50
 c4751: +41.9 Y128,4 <= +40
 c4752: +41.9 Y128,5 <= +70
 c4753: +41.9 Y128,6 <= +80
 c4754: +42.9 Y129,0 <= +70
 c4755: +42.9 Y129,1 <= +70
 c4756: +42.9 Y129,2 <= +60
 c4757: +42.9 Y129,3 <= +50
 c4758: +42.9 Y129,4 <= +40
 c4759: +42.9 Y129,5 <= +70
 c4760: +42.9 Y129,6 <= +80
 c4761: +52.4 Y130,0 <= +70
 c4762: +52.4 Y130,1 <= +70
 c4763: +52.4 Y130,2 <= +60
 c4764: +52.4 Y130,3 <= +50
 c4765: +52.4 Y130,4 <= +40
 c4766: +52.4 Y130,5 <= +70
 c4767: +52.4 Y130,6 <= +80
 c4768: +57.2 Y131,0 <= +70
 c4769: +57.2 Y131,1 <= +70
 c4770: +57.2 Y131,2 <= +60
 c4771: +57.2 Y131,3 <= +50
 c4772: +57.2 Y131,4 <= +40
 c4773: +57.2 Y131,5 <= +70
 c4774: +57.2 Y131,6 <= +80
 c4775: +55.2 Y132,0 <= +70
 c4776: +55.2 Y132,1 <= +70
 c4777: +55.2 Y132,2 <= +60
 c4778: +55.2 Y132,3 <= +50
 c4779: +55.2 Y132,4 <= +40
 c4780: +55.2 Y132,5 <= +70
 c4781: +55.2 Y132,6 <= +80
 c4782: +56.2 Y133,0 <= +70
 c4783: +56.2 Y133,1 <= +70
 c4784: +56.2 Y133,2 <= +60
 c4785: +56.2 Y133,3 <= +50
 c4786: +56.2 Y133,4 <= +40
 c4787: +56.2 Y133,5 <= +70
 c4788: +56.2 Y133,6 <= +80
 c4789: +38.6 Y134,0 <= +70
 c4790: +38.6 Y134,1 <= +70
 c4791: +38.6 Y134,2 <= +60
 c4792: +38.6 Y134,3 <= +50
 c4793: +38.6 Y134,4 <= +40
 c4794: +38.6 Y134,5 <= +70
 c4795: +38.6 Y134,6 <= +80
 c4796: +36.6 Y135,0 <= +70
 c4797: +36.6 Y135,1 <= +70
 c4798: +36.6 Y135,2 <= +60
 c4799: +36.6 Y135,3 <= +50
 c4800: +36.6 Y135,4 <= +40
 c4801: +36.6 Y135,5 <= +70
 c4802: +36.6 Y135,6 <= +80
 c4803: +37.6 Y136,0 <= +70
 c4804: +37.6 Y136,1 <= +70
 c4805: +37.6 Y136,2 <= +60
 c4806: +37.6 Y136,3 <= +50
 c4807: +37.6 Y136,4 <= +40
 c4808: +37.6 Y136,5 <= +70
 c4809: +37.6 Y136,6 <= +80
 c4810: +41.4 Y137,0 <= +70
 c4811: +41.4 Y137,1 <= +70
 c4812: +41.4 Y137,2 <= +60
 c4813: +41.4 Y137,3 <= +50
 c4814: +41.4 Y137,4 <= +40
 c4815: +41.4 Y137,5 <= +70
 c4816: +41.4 Y137,6 <= +80
 c4817: +42.4 Y138,0 <= +70
 c4818: +42.4 Y138,1 <= +70
 c4819: +42.4 Y138,2 <= +60
 c4820: +42.4 Y138,3 <= +50
 c4821: +42.4 Y138,4 <= +40
 c4822: +42.4 Y138,5 <= +70
 c4823: +42.4 Y138,6 <= +80
 c4824: +40.4 Y139,0 <= +70
 c4825: +40.4 Y139,1 <= +70
 c4826: +40.4 Y139,2 <= +60
 c4827: +40.4 Y139,3 <= +50
 c4828: +40.4 Y139,4 <= +40
 c4829: +40.4 Y139,5 <= +70
 c4830: +40.4 Y139,6 <= +80
 c4831: +58.7 Y140,0 <= +70
 c4832: +58.7 Y140,1 <= +70
 c4833: +58.7 Y140,2 <= +60
 c4834: +58.7 Y140,3 <= +50
 c4835: +58.7 Y140,4 <= +40
 c4836: +58.7 Y140,5 <= +70
 c4837: +58.7 Y140,6 <= +80
 c4838: +40.1 Y141,0 <= +70
 c4839: +40.1 Y141,1 <= +70
 c4840: +40.1 Y141,2 <= +60
 c4841: +40.1 Y141,3 <= +50
 c4842: +40.1 Y141,4 <= +40
 c4843: +40.1 Y141,5 <= +70
 c4844: +40.1 Y141,6 <= +80
 c4845: +44.9 Y142,0 <= +70
 c4846: +44.9 Y142,1 <= +70
 c4847: +44.9 Y142,2 <= +60
 c4848: +44.9 Y142,3 <= +50
 c4849: +44.9 Y142,4 <= +40
 c4850: +44.9 Y142,5 <= +70
 c4851: +44.9 Y142,6 <= +80
 c4852: +42.9 Y143,0 <= +70
 c4853: +42.9 Y143,1 <= +70
 c4854: +42.9 Y143,2 <= +60
 c4855: +42.9 Y143,3 <= +50
 c4856: +42.9 Y143,4 <= +40
 c4857: +42.9 Y143,5 <= +70
 c4858: +42.9 Y143,6 <= +80
 c4859: +43.9 Y144,0 <= +70
 c4860: +43.9 Y144,1 <= +70
 c4861: +43.9 Y144,2 <= +60
 c4862: +43.9 Y144,3 <= +50
 c4863: +43.9 Y144,4 <= +40
 c4864: +43.9 Y144,5 <= +70
 c4865: +43.9 Y144,6 <= +80
 c4866: +53.4 Y145,0 <= +70
 c4867: +53.4 Y145,1 <= +70
 c4868: +53.4 Y145,2 <= +60
 c4869: +53.4 Y145,3 <= +50
 c4870: +53.4 Y145,4 <= +40
 c4871: +53.4 Y145,5 <= +70
 c4872: +53.4 Y145,6 <= +80
 c4873: +58.2 Y146,0 <= +70
 c4874: +58.2 Y146,1 <= +70
 c4875: +58.2 Y146,2 <= +60
 c4876: +58.2 Y146,3 <= +50
 c4877: +58.2 Y146,4 <= +40
 c4878: +58.2 Y146,5 <= +70
 c4879: +58.2 Y146,6 <= +80
 c4880: +56.2 Y147,0 <= +70
 c4881: +56.2 Y147,1 <= +70
 c4882: +56.2 Y147,2 <= +60
 c4883: +56.2 Y147,3 <= +50
 c4884: +56.2 Y147,4 <= +40
 c4885: +56.2 Y147,5 <= +70
 c4886: +56.2 Y147,6 <= +80
 c4887: +57.2 Y148,0 <= +70
 c4888: +57.2 Y148,1 <= +70
 c4889: +57.2 Y148,2 <= +60
 c4890: +57.2 Y148,3 <= +50
 c4891: +57.2 Y148,4 <= +40
 c4892: +57.2 Y148,5 <= +70
 c4893: +57.2 Y148,6 <= +80
 c4894: +39.6 Y149,0 <= +70
 c4895: +39.6 Y149,1 <= +70
 c4896: +39.6 Y149,2 <= +60
 c4897: +39.6 Y149,3 <= +50
 c4898: +39.6 Y149,4 <= +40
 c4899: +39.6 Y149,5 <= +70
 c4900: +39.6 Y149,6 <= +80
 c4901: +37.6 Y150,0 <= +70
 c4902: +37.6 Y150,1 <= +70
 c4903: +37.6 Y150,2 <= +60
 c4904: +37.6 Y150,3 <= +50
 c4905: +37.6 Y150,4 <= +40
 c4906: +37.6 Y150,5 <= +70
 c4907: +37.6 Y150,6 <= +80
 c4908: +38.6 Y151,0 <= +70
 c4909: +38.6 Y151,1 <= +70
 c4910: +38.6 Y151,2 <= +60
 c4911: +38.6 Y151,3 <= +50
 c4912: +38.6 Y151,4 <= +40
 c4913: +38.6 Y151,5 <= +70
 c4914: +38.6 Y151,6 <= +80
 c4915: +42.4 Y152,0 <= +70
 c4916: +42.4 Y152,1 <= +70
 c4917: +42.4 Y152,2 <= +60
 c4918: +42.4 Y152,3 <= +50
 c4919: +42.4 Y152,4 <= +40
 c4920: +42.4 Y152,5 <= +70
 c4921: +42.4 Y152,6 <= +80
 c4922: +43.4 Y153,0 <= +70
 c4923: +43.4 Y153,1 <= +70
 c4924: +43.4 Y153,2 <= +60
 c4925: +43.4 Y153,3 <= +50
 c4926: +43.4 Y153,4 <= +40
 c4927: +43.4 Y153,5 <= +70
 c4928: +43.4 Y153,6 <= +80
 c4929: +41.4 Y154,0 <= +70
 c4930: +41.4 Y154,1 <= +70
 c4931: +41.4 Y154,2 <= +60
 c4932: +41.4 Y154,3 <= +50
 c4933: +41.4 Y154,4 <= +40
 c4934: +41.4 Y154,5 <= +70
 c4935: +41.4 Y154,6 <= +80
 c4936: +39.8 Y155,0 <= +70
 c4937: +39.8 Y155,1 <= +70
 c4938: +39.8 Y155,2 <= +60
 c4939: +39.8 Y155,3 <= +50
 c4940: +39.8 Y155,4 <= +40
 c4941: +39.8 Y155,5 <= +70
 c4942: +39.8 Y155,6 <= +80
 c4943: +44.6 Y156,0 <= +70
 c4944: +44.6 Y156,1 <= +70
 c4945: +44.6 Y156,2 <= +60
 c4946: +44.6 Y156,3 <= +50
 c4947: +44.6 Y156,4 <= +40
 c4948: +44.6 Y156,5 <= +70
 c4949: +44.6 Y156,6 <= +80
 c4950: +42.6 Y157,0 <= +70
 c4951: +42.6 Y157,1 <= +70
 c4952: +42.6 Y157,2 <= +60
 c4953: +42.6 Y157,3 <= +50
 c4954: +42.6 Y157,4 <= +40
 c4955: +42.6 Y157,5 <= +70
 c4956: +42.6 Y157,6 <= +80
 c4957: +43.6 Y158,0 <= +70
 c4958: +43.6 Y158,1 <= +70
 c4959: +43.6 Y158,2 <= +60
 c4960: +43.6 Y158,3 <= +50
 c4961: +43.6 Y158,4 <= +40
 c4962: +43.6 Y158,5 <= +70
 c4963: +43.6 Y158,6 <= +80
 c4964: +26 Y159,0 <= +70
 c4965: +26 Y159,1 <= +70
 c4966: +26 Y159,2 <= +60
 c4967: +26 Y159,3 <= +50
 c4968: +26 Y159,4 <= +40
 c4969: +26 Y159,5 <= +70
 c4970: +26 Y159,6 <= +80
 c4971: +24 Y160,0 <= +70
 c4972: +24 Y160,1 <= +70
 c4973: +24 Y160,2 <= +60
 c4974: +24 Y160,3 <= +50
 c4975: +24 Y160,4 <= +40
 c4976: +24 Y160,5 <= +70
 c4977: +24 Y160,6 <= +80
 c4978: +25 Y161,0 <= +70
 c4979: +25 Y161,1 <= +70
 c4980: +25 Y161,2 <= +60
 c4981: +25 Y161,3 <= +50
 c4982: +25 Y161,4 <= +40
 c4983: +25 Y161,5 <= +70
 c4984: +25 Y161,6 <= +80
 c4985: +28.8 Y162,0 <= +70
 c4986: +28.8 Y162,1 <= +70
 c4987: +28.8 Y162,2 <= +60
 c4988: +28.8 Y162,3 <= +50
 c4989: +28.8 Y162,4 <= +40
 c4990: +28.8 Y162,5 <= +70
 c4991: +28.8 Y162,6 <= +80
 c4992: +29.8 Y163,0 <= +70
 c4993: +29.8 Y163,1 <= +70
 c4994: +29.8 Y163,2 <= +60
 c4995: +29.8 Y163,3 <= +50
 c4996: +29.8 Y163,4 <= +40
 c4997: +29.8 Y163,5 <= +70
 c4998: +29.8 Y163,6 <= +80
 c4999: +27.8 Y164,0 <= +70
 c5000: +27.8 Y164,1 <= +70
 c5001: +27.8 Y164,2 <= +60
 c5002: +27.8 Y164,3 <= +50
 c5003: +27.8 Y164,4 <= +40
 c5004: +27.8 Y164,5 <= +70
 c5005: +27.8 Y164,6 <= +80
 c5006: +39.3 Y165,0 <= +70
 c5007: +39.3 Y165,1 <= +70
 c5008: +39.3 Y165,2 <= +60
 c5009: +39.3 Y165,3 <= +50
 c5010: +39.3 Y165,4 <= +40
 c5011: +39.3 Y165,5 <= +70
 c5012: +39.3 Y165,6 <= +80
 c5013: +37.3 Y166,0 <= +70
 c5014: +37.3 Y166,1 <= +70
 c5015: +37.3 Y166,2 <= +60
 c5016: +37.3 Y166,3 <= +50
 c5017: +37.3 Y166,4 <= +40
 c5018: +37.3 Y166,5 <= +70
 c5019: +37.3 Y166,6 <= +80
 c5020: +38.3 Y167,0 <= +70
 c5021: +38.3 Y167,1 <= +70
 c5022: +38.3 Y167,2 <= +60
 c5023: +38.3 Y167,3 <= +50
 c5024: +38.3 Y167,4 <= +40
 c5025: +38.3 Y167,5 <= +70
 c5026: +38.3 Y167,6 <= +80
 c5027: +42.1 Y168,0 <= +70
 c5028: +42.1 Y168,1 <= +70
 c5029: +42.1 Y168,2 <= +60
 c5030: +42.1 Y168,3 <= +50
 c5031: +42.1 Y168,4 <= +40
 c5032: +42.1 Y168,5 <= +70
 c5033: +42.1 Y168,6 <= +80
 c5034: +43.1 Y169,0 <= +70
 c5035: +43.1 Y169,1 <= +70
 c5036: +43.1 Y169,2 <= +60
 c5037: +43.1 Y169,3 <= +50
 c5038: +43.1 Y169,4 <= +40
 c5039: +43.1 Y169,5 <= +70
 c5040: +43.1 Y169,6 <= +80
 c5041: +41.1 Y170,0 <= +70
 c5042: +41.1 Y170,1 <= +70
 c5043: +41.1 Y170,2 <= +60
 c5044: +41.1 Y170,3 <= +50
 c5045: +41.1 Y170,4 <= +40
 c5046: +41.1 Y170,5 <= +70
 c5047: +41.1 Y170,6 <= +80
 c5048: +23.5 Y171,0 <= +70
 c5049: +23.5 Y171,1 <= +70
 c5050: +23.5 Y171,2 <= +60
 c5051: +23.5 Y171,3 <= +50
 c5052: +23.5 Y171,4 <= +40
 c5053: +23.5 Y171,5 <= +70
 c5054: +23.5 Y171,6 <= +80
 c5055: +24.5 Y172,0 <= +70
 c5056: +24.5 Y172,1 <= +70
 c5057: +24.5 Y172,2 <= +60
 c5058: +24.5 Y172,3 <= +50
 c5059: +24.5 Y172,4 <= +40
 c5060: +24.5 Y172,5 <= +70
 c5061: +24.5 Y172,6 <= +80
 c5062: +22.5 Y173,0 <= +70
 c5063: +22.5 Y173,1 <= +70
 c5064: +22.5 Y173,2 <= +60
 c5065: +22.5 Y173,3 <= +50
 c5066: +22.5 Y173,4 <= +40
 c5067: +22.5 Y173,5 <= +70
 c5068: +22.5 Y173,6 <= +80
 c5069: +27.3 Y174,0 <= +70
 c5070: +27.3 Y174,1 <= +70
 c5071: +27.3 Y174,2 <= +60
 c5072: +27.3 Y174,3 <= +50
 c5073: +27.3 Y174,4 <= +40
 c5074: +27.3 Y174,5 <= +70
 c5075: +27.3 Y174,6 <= +80
 c5076: +75.7 Y175,0 <= +70
 c5077: +75.7 Y175,1 <= +70
 c5078: +75.7 Y175,2 <= +60
 c5079: +75.7 Y175,3 <= +50
 c5080: +75.7 Y175,4 <= +40
 c5081: +75.7 Y175,5 <= +70
 c5082: +75.7 Y175,6 <= +80
 c5083: +70.4 Y176,0 <= +70
 c5084: +70.4 Y176,1 <= +70
 c5085: +70.4 Y176,2 <= +60
 c5086: +70.4 Y176,3 <= +50
 c5087: +70.4 Y176,4 <= +40
 c5088: +70.4 Y176,5 <= +70
 c5089: +70.4 Y176,6 <= +80
 c5090: +75.2 Y177,0 <= +70
 c5091: +75.2 Y177,1 <= +70
 c5092: +75.2 Y177,2 <= +60
 c5093: +75.2 Y177,3 <= +50
 c5094: +75.2 Y177,4 <= +40
 c5095: +75.2 Y177,5 <= +70
 c5096: +75.2 Y177,6 <= +80
 c5097: +73.2 Y178,0 <= +70
 c5098: +73.2 Y178,1 <= +70
 c5099: +73.2 Y178,2 <= +60
 c5100: +73.2 Y178,3 <= +50
 c5101: +73.2 Y178,4 <= +40
 c5102: +73.2 Y178,5 <= +70
 c5103: +73.2 Y178,6 <= +80
 c5104: +74.2 Y179,0 <= +70
 c5105: +74.2 Y179,1 <= +70
 c5106: +74.2 Y179,2 <= +60
 c5107: +74.2 Y179,3 <= +50
 c5108: +74.2 Y179,4 <= +40
 c5109: +74.2 Y179,5 <= +70
 c5110: +74.2 Y179,6 <= +80
 c5111: +76.7 Y180,0 <= +70
 c5112: +76.7 Y180,1 <= +70
 c5113: +76.7 Y180,2 <= +60
 c5114: +76.7 Y180,3 <= +50
 c5115: +76.7 Y180,4 <= +40
 c5116: +76.7 Y180,5 <= +70
 c5117: +76.7 Y180,6 <= +80
 c5118: +71.4 Y181,0 <= +70
 c5119: +71.4 Y181,1 <= +70
 c5120: +71.4 Y181,2 <= +60
 c5121: +71.4 Y181,3 <= +50
 c5122: +71.4 Y181,4 <= +40
 c5123: +71.4 Y181,5 <= +70
 c5124: +71.4 Y181,6 <= +80
 c5125: +76.2 Y182,0 <= +70
 c5126: +76.2 Y182,1 <= +70
 c5127: +76.2 Y182,2 <= +60
 c5128: +76.2 Y182,3 <= +50
 c5129: +76.2 Y182,4 <= +40
 c5130: +76.2 Y182,5 <= +70
 c5131: +76.2 Y182,6 <= +80
 c5132: +74.2 Y183,0 <= +70
 c5133: +74.2 Y183,1 <= +70
 c5134: +74.2 Y183,2 <= +60
 c5135: +74.2 Y183,3 <= +50
 c5136: +74.2 Y183,4 <= +40
 c5137: +74.2 Y183,5 <= +70
 c5138: +74.2 Y183,6 <= +80
 c5139: +75.2 Y184,0 <= +70
 c5140: +75.2 Y184,1 <= +70
 c5141: +75.2 Y184,2 <= +60
 c5142: +75.2 Y184,3 <= +50
 c5143: +75.2 Y184,4 <= +40
 c5144: +75.2 Y184,5 <= +70
 c5145: +75.2 Y184,6 <= +80
 c5146: +76.4 Y185,0 <= +70
 c5147: +76.4 Y185,1 <= +70
 c5148: +76.4 Y185,2 <= +60
 c5149: +76.4 Y185,3 <= +50
 c5150: +76.4 Y185,4 <= +40
 c5151: +76.4 Y185,5 <= +70
 c5152: +76.4 Y185,6 <= +80
 c5153: +57.8 Y186,0 <= +70
 c5154: +57.8 Y186,1 <= +70
 c5155: +57.8 Y186,2 <= +60
 c5156: +57.8 Y186,3 <= +50
 c5157: +57.8 Y186,4 <= +40
 c5158: +57.8 Y186,5 <= +70
 c5159: +57.8 Y186,6 <= +80
 c5160: +62.6 Y187,0 <= +70
 c5161: +62.6 Y187,1 <= +70
 c5162: +62.6 Y187,2 <= +60
 c5163: +62.6 Y187,3 <= +50
 c5164: +62.6 Y187,4 <= +40
 c5165: +62.6 Y187,5 <= +70
 c5166: +62.6 Y187,6 <= +80
 c5167: +60.6 Y188,0 <= +70
 c5168: +60.6 Y188,1 <= +70
 c5169: +60.6 Y188,2 <= +60
 c5170: +60.6 Y188,3 <= +50
 c5171: +60.6 Y188,4 <= +40
 c5172: +60.6 Y188,5 <= +70
 c5173: +60.6 Y188,6 <= +80
 c5174: +61.6 Y189,0 <= +70
 c5175: +61.6 Y189,1 <= +70
 c5176: +61.6 Y189,2 <= +60
 c5177: +61.6 Y189,3 <= +50
 c5178: +61.6 Y189,4 <= +40
 c5179: +61.6 Y189,5 <= +70
 c5180: +61.6 Y189,6 <= +80
 c5181: +71.1 Y190,0 <= +70
 c5182: +71.1 Y190,1 <= +70
 c5183: +71.1 Y190,2 <= +60
 c5184: +71.1 Y190,3 <= +50
 c5185: +71.1 Y190,4 <= +40
 c5186: +71.1 Y190,5 <= +70
 c5187: +71.1 Y190,6 <= +80
 c5188: +75.9 Y191,0 <= +70
 c5189: +75.9 Y191,1 <= +70
 c5190: +75.9 Y191,2 <= +60
 c5191: +75.9 Y191,3 <= +50
 c5192: +75.9 Y191,4 <= +40
 c5193: +75.9 Y191,5 <= +70
 c5194: +75.9 Y191,6 <= +80
 c5195: +73.9 Y192,0 <= +70
 c5196: +73.9 Y192,1 <= +70
 c5197: +73.9 Y192,2 <= +60
 c5198: +73.9 Y192,3 <= +50
 c5199: +73.9 Y192,4 <= +40
 c5200: +73.9 Y192,5 <= +70
 c5201: +73.9 Y192,6 <= +80
 c5202: +74.9 Y193,0 <= +70
 c5203: +74.9 Y193,1 <= +70
 c5204: +74.9 Y193,2 <= +60
 c5205: +74.9 Y193,3 <= +50
 c5206: +74.9 Y193,4 <= +40
 c5207: +74.9 Y193,5 <= +70
 c5208: +74.9 Y193,6 <= +80
 c5209: +57.3 Y194,0 <= +70
 c5210: +57.3 Y194,1 <= +70
 c5211: +57.3 Y194,2 <= +60
 c5212: +57.3 Y194,3 <= +50
 c5213: +57.3 Y194,4 <= +40
 c5214: +57.3 Y194,5 <= +70
 c5215: +57.3 Y194,6 <= +80
 c5216: +55.3 Y195,0 <= +70
 c5217: +55.3 Y195,1 <= +70
 c5218: +55.3 Y195,2 <= +60
 c5219: +55.3 Y195,3 <= +50
 c5220: +55.3 Y195,4 <= +40
 c5221: +55.3 Y195,5 <= +70
 c5222: +55.3 Y195,6 <= +80
 c5223: +56.3 Y196,0 <= +70
 c5224: +56.3 Y196,1 <= +70
 c5225: +56.3 Y196,2 <= +60
 c5226: +56.3 Y196,3 <= +50
 c5227: +56.3 Y196,4 <= +40
 c5228: +56.3 Y196,5 <= +70
 c5229: +56.3 Y196,6 <= +80
 c5230: +60.1 Y197,0 <= +70
 c5231: +60.1 Y197,1 <= +70
 c5232: +60.1 Y197,2 <= +60
 c5233: +60.1 Y197,3 <= +50
 c5234: +60.1 Y197,4 <= +40
 c5235: +60.1 Y197,5 <= +70
 c5236: +60.1 Y197,6 <= +80
 c5237: +61.1 Y198,0 <= +70
 c5238: +61.1 Y198,1 <= +70
 c5239: +61.1 Y198,2 <= +60
 c5240: +61.1 Y198,3 <= +50
 c5241: +61.1 Y198,4 <= +40
 c5242: +61.1 Y198,5 <= +70
 c5243: +61.1 Y198,6 <= +80
 c5244: +59.1 Y199,0 <= +70
 c5245: +59.1 Y199,1 <= +70
 c5246: +59.1 Y199,2 <= +60
 c5247: +59.1 Y199,3 <= +50
 c5248: +59.1 Y199,4 <= +40
 c5249: +59.1 Y199,5 <= +70
 c5250: +59.1 Y199,6 <= +80
 c5251: +78.9 Y200,0 <= +70
 c5252: +78.9 Y200,1 <= +70
 c5253: +78.9 Y200,2 <= +60
 c5254: +78.9 Y200,3 <= +50
 c5255: +78.9 Y200,4 <= +40
 c5256: +78.9 Y200,5 <= +70
 c5257: +78.9 Y200,6 <= +80
 c5258: +73.6 Y201,0 <= +70
 c5259: +73.6 Y201,1 <= +70
 c5260: +73.6 Y201,2 <= +60
 c5261: +73.6 Y201,3 <= +50
 c5262: +73.6 Y201,4 <= +40
 c5263: +73.6 Y201,5 <= +70
 c5264: +73.6 Y201,6 <= +80
 c5265: +78.4 Y202,0 <= +70
 c5266: +78.4 Y202,1 <= +70
 c5267: +78.4 Y202,2 <= +60
 c5268: +78.4 Y202,3 <= +50
 c5269: +78.4 Y202,4 <= +40
 c5270: +78.4 Y202,5 <= +70
 c5271: +78.4 Y202,6 <= +80
 c5272: +76.4 Y203,0 <= +70
 c5273: +76.4 Y203,1 <= +70
 c5274: +76.4 Y203,2 <= +60
 c5275: +76.4 Y203,3 <= +50
 c5276: +76.4 Y203,4 <= +40
 c5277: +76.4 Y203,5 <= +70
 c5278: +76.4 Y203,6 <= +80
 c5279: +77.4 Y204,0 <= +70
 c5280: +77.4 Y204,1 <= +70
 c5281: +77.4 Y204,2 <= +60
 c5282: +77.4 Y204,3 <= +50
 c5283: +77.4 Y204,4 <= +40
 c5284: +77.4 Y204,5 <= +70
 c5285: +77.4 Y204,6 <= +80
 c5286: +78.6 Y205,0 <= +70
 c5287: +78.6 Y205,1 <= +70
 c5288: +78.6 Y205,2 <= +60
 c5289: +78.6 Y205,3 <= +50
 c5290: +78.6 Y205,4 <= +40
 c5291: +78.6 Y205,5 <= +70
 c5292: +78.6 Y205,6 <= +80
 c5293: +60 Y206,0 <= +70
 c5294: +60 Y206,1 <= +70
 c5295: +60 Y206,2 <= +60
 c5296: +60 Y206,3 <= +50
 c5297: +60 Y206,4 <= +40
 c5298: +60 Y206,5 <= +70
 c5299: +60 Y206,6 <= +80
 c5300: +64.8 Y207,0 <= +70
 c5301: +64.8 Y207,1 <= +70
 c5302: +64.8 Y207,2 <= +60
 c5303: +64.8 Y207,3 <= +50
 c5304: +64.8 Y207,4 <= +40
 c5305: +64.8 Y207,5 <= +70
 c5306: +64.8 Y207,6 <= +80
 c5307: +62.8 Y208,0 <= +70
 c5308: +62.8 Y208,1 <= +70
 c5309: +62.8 Y208,2 <= +60
 c5310: +62.8 Y208,3 <= +50
 c5311: +62.8 Y208,4 <= +40
 c5312: +62.8 Y208,5 <= +70
 c5313: +62.8 Y208,6 <= +80
 c5314: +63.8 Y209,0 <= +70
 c5315: +63.8 Y209,1 <= +70
 c5316: +63.8 Y209,2 <= +60
 c5317: +63.8 Y209,3 <= +50
 c5318: +63.8 Y209,4 <= +40
 c5319: +63.8 Y209,5 <= +70
 c5320: +63.8 Y209,6 <= +80
 c5321: +73.3 Y210,0 <= +70
 c5322: +73.3 Y210,1 <= +70
 c5323: +73.3 Y210,2 <= +60
 c5324: +73.3 Y210,3 <= +50
 c5325: +73.3 Y210,4 <= +40
 c5326: +73.3 Y210,5 <= +70
 c5327: +73.3 Y210,6 <= +80
 c5328: +78.1 Y211,0 <= +70
 c5329: +78.1 Y211,1 <= +70
 c5330: +78.1 Y211,2 <= +60
 c5331: +78.1 Y211,3 <= +50
 c5332: +78.1 Y211,4 <= +40
 c5333: +78.1 Y211,5 <= +70
 c5334: +78.1 Y211,6 <= +80
 c5335: +76.1 Y212,0 <= +70
 c5336: +76.1 Y212,1 <= +70
 c5337: +76.1 Y212,2 <= +60
 c5338: +76.1 Y212,3 <= +50
 c5339: +76.1 Y212,4 <= +40
 c5340: +76.1 Y212,5 <= +70
 c5341: +76.1 Y212,6 <= +80
 c5342: +77.1 Y213,0 <= +70
 c5343: +77.1 Y213,1 <= +70
 c5344: +77.1 Y213,2 <= +60
 c5345: +77.1 Y213,3 <= +50
 c5346: +77.1 Y213,4 <= +40
 c5347: +77.1 Y213,5 <= +70
 c5348: +77.1 Y213,6 <= +80
 c5349: +59.5 Y214,0 <= +70
 c5350: +59.5 Y214,1 <= +70
 c5351: +59.5 Y214,2 <= +60
 c5352: +59.5 Y214,3 <= +50
 c5353: +59.5 Y214,4 <= +40
 c5354: +59.5 Y214,5 <= +70
 c5355: +59.5 Y214,6 <= +80
 c5356: +57.5 Y215,0 <= +70
 c5357: +57.5 Y215,1 <= +70
 c5358: +57.5 Y215,2 <= +60
 c5359: +57.5 Y215,3 <= +50
 c5360: +57.5 Y215,4 <= +40
 c5361: +57.5 Y215,5 <= +70
 c5362: +57.5 Y215,6 <= +80
 c5363: +58.5 Y216,0 <= +70
 c5364: +58.5 Y216,1 <= +70
 c5365: +58.5 Y216,2 <= +60
 c5366: +58.5 Y216,3 <= +50
 c5367: +58.5 Y216,4 <= +40
 c5368: +58.5 Y216,5 <= +70
 c5369: +58.5 Y216,6 <= +80
 c5370: +62.3 Y217,0 <= +70
 c5371: +62.3 Y217,1 <= +70
 c5372: +62.3 Y217,2 <= +60
 c5373: +62.3 Y217,3 <= +50
 c5374: +62.3 Y217,4 <= +40
 c5375: +62.3 Y217,5 <= +70
 c5376: +62.3 Y217,6 <= +80
 c5377: +63.3 Y218,0 <= +70
 c5378: +63.3 Y218,1 <= +70
 c5379: +63.3 Y218,2 <= +60
 c5380: +63.3 Y218,3 <= +50
 c5381: +63.3 Y218,4 <= +40
 c5382: +63.3 Y218,5 <= +70
 c5383: +63.3 Y218,6 <= +80
 c5384: +61.3 Y219,0 <= +70
 c5385: +61.3 Y219,1 <= +70
 c5386: +61.3 Y219,2 <= +60
 c5387: +61.3 Y219,3 <= +50
 c5388: +61.3 Y219,4 <= +40
 c5389: +61.3 Y219,5 <= +70
 c5390: +61.3 Y219,6 <= +80
 c5391: +79.6 Y220,0 <= +70
 c5392: +79.6 Y220,1 <= +70
 c5393: +79.6 Y220,2 <= +60
 c5394: +79.6 Y220,3 <= +50
 c5395: +79.6 Y220,4 <= +40
 c5396: +79.6 Y220,5 <= +70
 c5397: +79.6 Y220,6 <= +80
 c5398: +61 Y221,0 <= +70
 c5399: +61 Y221,1 <= +70
 c5400: +61 Y221,2 <= +60
 c5401: +61 Y221,3 <= +50
 c5402: +61 Y221,4 <= +40
 c5403: +61 Y221,5 <= +70
 c5404: +61 Y221,6 <= +80
 c5405: +65.8 Y222,0 <= +70
 c5406: +65.8 Y222,1 <= +70
 c5407: +65.8 Y222,2 <= +60
 c5408: +65.8 Y222,3 <= +50
 c5409: +65.8 Y222,4 <= +40
 c5410: +65.8 Y222,5 <= +70
 c5411: +65.8 Y222,6 <= +80
 c5412: +63.8 Y223,0 <= +70
 c5413: +63.8 Y223,1 <= +70
 c5414: +63.8 Y223,2 <= +60
 c5415: +63.8 Y223,3 <= +50
 c5416: +63.8 Y223,4 <= +40
 c5417: +63.8 Y223,5 <= +70
 c5418: +63.8 Y223,6 <= +80
 c5419: +64.8 Y224,0 <= +70
 c5420: +64.8 Y224,1 <= +70
 c5421: +64.8 Y224,2 <= +60
 c5422: +64.8 Y224,3 <= +50
 c5423: +64.8 Y224,4 <= +40
 c5424: +64.8 Y224,5 <= +70
 c5425: +64.8 Y224,6 <= +80
 c5426: +74.3 Y225,0 <= +70
 c5427: +74.3 Y225,1 <= +70
 c5428: +74.3 Y225,2 <= +60
 c5429: +74.3 Y225,3 <= +50
 c5430: +74.3 Y225,4 <= +40
 c5431: +74.3 Y225,5 <= +70
 c5432: +74.3 Y225,6 <= +80
 c5433: +79.1 Y226,0 <= +70
 c5434: +79.1 Y226,1 <= +70
 c5435: +79.1 Y226,2 <= +60
 c5436: +79.1 Y226,3 <= +50
 c5437: +79.1 Y226,4 <= +40
 c5438: +79.1 Y226,5 <= +70
 c5439: +79.1 Y226,6 <= +80
 c5440: +77.1 Y227,0 <= +70
 c5441: +77.1 Y227,1 <= +70
 c5442: +77.1 Y227,2 <= +60
 c5443: +77.1 Y227,3 <= +50
 c5444: +77.1 Y227,4 <= +40
 c5445: +77.1 Y227,5 <= +70
 c5446: +77.1 Y227,6 <= +80
 c5447: +78.1 Y228,0 <= +70
 c5448: +78.1 Y228,1 <= +70
 c5449: +78.1 Y228,2 <= +60
 c5450: +78.1 Y228,3 <= +50
 c5451: +78.1 Y228,4 <= +40
 c5452: +78.1 Y228,5 <= +70
 c5453: +78.1 Y228,6 <= +80
 c5454: +60.5 Y229,0 <= +70
 c5455: +60.5 Y229,1 <= +70
 c5456: +60.5 Y229,2 <= +60
 c5457: +60.5 Y229,3 <= +50
 c5458: +60.5 Y229,4 <= +40
 c5459: +60.5 Y229,5 <= +70
 c5460: +60.5 Y229,6 <= +80
 c5461: +58.5 Y230,0 <= +70
 c5462: +58.5 Y230,1 <= +70
 c5463: +58.5 Y230,2 <= +60
 c5464: +58.5 Y230,3 <= +50
 c5465: +58.5 Y230,4 <= +40
 c5466: +58.5 Y230,5 <= +70
 c5467: +58.5 Y230,6 <= +80
 c5468: +59.5 Y231,0 <= +70
 c5469: +59.5 Y231,1 <= +70
 c5470: +59.5 Y231,2 <= +60
 c5471: +59.5 Y231,3 <= +50
 c5472: +59.5 Y231,4 <= +40
 c5473: +59.5 Y231,5 <= +70
 c5474: +59.5 Y231,6 <= +80
 c5475: +63.3 Y232,0 <= +70
 c5476: +63.3 Y232,1 <= +70
 c5477: +63.3 Y232,2 <= +60
 c5478: +63.3 Y232,3 <= +50
 c5479: +63.3 Y232,4 <= +40
 c5480: +63.3 Y232,5 <= +70
 c5481: +63.3 Y232,6 <= +80
 c5482: +64.3 Y233,0 <= +70
 c5483: +64.3 Y233,1 <= +70
 c5484: +64.3 Y233,2 <= +60
 c5485: +64.3 Y233,3 <= +50
 c5486: +64.3 Y233,4 <= +40
 c5487: +64.3 Y233,5 <= +70
 c5488: +64.3 Y233,6 <= +80
 c5489: +62.3 Y234,0 <= +70
 c5490: +62.3 Y234,1 <= +70
 c5491: +62.3 Y234,2 <= +60
 c5492: +62.3 Y234,3 <= +50
 c5493: +62.3 Y234,4 <= +40
 c5494: +62.3 Y234,5 <= +70
 c5495: +62.3 Y234,6 <= +80
 c5496: +60.7 Y235,0 <= +70
 c5497: +60.7 Y235,1 <= +70
 c5498: +60.7 Y235,2 <= +60
 c5499: +60.7 Y235,3 <= +50
 c5500: +60.7 Y235,4 <= +40
 c5501: +60.7 Y235,5 <= +70
 c5502: +60.7 Y235,6 <= +80
 c5503: +65.5 Y236,0 <= +70
 c5504: +65.5 Y236,1 <= +70
 c5505: +65.5 Y236,2 <= +60
 c5506: +65.5 Y236,3 <= +50
 c5507: +65.5 Y236,4 <= +40
 c5508: +65.5 Y236,5 <= +70
 c5509: +65.5 Y236,6 <= +80
 c5510: +63.5 Y237,0 <= +70
 c5511: +63.5 Y237,1 <= +70
 c5512: +63.5 Y237,2 <= +60
 c5513: +63.5 Y237,3 <= +50
 c5514: +63.5 Y237,4 <= +40
 c5515: +63.5 Y237,5 <= +70
 c5516: +63.5 Y237,6 <= +80
 c5517: +64.5 Y238,0 <= +70
 c5518: +64.5 Y238,1 <= +70
 c5519: +64.5 Y238,2 <= +60
 c5520: +64.5 Y238,3 <= +50
 c5521: +64.5 Y238,4 <= +40
 c5522: +64.5 Y238,5 <= +70
 c5523: +64.5 Y238,6 <= +80
 c5524: +46.9 Y239,0 <= +70
 c5525: +46.9 Y239,1 <= +70
 c5526: +46.9 Y239,2 <= +60
 c5527: +46.9 Y239,3 <= +50
 c5528: +46.9 Y239,4 <= +40
 c5529: +46.9 Y239,5 <= +70
 c5530: +46.9 Y239,6 <= +80
 c5531: +44.9 Y240,0 <= +70
 c5532: +44.9 Y240,1 <= +70
 c5533: +44.9 Y240,2 <= +60
 c5534: +44.9 Y240,3 <= +50
 c5535: +44.9 Y240,4 <= +40
 c5536: +44.9 Y240,5 <= +70
 c5537: +44.9 Y240,6 <= +80
 c5538: +45.9 Y241,0 <= +70
 c5539: +45.9 Y241,1 <= +70
 c5540: +45.9 Y241,2 <= +60
 c5541: +45.9 Y241,3 <= +50
 c5542: +45.9 Y241,4 <= +40
 c5543: +45.9 Y241,5 <= +70
 c5544: +45.9 Y241,6 <= +80
 c5545: +49.7 Y242,0 <= +70
 c5546: +49.7 Y242,1 <= +70
 c5547: +49.7 Y242,2 <= +60
 c5548: +49.7 Y242,3 <= +50
 c5549: +49.7 Y242,4 <= +40
 c5550: +49.7 Y242,5 <= +70
 c5551: +49.7 Y242,6 <= +80
 c5552: +50.7 Y243,0 <= +70
 c5553: +50.7 Y243,1 <= +70
 c5554: +50.7 Y243,2 <= +60
 c5555: +50.7 Y243,3 <= +50
 c5556: +50.7 Y243,4 <= +40
 c5557: +50.7 Y243,5 <= +70
 c5558: +50.7 Y243,6 <= +80
 c5559: +48.7 Y244,0 <= +70
 c5560: +48.7 Y244,1 <= +70
 c5561: +48.7 Y244,2 <= +60
 c5562: +48.7 Y244,3 <= +50
 c5563: +48.7 Y244,4 <= +40
 c5564: +48.7 Y244,5 <= +70
 c5565: +48.7 Y244,6 <= +80
 c5566: +60.2 Y245,0 <= +70
 c5567: +60.2 Y245,1 <= +70
 c5568: +60.2 Y245,2 <= +60
 c5569: +60.2 Y245,3 <= +50
 c5570: +60.2 Y245,4 <= +40
 c5571: +60.2 Y245,5 <= +70
 c5572: +60.2 Y245,6 <= +80
 c5573: +58.2 Y246,0 <= +70
 c5574: +58.2 Y246,1 <= +70
 c5575: +58.2 Y246,2 <= +60
 c5576: +58.2 Y246,3 <= +50
 c5577: +58.2 Y246,4 <= +40
 c5578: +58.2 Y246,5 <= +70
 c5579: +58.2 Y246,6 <= +80
 c5580: +59.2 Y247,0 <= +70
 c5581: +59.2 Y247,1 <= +70
 c5582: +59.2 Y247,2 <= +60
 c5583: +59.2 Y247,3 <= +50
 c5584: +59.2 Y247,4 <= +40
 c5585: +59.2 Y247,5 <= +70
 c5586: +59.2 Y247,6 <= +80
 c5587: +63 Y248,0 <= +70
 c5588: +63 Y248,1 <= +70
 c5589: +63 Y248,2 <= +60
 c5590: +63 Y248,3 <= +50
 c5591: +63 Y248,4 <= +40
 c5592: +63 Y248,5 <= +70
 c5593: +63 Y248,6 <= +80
 c5594: +64 Y249,0 <= +70
 c5595: +64 Y249,1 <= +70
 c5596: +64 Y249,2 <= +60
 c5597: +64 Y249,3 <= +50
 c5598: +64 Y249,4 <= +40
 c5599: +64 Y249,5 <= +70
 c5600: +64 Y249,6 <= +80
 c5601: +62 Y250,0 <= +70
 c5602: +62 Y250,1 <= +70
 c5603: +62 Y250,2 <= +60
 c5604: +62 Y250,3 <= +50
 c5605: +62 Y250,4 <= +40
 c5606: +62 Y250,5 <= +70
 c5607: +62 Y250,6 <= +80
 c5608: +44.4 Y251,0 <= +70
 c5609: +44.4 Y251,1 <= +70
 c5610: +44.4 Y251,2 <= +60
 c5611: +44.4 Y251,3 <= +50
 c5612: +44.4 Y251,4 <= +40
 c5613: +44.4 Y251,5 <= +70
 c5614: +44.4 Y251,6 <= +80
 c5615: +45.4 Y252,0 <= +70
 c5616: +45.4 Y252,1 <= +70
 c5617: +45.4 Y252,2 <= +60
 c5618: +45.4 Y252,3 <= +50
 c5619: +45.4 Y252,4 <= +40
 c5620: +45.4 Y252,5 <= +70
 c5621: +45.4 Y252,6 <= +80
 c5622: +43.4 Y253,0 <= +70
 c5623: +43.4 Y253,1 <= +70
 c5624: +43.4 Y253,2 <= +60
 c5625: +43.4 Y253,3 <= +50
 c5626: +43.4 Y253,4 <= +40
 c5627: +43.4 Y253,5 <= +70
 c5628: +43.4 Y253,6 <= +80
 c5629: +48.2 Y254,0 <= +70
 c5630: +48.2 Y254,1 <= +70
 c5631: +48.2 Y254,2 <= +60
 c5632: +48.2 Y254,3 <= +50
 c5633: +48.2 Y254,4 <= +40
 c5634: +48.2 Y254,5 <= +70
 c5635: +48.2 Y254,6 <= +80
 c5636: +79 Y255,0 <= +70
 c5637: +79 Y255,1 <= +70
 c5638: +79 Y255,2 <= +60
 c5639: +79 Y255,3 <= +50
 c5640: +79 Y255,4 <= +40
 c5641: +79 Y255,5 <= +70
 c5642: +79 Y255,6 <= +80
 c5643: +73.7 Y256,0 <= +70
 c5644: +73.7 Y256,1 <= +70
 c5645: +73.7 Y256,2 <= +60
 c5646: +73.7 Y256,3 <= +50
 c5647: +73.7 Y256,4 <= +40
 c5648: +73.7 Y256,5 <= +70
 c5649: +73.7 Y256,6 <= +80
 c5650: +78.5 Y257,0 <= +70
 c5651: +78.5 Y257,1 <= +70
 c5652: +78.5 Y257,2 <= +60
 c5653: +78.5 Y257,3 <= +50
 c5654: +78.5 Y257,4 <= +40
 c5655: +78.5 Y257,5 <= +70
 c5656: +78.5 Y257,6 <= +80
 c5657: +76.5 Y258,0 <= +70
 c5658: +76.5 Y258,1 <= +70
 c5659: +76.5 Y258,2 <= +60
 c5660: +76.5 Y258,3 <= +50
 c5661: +76.5 Y258,4 <= +40
 c5662: +76.5 Y258,5 <= +70
 c5663: +76.5 Y258,6 <= +80
 c5664: +77.5 Y259,0 <= +70
 c5665: +77.5 Y259,1 <= +70
 c5666: +77.5 Y259,2 <= +60
 c5667: +77.5 Y259,3 <= +50
 c5668: +77.5 Y259,4 <= +40
 c5669: +77.5 Y259,5 <= +70
 c5670: +77.5 Y259,6 <= +80
 c5671: +78.7 Y260,0 <= +70
 c5672: +78.7 Y260,1 <= +70
 c5673: +78.7 Y260,2 <= +60
 c5674: +78.7 Y260,3 <= +50
 c5675: +78.7 Y260,4 <= +40
 c5676: +78.7 Y260,5 <= +70
 c5677: +78.7 Y260,6 <= +80
 c5678: +60.1 Y261,0 <= +70
 c5679: +60.1 Y261,1 <= +70
 c5680: +60.1 Y261,2 <= +60
 c5681: +60.1 Y261,3 <= +50
 c5682: +60.1 Y261,4 <= +40
 c5683: +60.1 Y261,5 <= +70
 c5684: +60.1 Y261,6 <= +80
 c5685: +64.9 Y262,0 <= +70
 c5686: +64.9 Y262,1 <= +70
 c5687: +64.9 Y262,2 <= +60
 c5688: +64.9 Y262,3 <= +50
 c5689: +64.9 Y262,4 <= +40
 c5690: +64.9 Y262,5 <= +70
 c5691: +64.9 Y262,6 <= +80
 c5692: +62.9 Y263,0 <= +70
 c5693: +62.9 Y263,1 <= +70
 c5694: +62.9 Y263,2 <= +60
 c5695: +62.9 Y263,3 <= +50
 c5696: +62.9 Y263,4 <= +40
 c5697: +62.9 Y263,5 <= +70
 c5698: +62.9 Y263,6 <= +80
 c5699: +63.9 Y264,0 <= +70
 c5700: +63.9 Y264,1 <= +70
 c5701: +63.9 Y264,2 <= +60
 c5702: +63.9 Y264,3 <= +50
 c5703: +63.9 Y264,4 <= +40
 c5704: +63.9 Y264,5 <= +70
 c5705: +63.9 Y264,6 <= +80
 c5706: +73.4 Y265,0 <= +70
 c5707: +73.4 Y265,1 <= +70
 c5708: +73.4 Y265,2 <= +60
 c5709: +73.4 Y265,3 <= +50
 c5710: +73.4 Y265,4 <= +40
 c5711: +73.4 Y265,5 <= +70
 c5712: +73.4 Y265,6 <= +80
 c5713: +78.2 Y266,0 <= +70
 c5714: +78.2 Y266,1 <= +70
 c5715: +78.2 Y266,2 <= +60
 c5716: +78.2 Y266,3 <= +50
 c5717: +78.2 Y266,4 <= +40
 c5718: +78.2 Y266,5 <= +70
 c5719: +78.2 Y266,6 <= +80
 c5720: +76.2 Y267,0 <= +70
 c5721: +76.2 Y267,1 <= +70
 c5722: +76.2 Y267,2 <= +60
 c5723: +76.2 Y267,3 <= +50
 c5724: +76.2 Y267,4 <= +40
 c5725: +76.2 Y267,5 <= +70
 c5726: +76.2 Y267,6 <= +80
 c5727: +77.2 Y268,0 <= +70
 c5728: +77.2 Y268,1 <= +70
 c5729: +77.2 Y268,2 <= +60
 c5730: +77.2 Y268,3 <= +50
 c5731: +77.2 Y268,4 <= +40
 c5732: +77.2 Y268,5 <= +70
 c5733: +77.2 Y268,6 <= +80
 c5734: +59.6 Y269,0 <= +70
 c5735: +59.6 Y269,1 <= +70
 c5736: +59.6 Y269,2 <= +60
 c5737: +59.6 Y269,3 <= +50
 c5738: +59.6 Y269,4 <= +40
 c5739: +59.6 Y269,5 <= +70
 c5740: +59.6 Y269,6 <= +80
 c5741: +57.6 Y270,0 <= +70
 c5742: +57.6 Y270,1 <= +70
 c5743: +57.6 Y270,2 <= +60
 c5744: +57.6 Y270,3 <= +50
 c5745: +57.6 Y270,4 <= +40
 c5746: +57.6 Y270,5 <= +70
 c5747: +57.6 Y270,6 <= +80
 c5748: +58.6 Y271,0 <= +70
 c5749: +58.6 Y271,1 <= +70
 c5750: +58.6 Y271,2 <= +60
 c5751: +58.6 Y271,3 <= +50
 c5752: +58.6 Y271,4 <= +40
 c5753: +58.6 Y271,5 <= +70
 c5754: +58.6 Y271,6 <= +80
 c5755: +62.4 Y272,0 <= +70
 c5756: +62.4 Y272,1 <= +70
 c5757: +62.4 Y272,2 <= +60
 c5758: +62.4 Y272,3 <= +50
 c5759: +62.4 Y272,4 <= +40
 c5760: +62.4 Y272,5 <= +70
 c5761: +62.4 Y272,6 <= +80
 c5762: +63.4 Y273,0 <= +70
 c5763: +63.4 Y273,1 <= +70
 c5764: +63.4 Y273,2 <= +60
 c5765: +63.4 Y273,3 <= +50
 c5766: +63.4 Y273,4 <= +40
 c5767: +63.4 Y273,5 <= +70
 c5768: +63.4 Y273,6 <= +80
 c5769: +61.4 Y274,0 <= +70
 c5770: +61.4 Y274,1 <= +70
 c5771: +61.4 Y274,2 <= +60
 c5772: +61.4 Y274,3 <= +50
 c5773: +61.4 Y274,4 <= +40
 c5774: +61.4 Y274,5 <= +70
 c5775: +61.4 Y274,6 <= +80
 c5776: +79.7 Y275,0 <= +70
 c5777: +79.7 Y275,1 <= +70
 c5778: +79.7 Y275,2 <= +60
 c5779: +79.7 Y275,3 <= +50
 c5780: +79.7 Y275,4 <= +40
 c5781: +79.7 Y275,5 <= +70
 c5782: +79.7 Y275,6 <= +80
 c5783: +61.1 Y276,0 <= +70
 c5784: +61.1 Y276,1 <= +70
 c5785: +61.1 Y276,2 <= +60
 c5786: +61.1 Y276,3 <= +50
 c5787: +61.1 Y276,4 <= +40
 c5788: +61.1 Y276,5 <= +70
 c5789: +61.1 Y276,6 <= +80
 c5790: +65.9 Y277,0 <= +70
 c5791: +65.9 Y277,1 <= +70
 c5792: +65.9 Y277,2 <= +60
 c5793: +65.9 Y277,3 <= +50
 c5794: +65.9 Y277,4 <= +40
 c5795: +65.9 Y277,5 <= +70
 c5796: +65.9 Y277,6 <= +80
 c5797: +63.9 Y278,0 <= +70
 c5798: +63.9 Y278,1 <= +70
 c5799: +63.9 Y278,2 <= +60
 c5800: +63.9 Y278,3 <= +50
 c5801: +63.9 Y278,4 <= +40
 c5802: +63.9 Y278,5 <= +70
 c5803: +63.9 Y278,6 <= +80
 c5804: +64.9 Y279,0 <= +70
 c5805: +64.9 Y279,1 <= +70
 c5806: +64.9 Y279,2 <= +60
 c5807: +64.9 Y279,3 <= +50
 c5808: +64.9 Y279,4 <= +40
 c5809: +64.9 Y279,5 <= +70
 c5810: +64.9 Y279,6 <= +80
 c5811: +74.4 Y280,0 <= +70
 c5812: +74.4 Y280,1 <= +70
 c5813: +74.4 Y280,2 <= +60
 c5814: +74.4 Y280,3 <= +50
 c5815: +74.4 Y280,4 <= +40
 c5816: +74.4 Y280,5 <= +70
 c5817: +74.4 Y280,6 <= +80
 c5818: +79.2 Y281,0 <= +70
 c5819: +79.2 Y281,1 <= +70
 c5820: +79.2 Y281,2 <= +60
 c5821: +79.2 Y281,3 <= +50
 c5822: +79.2 Y281,4 <= +40
 c5823: +79.2 Y281,5 <= +70
 c5824: +79.2 Y281,6 <= +80
 c5825: +77.2 Y282,0 <= +70
 c5826: +77.2 Y282,1 <= +70
 c5827: +77.2 Y282,2 <= +60
 c5828: +77.2 Y282,3 <= +50
 c5829: +77.2 Y282,4 <= +40
 c5830: +77.2 Y282,5 <= +70
 c5831: +77.2 Y282,6 <= +80
 c5832: +78.2 Y283,0 <= +70
 c5833: +78.2 Y283,1 <= +70
 c5834: +78.2 Y283,2 <= +60
 c5835: +78.2 Y283,3 <= +50
 c5836: +78.2 Y283,4 <= +40
 c5837: +78.2 Y283,5 <= +70
 c5838: +78.2 Y283,6 <= +80
 c5839: +60.6 Y284,0 <= +70
 c5840: +60.6 Y284,1 <= +70
 c5841: +60.6 Y284,2 <= +60
 c5842: +60.6 Y284,3 <= +50
 c5843: +60.6 Y284,4 <= +40
 c5844: +60.6 Y284,5 <= +70
 c5845: +60.6 Y284,6 <= +80
 c5846: +58.6 Y285,0 <= +70
 c5847: +58.6 Y285,1 <= +70
 c5848: +58.6 Y285,2 <= +60
 c5849: +58.6 Y285,3 <= +50
 c5850: +58.6 Y285,4 <= +40
 c5851: +58.6 Y285,5 <= +70
 c5852: +58.6 Y285,6 <= +80
 c5853: +59.6 Y286,0 <= +70
 c5854: +59.6 Y286,1 <= +70
 c5855: +59.6 Y286,2 <= +60
 c5856: +59.6 Y286,3 <= +50
 c5857: +59.6 Y286,4 <= +40
 c5858: +59.6 Y286,5 <= +70
 c5859: +59.6 Y286,6 <= +80
 c5860: +63.4 Y287,0 <= +70
 c5861: +63.4 Y287,1 <= +70
 c5862: +63.4 Y287,2 <= +60
 c5863: +63.4 Y287,3 <= +50
 c5864: +63.4 Y287,4 <= +40
 c5865: +63.4 Y287,5 <= +70
 c5866: +63.4 Y287,6 <= +80
 c5867: +64.4 Y288,0 <= +70
 c5868: +64.4 Y288,1 <= +70
 c5869: +64.4 Y288,2 <= +60
 c5870: +64.4 Y288,3 <= +50
 c5871: +64.4 Y288,4 <= +40
 c5872: +64.4 Y288,5 <= +70
 c5873: +64.4 Y288,6 <= +80
 c5874: +62.4 Y289,0 <= +70
 c5875: +62.4 Y289,1 <= +70
 c5876: +62.4 Y289,2 <= +60
 c5877: +62.4 Y289,3 <= +50
 c5878: +62.4 Y289,4 <= +40
 c5879: +62.4 Y289,5 <= +70
 c5880: +62.4 Y289,6 <= +80
 c5881: +60.8 Y290,0 <= +70
 c5882: +60.8 Y290,1 <= +70
 c5883: +60.8 Y290,2 <= +60
 c5884: +60.8 Y290,3 <= +50
 c5885: +60.8 Y290,4 <= +40
 c5886: +60.8 Y290,5 <= +70
 c5887: +60.8 Y290,6 <= +80
 c5888: +65.6 Y291,0 <= +70
 c5889: +65.6 Y291,1 <= +70
 c5890: +65.6 Y291,2 <= +60
 c5891: +65.6 Y291,3 <= +50
 c5892: +65.6 Y291,4 <= +40
 c5893: +65.6 Y291,5 <= +70
 c5894: +65.6 Y291,6 <= +80
 c5895: +63.6 Y292,0 <= +70
 c5896: +63.6 Y292,1 <= +70
 c5897: +63.6 Y292,2 <= +60
 c5898: +63.6 Y292,3 <= +50
 c5899: +63.6 Y292,4 <= +40
 c5900: +63.6 Y292,5 <= +70
 c5901: +63.6 Y292,6 <= +80
 c5902: +64.6 Y293,0 <= +70
 c5903: +64.6 Y293,1 <= +70
 c5904: +64.6 Y293,2 <= +60
 c5905: +64.6 Y293,3 <= +50
 c5906: +64.6 Y293,4 <= +40
 c5907: +64.6 Y293,5 <= +70
 c5908: +64.6 Y293,6 <= +80
 c5909: +47 Y294,0 <= +70
 c5910: +47 Y294,1 <= +70
 c5911: +47 Y294,2 <= +60
 c5912: +47 Y294,3 <= +50
 c5913: +47 Y294,4 <= +40
 c5914: +47 Y294,5 <= +70
 c5915: +47 Y294,6 <= +80
 c5916: +45 Y295,0 <= +70
 c5917: +45 Y295,1 <= +70
 c5918: +45 Y295,2 <= +60
 c5919: +45 Y295,3 <= +50
 c5920: +45 Y295,4 <= +40
 c5921: +45 Y295,5 <= +70
 c5922: +45 Y295,6 <= +80
 c5923: +46 Y296,0 <= +70
 c5924: +46 Y296,1 <= +70
 c5925: +46 Y296,2 <= +60
 c5926: +46 Y296,3 <= +50
 c5927: +46 Y296,4 <= +40
 c5928: +46 Y296,5 <= +70
 c5929: +46 Y296,6 <= +80
 c5930: +49.8 Y297,0 <= +70
 c5931: +49.8 Y297,1 <= +70
 c5932: +49.8 Y297,2 <= +60
 c5933: +49.8 Y297,3 <= +50
 c5934: +49.8 Y297,4 <= +40
 c5935: +49.8 Y297,5 <= +70
 c5936: +49.8 Y297,6 <= +80
 c5937: +50.8 Y298,0 <= +70
 c5938: +50.8 Y298,1 <= +70
 c5939: +50.8 Y298,2 <= +60
 c5940: +50.8 Y298,3 <= +50
 c5941: +50.8 Y298,4 <= +40
 c5942: +50.8 Y298,5 <= +70
 c5943: +50.8 Y298,6 <= +80
 c5944: +48.8 Y299,0 <= +70
 c5945: +48.8 Y299,1 <= +70
 c5946: +48.8 Y299,2 <= +60
 c5947: +48.8 Y299,3 <= +50
 c5948: +48.8 Y299,4 <= +40
 c5949: +48.8 Y299,5 <= +70
 c5950: +48.8 Y299,6 <= +80
 c5951: +60.3 Y300,0 <= +70
 c5952: +60.3 Y300,1 <= +70
 c5953: +60.3 Y300,2 <= +60
 c5954: +60.3 Y300,3 <= +50
 c5955: +60.3 Y300,4 <= +40
 c5956: +60.3 Y300,5 <= +70
 c5957: +60.3 Y300,6 <= +80
 c5958: +58.3 Y301,0 <= +70
 c5959: +58.3 Y301,1 <= +70
 c5960: +58.3 Y301,2 <= +60
 c5961: +58.3 Y301,3 <= +50
 c5962: +58.3 Y301,4 <= +40
 c5963: +58.3 Y301,5 <= +70
 c5964: +58.3 Y301,6 <= +80
 c5965: +59.3 Y302,0 <= +70
 c5966: +59.3 Y302,1 <= +70
 c5967: +59.3 Y302,2 <= +60
 c5968: +59.3 Y302,3 <= +50
 c5969: +59.3 Y302,4 <= +40
 c5970: +59.3 Y302,5 <= +70
 c5971: +59.3 Y302,6 <= +80
 c5972: +63.1 Y303,0 <= +70
 c5973: +63.1 Y303,1 <= +70
 c5974: +63.1 Y303,2 <= +60
 c5975: +63.1 Y303,3 <= +50
 c5976: +63.1 Y303,4 <= +40
 c5977: +63.1 Y303,5 <= +70
 c5978: +63.1 Y303,6 <= +80
 c5979: +64.1 Y304,0 <= +70
 c5980: +64.1 Y304,1 <= +70
 c5981: +64.1 Y304,2 <= +60
 c5982: +64.1 Y304,3 <= +50
 c5983: +64.1 Y304,4 <= +40
 c5984: +64.1 Y304,5 <= +70
 c5985: +64.1 Y304,6 <= +80
 c5986: +62.1 Y305,0 <= +70
 c5987: +62.1 Y305,1 <= +70
 c5988: +62.1 Y305,2 <= +60
 c5989: +62.1 Y305,3 <= +50
 c5990: +62.1 Y305,4 <= +40
 c5991: +62.1 Y305,5 <= +70
 c5992: +62.1 Y305,6 <= +80
 c5993: +44.5 Y306,0 <= +70
 c5994: +44.5 Y306,1 <= +70
 c5995: +44.5 Y306,2 <= +60
 c5996: +44.5 Y306,3 <= +50
 c5997: +44.5 Y306,4 <= +40
 c5998: +44.5 Y306,5 <= +70
 c5999: +44.5 Y306,6 <= +80
 c6000: +45.5 Y307,0 <= +70
 c6001: +45.5 Y307,1 <= +70
 c6002: +45.5 Y307,2 <= +60
 c6003: +45.5 Y307,3 <= +50
 c6004: +45.5 Y307,4 <= +40
 c6005: +45.5 Y307,5 <= +70
 c6006: +45.5 Y307,6 <= +80
 c6007: +43.5 Y308,0 <= +70
 c6008: +43.5 Y308,1 <= +70
 c6009: +43.5 Y308,2 <= +60
 c6010: +43.5 Y308,3 <= +50
 c6011: +43.5 Y308,4 <= +40
 c6012: +43.5 Y308,5 <= +70
 c6013: +43.5 Y308,6 <= +80
 c6014: +48.3 Y309,0 <= +70
 c6015: +48.3 Y309,1 <= +70
 c6016: +48.3 Y309,2 <= +60
 c6017: +48.3 Y309,3 <= +50
 c6018: +48.3 Y309,4 <= +40
 c6019: +48.3 Y309,5 <= +70
 c6020: +48.3 Y309,6 <= +80
 c6021: +63.3 Y310,0 <= +70
 c6022: +63.3 Y310,1 <= +70
 c6023: +63.3 Y310,2 <= +60
 c6024: +63.3 Y310,3 <= +50
 c6025: +63.3 Y310,4 <= +40
 c6026: +63.3 Y310,5 <= +70
 c6027: +63.3 Y310,6 <= +80
 c6028: +68.1 Y311,0 <= +70
 c6029: +68.1 Y311,1 <= +70
 c6030: +68.1 Y311,2 <= +60
 c6031: +68.1 Y311,3 <= +50
 c6032: +68.1 Y311,4 <= +40
 c6033: +68.1 Y311,5 <= +70
 c6034: +68.1 Y311,6 <= +80
 c6035: +66.1 Y312,0 <= +70
 c6036: +66.1 Y312,1 <= +70
 c6037: +66.1 Y312,2 <= +60
 c6038: +66.1 Y312,3 <= +50
 c6039: +66.1 Y312,4 <= +40
 c6040: +66.1 Y312,5 <= +70
 c6041: +66.1 Y312,6 <= +80
 c6042: +67.1 Y313,0 <= +70
 c6043: +67.1 Y313,1 <= +70
 c6044: +67.1 Y313,2 <= +60
 c6045: +67.1 Y313,3 <= +50
 c6046: +67.1 Y313,4 <= +40
 c6047: +67.1 Y313,5 <= +70
 c6048: +67.1 Y313,6 <= +80
 c6049: +76.6 Y314,0 <= +70
 c6050: +76.6 Y314,1 <= +70
 c6051: +76.6 Y314,2 <= +60
 c6052: +76.6 Y314,3 <= +50
 c6053: +76.6 Y314,4 <= +40
 c6054: +76.6 Y314,5 <= +70
 c6055: +76.6 Y314,6 <= +80
 c6056: +79.4 Y315,0 <= +70
 c6057: +79.4 Y315,1 <= +70
 c6058: +79.4 Y315,2 <= +60
 c6059: +79.4 Y315,3 <= +50
 c6060: +79.4 Y315,4 <= +40
 c6061: +79.4 Y315,5 <= +70
 c6062: +79.4 Y315,6 <= +80
 c6063: +62.8 Y316,0 <= +70
 c6064: +62.8 Y316,1 <= +70
 c6065: +62.8 Y316,2 <= +60
 c6066: +62.8 Y316,3 <= +50
 c6067: +62.8 Y316,4 <= +40
 c6068: +62.8 Y316,5 <= +70
 c6069: +62.8 Y316,6 <= +80
 c6070: +60.8 Y317,0 <= +70
 c6071: +60.8 Y317,1 <= +70
 c6072: +60.8 Y317,2 <= +60
 c6073: +60.8 Y317,3 <= +50
 c6074: +60.8 Y317,4 <= +40
 c6075: +60.8 Y317,5 <= +70
 c6076: +60.8 Y317,6 <= +80
 c6077: +61.8 Y318,0 <= +70
 c6078: +61.8 Y318,1 <= +70
 c6079: +61.8 Y318,2 <= +60
 c6080: +61.8 Y318,3 <= +50
 c6081: +61.8 Y318,4 <= +40
 c6082: +61.8 Y318,5 <= +70
 c6083: +61.8 Y318,6 <= +80
 c6084: +65.6 Y319,0 <= +70
 c6085: +65.6 Y319,1 <= +70
 c6086: +65.6 Y319,2 <= +60
 c6087: +65.6 Y319,3 <= +50
 c6088: +65.6 Y319,4 <= +40
 c6089: +65.6 Y319,5 <= +70
 c6090: +65.6 Y319,6 <= +80
 c6091: +66.6 Y320,0 <= +70
 c6092: +66.6 Y320,1 <= +70
 c6093: +66.6 Y320,2 <= +60
 c6094: +66.6 Y320,3 <= +50
 c6095: +66.6 Y320,4 <= +40
 c6096: +66.6 Y320,5 <= +70
 c6097: +66.6 Y320,6 <= +80
 c6098: +64.6 Y321,0 <= +70
 c6099: +64.6 Y321,1 <= +70
 c6100: +64.6 Y321,2 <= +60
 c6101: +64.6 Y321,3 <= +50
 c6102: +64.6 Y321,4 <= +40
 c6103: +64.6 Y321,5 <= +70
 c6104: +64.6 Y321,6 <= +80
 c6105: +63 Y322,0 <= +70
 c6106: +63 Y322,1 <= +70
 c6107: +63 Y322,2 <= +60
 c6108: +63 Y322,3 <= +50
 c6109: +63 Y322,4 <= +40
 c6110: +63 Y322,5 <= +70
 c6111: +63 Y322,6 <= +80
 c6112: +67.8 Y323,0 <= +70
 c6113: +67.8 Y323,1 <= +70
 c6114: +67.8 Y323,2 <= +60
 c6115: +67.8 Y323,3 <= +50
 c6116: +67.8 Y323,4 <= +40
 c6117: +67.8 Y323,5 <= +70
 c6118: +67.8 Y323,6 <= +80
 c6119: +65.8 Y324,0 <= +70
 c6120: +65.8 Y324,1 <= +70
 c6121: +65.8 Y324,2 <= +60
 c6122: +65.8 Y324,3 <= +50
 c6123: +65.8 Y324,4 <= +40
 c6124: +65.8 Y324,5 <= +70
 c6125: +65.8 Y324,6 <= +80
 c6126: +66.8 Y325,0 <= +70
 c6127: +66.8 Y325,1 <= +70
 c6128: +66.8 Y325,2 <= +60
 c6129: +66.8 Y325,3 <= +50
 c6130: +66.8 Y325,4 <= +40
 c6131: +66.8 Y325,5 <= +70
 c6132: +66.8 Y325,6 <= +80
 c6133: +49.2 Y326,0 <= +70
 c6134: +49.2 Y326,1 <= +70
 c6135: +49.2 Y326,2 <= +60
 c6136: +49.2 Y326,3 <= +50
 c6137: +49.2 Y326,4 <= +40
 c6138: +49.2 Y326,5 <= +70
 c6139: +49.2 Y326,6 <= +80
 c6140: +47.2 Y327,0 <= +70
 c6141: +47.2 Y327,1 <= +70
 c6142: +47.2 Y327,2 <= +60
 c6143: +47.2 Y327,3 <= +50
 c6144: +47.2 Y327,4 <= +40
 c6145: +47.2 Y327,5 <= +70
 c6146: +47.2 Y327,6 <= +80
 c6147: +48.2 Y328,0 <= +70
 c6148: +48.2 Y328,1 <= +70
 c6149: +48.2 Y328,2 <= +60
 c6150: +48.2 Y328,3 <= +50
 c6151: +48.2 Y328,4 <= +40
 c6152: +48.2 Y328,5 <= +70
 c6153: +48.2 Y328,6 <= +80
 c6154: +52 Y329,0 <= +70
 c6155: +52 Y329,1 <= +70
 c6156: +52 Y329,2 <= +60
 c6157: +52 Y329,3 <= +50
 c6158: +52 Y329,4 <= +40
 c6159: +52 Y329,5 <= +70
 c6160: +52 Y329,6 <= +80
 c6161: +53 Y330,0 <= +70
 c6162: +53 Y330,1 <= +70
 c6163: +53 Y330,2 <= +60
 c6164: +53 Y330,3 <= +50
 c6165: +53 Y330,4 <= +40
 c6166: +53 Y330,5 <= +70
 c6167: +53 Y330,6 <= +80
 c6168: +51 Y331,0 <= +70
 c6169: +51 Y331,1 <= +70
 c6170: +51 Y331,2 <= +60
 c6171: +51 Y331,3 <= +50
 c6172: +51 Y331,4 <= +40
 c6173: +51 Y331,5 <= +70
 c6174: +51 Y331,6 <= +80
 c6175: +62.5 Y332,0 <= +70
 c6176: +62.5 Y332,1 <= +70
 c6177: +62.5 Y332,2 <= +60
 c6178: +62.5 Y332,3 <= +50
 c6179: +62.5 Y332,4 <= +40
 c6180: +62.5 Y332,5 <= +70
 c6181: +62.5 Y332,6 <= +80
 c6182: +60.5 Y333,0 <= +70
 c6183: +60.5 Y333,1 <= +70
 c6184: +60.5 Y333,2 <= +60
 c6185: +60.5 Y333,3 <= +50
 c6186: +60.5 Y333,4 <= +40
 c6187: +60.5 Y333,5 <= +70
 c6188: +60.5 Y333,6 <= +80
 c6189: +61.5 Y334,0 <= +70
 c6190: +61.5 Y334,1 <= +70
 c6191: +61.5 Y334,2 <= +60
 c6192: +61.5 Y334,3 <= +50
 c6193: +61.5 Y334,4 <= +40
 c6194: +61.5 Y334,5 <= +70
 c6195: +61.5 Y334,6 <= +80
 c6196: +65.3 Y335,0 <= +70
 c6197: +65.3 Y335,1 <= +70
 c6198: +65.3 Y335,2 <= +60
 c6199: +65.3 Y335,3 <= +50
 c6200: +65.3 Y335,4 <= +40
 c6201: +65.3 Y335,5 <= +70
 c6202: +65.3 Y335,6 <= +80
 c6203: +66.3 Y336,0 <= +70
 c6204: +66.3 Y336,1 <= +70
 c6205: +66.3 Y336,2 <= +60
 c6206: +66.3 Y336,3 <= +50
 c6207: +66.3 Y336,4 <= +40
 c6208: +66.3 Y336,5 <= +70
 c6209: +66.3 Y336,6 <= +80
 c6210: +64.3 Y337,0 <= +70
 c6211: +64.3 Y337,1 <= +70
 c6212: +64.3 Y337,2 <= +60
 c6213: +64.3 Y337,3 <= +50
 c6214: +64.3 Y337,4 <= +40
 c6215: +64.3 Y337,5 <= +70
 c6216: +64.3 Y337,6 <= +80
 c6217: +46.7 Y338,0 <= +70
 c6218: +46.7 Y338,1 <= +70
 c6219: +46.7 Y338,2 <= +60
 c6220: +46.7 Y338,3 <= +50
 c6221: +46.7 Y338,4 <= +40
 c6222: +46.7 Y338,5 <= +70
 c6223: +46.7 Y338,6 <= +80
 c6224: +47.7 Y339,0 <= +70
 c6225: +47.7 Y339,1 <= +70
 c6226: +47.7 Y339,2 <= +60
 c6227: +47.7 Y339,3 <= +50
 c6228: +47.7 Y339,4 <= +40
 c6229: +47.7 Y339,5 <= +70
 c6230: +47.7 Y339,6 <= +80
 c6231: +45.7 Y340,0 <= +70
 c6232: +45.7 Y340,1 <= +70
 c6233: +45.7 Y340,2 <= +60
 c6234: +45.7 Y340,3 <= +50
 c6235: +45.7 Y340,4 <= +40
 c6236: +45.7 Y340,5 <= +70
 c6237: +45.7 Y340,6 <= +80
 c6238: +50.5 Y341,0 <= +70
 c6239: +50.5 Y341,1 <= +70
 c6240: +50.5 Y341,2 <= +60
 c6241: +50.5 Y341,3 <= +50
 c6242: +50.5 Y341,4 <= +40
 c6243: +50.5 Y341,5 <= +70
 c6244: +50.5 Y341,6 <= +80
 c6245: +64 Y342,0 <= +70
 c6246: +64 Y342,1 <= +70
 c6247: +64 Y342,2 <= +60
 c6248: +64 Y342,3 <= +50
 c6249: +64 Y342,4 <= +40
 c6250: +64 Y342,5 <= +70
 c6251: +64 Y342,6 <= +80
 c6252: +68.8 Y343,0 <= +70
 c6253: +68.8 Y343,1 <= +70
 c6254: +68.8 Y343,2 <= +60
 c6255: +68.8 Y343,3 <= +50
 c6256: +68.8 Y343,4 <= +40
 c6257: +68.8 Y343,5 <= +70
 c6258: +68.8 Y343,6 <= +80
 c6259: +66.8 Y344,0 <= +70
 c6260: +66.8 Y344,1 <= +70
 c6261: +66.8 Y344,2 <= +60
 c6262: +66.8 Y344,3 <= +50
 c6263: +66.8 Y344,4 <= +40
 c6264: +66.8 Y344,5 <= +70
 c6265: +66.8 Y344,6 <= +80
 c6266: +67.8 Y345,0 <= +70
 c6267: +67.8 Y345,1 <= +70
 c6268: +67.8 Y345,2 <= +60
 c6269: +67.8 Y345,3 <= +50
 c6270: +67.8 Y345,4 <= +40
 c6271: +67.8 Y345,5 <= +70
 c6272: +67.8 Y345,6 <= +80
 c6273: +50.2 Y346,0 <= +70
 c6274: +50.2 Y346,1 <= +70
 c6275: +50.2 Y346,2 <= +60
 c6276: +50.2 Y346,3 <= +50
 c6277: +50.2 Y346,4 <= +40
 c6278: +50.2 Y346,5 <= +70
 c6279: +50.2 Y346,6 <= +80
 c6280: +48.2 Y347,0 <= +70
 c6281: +48.2 Y347,1 <= +70
 c6282: +48.2 Y347,2 <= +60
 c6283: +48.2 Y347,3 <= +50
 c6284: +48.2 Y347,4 <= +40
 c6285: +48.2 Y347,5 <= +70
 c6286: +48.2 Y347,6 <= +80
 c6287: +49.2 Y348,0 <= +70
 c6288: +49.2 Y348,1 <= +70
 c6289: +49.2 Y348,2 <= +60
 c6290: +49.2 Y348,3 <= +50
 c6291: +49.2 Y348,4 <= +40
 c6292: +49.2 Y348,5 <= +70
 c6293: +49.2 Y348,6 <= +80
 c6294: +53 Y349,0 <= +70
 c6295: +53 Y349,1 <= +70
 c6296: +53 Y349,2 <= +60
 c6297: +53 Y349,3 <= +50
 c6298: +53 Y349,4 <= +40
 c6299: +53 Y349,5 <= +70
 c6300: +53 Y349,6 <= +80
 c6301: +54 Y350,0 <= +70
 c6302: +54 Y350,1 <= +70
 c6303: +54 Y350,2 <= +60
 c6304: +54 Y350,3 <= +50
 c6305: +54 Y350,4 <= +40
 c6306: +54 Y350,5 <= +70
 c6307: +54 Y350,6 <= +80
 c6308: +52 Y351,0 <= +70
 c6309: +52 Y351,1 <= +70
 c6310: +52 Y351,2 <= +60
 c6311: +52 Y351,3 <= +50
 c6312: +52 Y351,4 <= +40
 c6313: +52 Y351,5 <= +70
 c6314: +52 Y351,6 <= +80
 c6315: +63.5 Y352,0 <= +70
 c6316: +63.5 Y352,1 <= +70
 c6317: +63.5 Y352,2 <= +60
 c6318: +63.5 Y352,3 <= +50
 c6319: +63.5 Y352,4 <= +40
 c6320: +63.5 Y352,5 <= +70
 c6321: +63.5 Y352,6 <= +80
 c6322: +61.5 Y353,0 <= +70
 c6323: +61.5 Y353,1 <= +70
 c6324: +61.5 Y353,2 <= +60
 c6325: +61.5 Y353,3 <= +50
 c6326: +61.5 Y353,4 <= +40
 c6327: +61.5 Y353,5 <= +70
 c6328: +61.5 Y353,6 <= +80
 c6329: +62.5 Y354,0 <= +70
 c6330: +62.5 Y354,1 <= +70
 c6331: +62.5 Y354,2 <= +60
 c6332: +62.5 Y354,3 <= +50
 c6333: +62.5 Y354,4 <= +40
 c6334: +62.5 Y354,5 <= +70
 c6335: +62.5 Y354,6 <= +80
 c6336: +66.3 Y355,0 <= +70
 c6337: +66.3 Y355,1 <= +70
 c6338: +66.3 Y355,2 <= +60
 c6339: +66.3 Y355,3 <= +50
 c6340: +66.3 Y355,4 <= +40
 c6341: +66.3 Y355,5 <= +70
 c6342: +66.3 Y355,6 <= +80
 c6343: +67.3 Y356,0 <= +70
 c6344: +67.3 Y356,1 <= +70
 c6345: +67.3 Y356,2 <= +60
 c6346: +67.3 Y356,3 <= +50
 c6347: +67.3 Y356,4 <= +40
 c6348: +67.3 Y356,5 <= +70
 c6349: +67.3 Y356,6 <= +80
 c6350: +65.3 Y357,0 <= +70
 c6351: +65.3 Y357,1 <= +70
 c6352: +65.3 Y357,2 <= +60
 c6353: +65.3 Y357,3 <= +50
 c6354: +65.3 Y357,4 <= +40
 c6355: +65.3 Y357,5 <= +70
 c6356: +65.3 Y357,6 <= +80
 c6357: +47.7 Y358,0 <= +70
 c6358: +47.7 Y358,1 <= +70
 c6359: +47.7 Y358,2 <= +60
 c6360: +47.7 Y358,3 <= +50
 c6361: +47.7 Y358,4 <= +40
 c6362: +47.7 Y358,5 <= +70
 c6363: +47.7 Y358,6 <= +80
 c6364: +48.7 Y359,0 <= +70
 c6365: +48.7 Y359,1 <= +70
 c6366: +48.7 Y359,2 <= +60
 c6367: +48.7 Y359,3 <= +50
 c6368: +48.7 Y359,4 <= +40
 c6369: +48.7 Y359,5 <= +70
 c6370: +48.7 Y359,6 <= +80
 c6371: +46.7 Y360,0 <= +70
 c6372: +46.7 Y360,1 <= +70
 c6373: +46.7 Y360,2 <= +60
 c6374: +46.7 Y360,3 <= +50
 c6375: +46.7 Y360,4 <= +40
 c6376: +46.7 Y360,5 <= +70
 c6377: +46.7 Y360,6 <= +80
 c6378: +51.5 Y361,0 <= +70
 c6379: +51.5 Y361,1 <= +70
 c6380: +51.5 Y361,2 <= +60
 c6381: +51.5 Y361,3 <= +50
 c6382: +51.5 Y361,4 <= +40
 c6383: +51.5 Y361,5 <= +70
 c6384: +51.5 Y361,6 <= +80
 c6385: +49.9 Y362,0 <= +70
 c6386: +49.9 Y362,1 <= +70
 c6387: +49.9 Y362,2 <= +60
 c6388: +49.9 Y362,3 <= +50
 c6389: +49.9 Y362,4 <= +40
 c6390: +49.9 Y362,5 <= +70
 c6391: +49.9 Y362,6 <= +80
 c6392: +47.9 Y363,0 <= +70
 c6393: +47.9 Y363,1 <= +70
 c6394: +47.9 Y363,2 <= +60
 c6395: +47.9 Y363,3 <= +50
 c6396: +47.9 Y363,4 <= +40
 c6397: +47.9 Y363,5 <= +70
 c6398: +47.9 Y363,6 <= +80
 c6399: +48.9 Y364,0 <= +70
 c6400: +48.9 Y364,1 <= +70
 c6401: +48.9 Y364,2 <= +60
 c6402: +48.9 Y364,3 <= +50
 c6403: +48.9 Y364,4 <= +40
 c6404: +48.9 Y364,5 <= +70
 c6405: +48.9 Y364,6 <= +80
 c6406: +52.7 Y365,0 <= +70
 c6407: +52.7 Y365,1 <= +70
 c6408: +52.7 Y365,2 <= +60
 c6409: +52.7 Y365,3 <= +50
 c6410: +52.7 Y365,4 <= +40
 c6411: +52.7 Y365,5 <= +70
 c6412: +52.7 Y365,6 <= +80
 c6413: +53.7 Y366,0 <= +70
 c6414: +53.7 Y366,1 <= +70
 c6415: +53.7 Y366,2 <= +60
 c6416: +53.7 Y366,3 <= +50
 c6417: +53.7 Y366,4 <= +40
 c6418: +53.7 Y366,5 <= +70
 c6419: +53.7 Y366,6 <= +80
 c6420: +51.7 Y367,0 <= +70
 c6421: +51.7 Y367,1 <= +70
 c6422: +51.7 Y367,2 <= +60
 c6423: +51.7 Y367,3 <= +50
 c6424: +51.7 Y367,4 <= +40
 c6425: +51.7 Y367,5 <= +70
 c6426: +51.7 Y367,6 <= +80
 c6427: +34.1 Y368,0 <= +70
 c6428: +34.1 Y368,1 <= +70
 c6429: +34.1 Y368,2 <= +60
 c6430: +34.1 Y368,3 <= +50
 c6431: +34.1 Y368,4 <= +40
 c6432: +34.1 Y368,5 <= +70
 c6433: +34.1 Y368,6 <= +80
 c6434: +35.1 Y369,0 <= +70
 c6435: +35.1 Y369,1 <= +70
 c6436: +35.1 Y369,2 <= +60
 c6437: +35.1 Y369,3 <= +50
 c6438: +35.1 Y369,4 <= +40
 c6439: +35.1 Y369,5 <= +70
 c6440: +35.1 Y369,6 <= +80
 c6441: +33.1 Y370,0 <= +70
 c6442: +33.1 Y370,1 <= +70
 c6443: +33.1 Y370,2 <= +60
 c6444: +33.1 Y370,3 <= +50
 c6445: +33.1 Y370,4 <= +40
 c6446: +33.1 Y370,5 <= +70
 c6447: +33.1 Y370,6 <= +80
 c6448: +37.9 Y371,0 <= +70
 c6449: +37.9 Y371,1 <= +70
 c6450: +37.9 Y371,2 <= +60
 c6451: +37.9 Y371,3 <= +50
 c6452: +37.9 Y371,4 <= +40
 c6453: +37.9 Y371,5 <= +70
 c6454: +37.9 Y371,6 <= +80
 c6455: +47.4 Y372,0 <= +70
 c6456: +47.4 Y372,1 <= +70
 c6457: +47.4 Y372,2 <= +60
 c6458: +47.4 Y372,3 <= +50
 c6459: +47.4 Y372,4 <= +40
 c6460: +47.4 Y372,5 <= +70
 c6461: +47.4 Y372,6 <= +80
 c6462: +48.4 Y373,0 <= +70
 c6463: +48.4 Y373,1 <= +70
 c6464: +48.4 Y373,2 <= +60
 c6465: +48.4 Y373,3 <= +50
 c6466: +48.4 Y373,4 <= +40
 c6467: +48.4 Y373,5 <= +70
 c6468: +48.4 Y373,6 <= +80
 c6469: +46.4 Y374,0 <= +70
 c6470: +46.4 Y374,1 <= +70
 c6471: +46.4 Y374,2 <= +60
 c6472: +46.4 Y374,3 <= +50
 c6473: +46.4 Y374,4 <= +40
 c6474: +46.4 Y374,5 <= +70
 c6475: +46.4 Y374,6 <= +80
 c6476: +51.2 Y375,0 <= +70
 c6477: +51.2 Y375,1 <= +70
 c6478: +51.2 Y375,2 <= +60
 c6479: +51.2 Y375,3 <= +50
 c6480: +51.2 Y375,4 <= +40
 c6481: +51.2 Y375,5 <= +70
 c6482: +51.2 Y375,6 <= +80
 c6483: +32.6 Y376,0 <= +70
 c6484: +32.6 Y376,1 <= +70
 c6485: +32.6 Y376,2 <= +60
 c6486: +32.6 Y376,3 <= +50
 c6487: +32.6 Y376,4 <= +40
 c6488: +32.6 Y376,5 <= +70
 c6489: +32.6 Y376,6 <= +80
 c6490: +78.5 Y377,0 <= +70
 c6491: +78.5 Y377,1 <= +70
 c6492: +78.5 Y377,2 <= +60
 c6493: +78.5 Y377,3 <= +50
 c6494: +78.5 Y377,4 <= +40
 c6495: +78.5 Y377,5 <= +70
 c6496: +78.5 Y377,6 <= +80
 c6497: +79.5 Y378,0 <= +70
 c6498: +79.5 Y378,1 <= +70
 c6499: +79.5 Y378,2 <= +60
 c6500: +79.5 Y378,3 <= +50
 c6501: +79.5 Y378,4 <= +40
 c6502: +79.5 Y378,5 <= +70
 c6503: +79.5 Y378,6 <= +80
 c6504: +79.5 Y379,0 <= +70
 c6505: +79.5 Y379,1 <= +70
 c6506: +79.5 Y379,2 <= +60
 c6507: +79.5 Y379,3 <= +50
 c6508: +79.5 Y379,4 <= +40
 c6509: +79.5 Y379,5 <= +70
 c6510: +79.5 Y379,6 <= +80
 c6511: +67.9 Y380,0 <= +70
 c6512: +67.9 Y380,1 <= +70
 c6513: +67.9 Y380,2 <= +60
 c6514: +67.9 Y380,3 <= +50
 c6515: +67.9 Y380,4 <= +40
 c6516: +67.9 Y380,5 <= +70
 c6517: +67.9 Y380,6 <= +80
 c6518: +65.9 Y381,0 <= +70
 c6519: +65.9 Y381,1 <= +70
 c6520: +65.9 Y381,2 <= +60
 c6521: +65.9 Y381,3 <= +50
 c6522: +65.9 Y381,4 <= +40
 c6523: +65.9 Y381,5 <= +70
 c6524: +65.9 Y381,6 <= +80
 c6525: +66.9 Y382,0 <= +70
 c6526: +66.9 Y382,1 <= +70
 c6527: +66.9 Y382,2 <= +60
 c6528: +66.9 Y382,3 <= +50
 c6529: +66.9 Y382,4 <= +40
 c6530: +66.9 Y382,5 <= +70
 c6531: +66.9 Y382,6 <= +80
 c6532: +70.7 Y383,0 <= +70
 c6533: +70.7 Y383,1 <= +70
 c6534: +70.7 Y383,2 <= +60
 c6535: +70.7 Y383,3 <= +50
 c6536: +70.7 Y383,4 <= +40
 c6537: +70.7 Y383,5 <= +70
 c6538: +70.7 Y383,6 <= +80
 c6539: +71.7 Y384,0 <= +70
 c6540: +71.7 Y384,1 <= +70
 c6541: +71.7 Y384,2 <= +60
 c6542: +71.7 Y384,3 <= +50
 c6543: +71.7 Y384,4 <= +40
 c6544: +71.7 Y384,5 <= +70
 c6545: +71.7 Y384,6 <= +80
 c6546: +69.7 Y385,0 <= +70
 c6547: +69.7 Y385,1 <= +70
 c6548: +69.7 Y385,2 <= +60
 c6549: +69.7 Y385,3 <= +50
 c6550: +69.7 Y385,4 <= +40
 c6551: +69.7 Y385,5 <= +70
 c6552: +69.7 Y385,6 <= +80
 c6553: +79.2 Y386,0 <= +70
 c6554: +79.2 Y386,1 <= +70
 c6555: +79.2 Y386,2 <= +60
 c6556: +79.2 Y386,3 <= +50
 c6557: +79.2 Y386,4 <= +40
 c6558: +79.2 Y386,5 <= +70
 c6559: +79.2 Y386,6 <= +80
 c6560: +65.4 Y387,0 <= +70
 c6561: +65.4 Y387,1 <= +70
 c6562: +65.4 Y387,2 <= +60
 c6563: +65.4 Y387,3 <= +50
 c6564: +65.4 Y387,4 <= +40
 c6565: +65.4 Y387,5 <= +70
 c6566: +65.4 Y387,6 <= +80
 c6567: +66.4 Y388,0 <= +70
 c6568: +66.4 Y388,1 <= +70
 c6569: +66.4 Y388,2 <= +60
 c6570: +66.4 Y388,3 <= +50
 c6571: +66.4 Y388,4 <= +40
 c6572: +66.4 Y388,5 <= +70
 c6573: +66.4 Y388,6 <= +80
 c6574: +64.4 Y389,0 <= +70
 c6575: +64.4 Y389,1 <= +70
 c6576: +64.4 Y389,2 <= +60
 c6577: +64.4 Y389,3 <= +50
 c6578: +64.4 Y389,4 <= +40
 c6579: +64.4 Y389,5 <= +70
 c6580: +64.4 Y389,6 <= +80
 c6581: +69.2 Y390,0 <= +70
 c6582: +69.2 Y390,1 <= +70
 c6583: +69.2 Y390,2 <= +60
 c6584: +69.2 Y390,3 <= +50
 c6585: +69.2 Y390,4 <= +40
 c6586: +69.2 Y390,5 <= +70
 c6587: +69.2 Y390,6 <= +80
 c6588: +70.1 Y391,0 <= +70
 c6589: +70.1 Y391,1 <= +70
 c6590: +70.1 Y391,2 <= +60
 c6591: +70.1 Y391,3 <= +50
 c6592: +70.1 Y391,4 <= +40
 c6593: +70.1 Y391,5 <= +70
 c6594: +70.1 Y391,6 <= +80
 c6595: +68.1 Y392,0 <= +70
 c6596: +68.1 Y392,1 <= +70
 c6597: +68.1 Y392,2 <= +60
 c6598: +68.1 Y392,3 <= +50
 c6599: +68.1 Y392,4 <= +40
 c6600: +68.1 Y392,5 <= +70
 c6601: +68.1 Y392,6 <= +80
 c6602: +69.1 Y393,0 <= +70
 c6603: +69.1 Y393,1 <= +70
 c6604: +69.1 Y393,2 <= +60
 c6605: +69.1 Y393,3 <= +50
 c6606: +69.1 Y393,4 <= +40
 c6607: +69.1 Y393,5 <= +70
 c6608: +69.1 Y393,6 <= +80
 c6609: +72.9 Y394,0 <= +70
 c6610: +72.9 Y394,1 <= +70
 c6611: +72.9 Y394,2 <= +60
 c6612: +72.9 Y394,3 <= +50
 c6613: +72.9 Y394,4 <= +40
 c6614: +72.9 Y394,5 <= +70
 c6615: +72.9 Y394,6 <= +80
 c6616: +73.9 Y395,0 <= +70
 c6617: +73.9 Y395,1 <= +70
 c6618: +73.9 Y395,2 <= +60
 c6619: +73.9 Y395,3 <= +50
 c6620: +73.9 Y395,4 <= +40
 c6621: +73.9 Y395,5 <= +70
 c6622: +73.9 Y395,6 <= +80
 c6623: +71.9 Y396,0 <= +70
 c6624: +71.9 Y396,1 <= +70
 c6625: +71.9 Y396,2 <= +60
 c6626: +71.9 Y396,3 <= +50
 c6627: +71.9 Y396,4 <= +40
 c6628: +71.9 Y396,5 <= +70
 c6629: +71.9 Y396,6 <= +80
 c6630: +67.6 Y397,0 <= +70
 c6631: +67.6 Y397,1 <= +70
 c6632: +67.6 Y397,2 <= +60
 c6633: +67.6 Y397,3 <= +50
 c6634: +67.6 Y397,4 <= +40
 c6635: +67.6 Y397,5 <= +70
 c6636: +67.6 Y397,6 <= +80
 c6637: +68.6 Y398,0 <= +70
 c6638: +68.6 Y398,1 <= +70
 c6639: +68.6 Y398,2 <= +60
 c6640: +68.6 Y398,3 <= +50
 c6641: +68.6 Y398,4 <= +40
 c6642: +68.6 Y398,5 <= +70
 c6643: +68.6 Y398,6 <= +80
 c6644: +66.6 Y399,0 <= +70
 c6645: +66.6 Y399,1 <= +70
 c6646: +66.6 Y399,2 <= +60
 c6647: +66.6 Y399,3 <= +50
 c6648: +66.6 Y399,4 <= +40
 c6649: +66.6 Y399,5 <= +70
 c6650: +66.6 Y399,6 <= +80
 c6651: +71.4 Y400,0 <= +70
 c6652: +71.4 Y400,1 <= +70
 c6653: +71.4 Y400,2 <= +60
 c6654: +71.4 Y400,3 <= +50
 c6655: +71.4 Y400,4 <= +40
 c6656: +71.4 Y400,5 <= +70
 c6657: +71.4 Y400,6 <= +80
 c6658: +71.1 Y401,0 <= +70
 c6659: +71.1 Y401,1 <= +70
 c6660: +71.1 Y401,2 <= +60
 c6661: +71.1 Y401,3 <= +50
 c6662: +71.1 Y401,4 <= +40
 c6663: +71.1 Y401,5 <= +70
 c6664: +71.1 Y401,6 <= +80
 c6665: +69.1 Y402,0 <= +70
 c6666: +69.1 Y402,1 <= +70
 c6667: +69.1 Y402,2 <= +60
 c6668: +69.1 Y402,3 <= +50
 c6669: +69.1 Y402,4 <= +40
 c6670: +69.1 Y402,5 <= +70
 c6671: +69.1 Y402,6 <= +80
 c6672: +70.1 Y403,0 <= +70
 c6673: +70.1 Y403,1 <= +70
 c6674: +70.1 Y403,2 <= +60
 c6675: +70.1 Y403,3 <= +50
 c6676: +70.1 Y403,4 <= +40
 c6677: +70.1 Y403,5 <= +70
 c6678: +70.1 Y403,6 <= +80
 c6679: +73.9 Y404,0 <= +70
 c6680: +73.9 Y404,1 <= +70
 c6681: +73.9 Y404,2 <= +60
 c6682: +73.9 Y404,3 <= +50
 c6683: +73.9 Y404,4 <= +40
 c6684: +73.9 Y404,5 <= +70
 c6685: +73.9 Y404,6 <= +80
 c6686: +74.9 Y405,0 <= +70
 c6687: +74.9 Y405,1 <= +70
 c6688: +74.9 Y405,2 <= +60
 c6689: +74.9 Y405,3 <= +50
 c6690: +74.9 Y405,4 <= +40
 c6691: +74.9 Y405,5 <= +70
 c6692: +74.9 Y405,6 <= +80
 c6693: +72.9 Y406,0 <= +70
 c6694: +72.9 Y406,1 <= +70
 c6695: +72.9 Y406,2 <= +60
 c6696: +72.9 Y406,3 <= +50
 c6697: +72.9 Y406,4 <= +40
 c6698: +72.9 Y406,5 <= +70
 c6699: +72.9 Y406,6 <= +80
 c6700: +68.6 Y407,0 <= +70
 c6701: +68.6 Y407,1 <= +70
 c6702: +68.6 Y407,2 <= +60
 c6703: +68.6 Y407,3 <= +50
 c6704: +68.6 Y407,4 <= +40
 c6705: +68.6 Y407,5 <= +70
 c6706: +68.6 Y407,6 <= +80
 c6707: +69.6 Y408,0 <= +70
 c6708: +69.6 Y408,1 <= +70
 c6709: +69.6 Y408,2 <= +60
 c6710: +69.6 Y408,3 <= +50
 c6711: +69.6 Y408,4 <= +40
 c6712: +69.6 Y408,5 <= +70
 c6713: +69.6 Y408,6 <= +80
 c6714: +67.6 Y409,0 <= +70
 c6715: +67.6 Y409,1 <= +70
 c6716: +67.6 Y409,2 <= +60
 c6717: +67.6 Y409,3 <= +50
 c6718: +67.6 Y409,4 <= +40
 c6719: +67.6 Y409,5 <= +70
 c6720: +67.6 Y409,6 <= +80
 c6721: +72.4 Y410,0 <= +70
 c6722: +72.4 Y410,1 <= +70
 c6723: +72.4 Y410,2 <= +60
 c6724: +72.4 Y410,3 <= +50
 c6725: +72.4 Y410,4 <= +40
 c6726: +72.4 Y410,5 <= +70
 c6727: +72.4 Y410,6 <= +80
 c6728: +70.8 Y411,0 <= +70
 c6729: +70.8 Y411,1 <= +70
 c6730: +70.8 Y411,2 <= +60
 c6731: +70.8 Y411,3 <= +50
 c6732: +70.8 Y411,4 <= +40
 c6733: +70.8 Y411,5 <= +70
 c6734: +70.8 Y411,6 <= +80
 c6735: +68.8 Y412,0 <= +70
 c6736: +68.8 Y412,1 <= +70
 c6737: +68.8 Y412,2 <= +60
 c6738: +68.8 Y412,3 <= +50
 c6739: +68.8 Y412,4 <= +40
 c6740: +68.8 Y412,5 <= +70
 c6741: +68.8 Y412,6 <= +80
 c6742: +69.8 Y413,0 <= +70
 c6743: +69.8 Y413,1 <= +70
 c6744: +69.8 Y413,2 <= +60
 c6745: +69.8 Y413,3 <= +50
 c6746: +69.8 Y413,4 <= +40
 c6747: +69.8 Y413,5 <= +70
 c6748: +69.8 Y413,6 <= +80
 c6749: +73.6 Y414,0 <= +70
 c6750: +73.6 Y414,1 <= +70
 c6751: +73.6 Y414,2 <= +60
 c6752: +73.6 Y414,3 <= +50
 c6753: +73.6 Y414,4 <= +40
 c6754: +73.6 Y414,5 <= +70
 c6755: +73.6 Y414,6 <= +80
 c6756: +74.6 Y415,0 <= +70
 c6757: +74.6 Y415,1 <= +70
 c6758: +74.6 Y415,2 <= +60
 c6759: +74.6 Y415,3 <= +50
 c6760: +74.6 Y415,4 <= +40
 c6761: +74.6 Y415,5 <= +70
 c6762: +74.6 Y415,6 <= +80
 c6763: +72.6 Y416,0 <= +70
 c6764: +72.6 Y416,1 <= +70
 c6765: +72.6 Y416,2 <= +60
 c6766: +72.6 Y416,3 <= +50
 c6767: +72.6 Y416,4 <= +40
 c6768: +72.6 Y416,5 <= +70
 c6769: +72.6 Y416,6 <= +80
 c6770: +55 Y417,0 <= +70
 c6771: +55 Y417,1 <= +70
 c6772: +55 Y417,2 <= +60
 c6773: +55 Y417,3 <= +50
 c6774: +55 Y417,4 <= +40
 c6775: +55 Y417,5 <= +70
 c6776: +55 Y417,6 <= +80
 c6777: +56 Y418,0 <= +70
 c6778: +56 Y418,1 <= +70
 c6779: +56 Y418,2 <= +60
 c6780: +56 Y418,3 <= +50
 c6781: +56 Y418,4 <= +40
 c6782: +56 Y418,5 <= +70
 c6783: +56 Y418,6 <= +80
 c6784: +54 Y419,0 <= +70
 c6785: +54 Y419,1 <= +70
 c6786: +54 Y419,2 <= +60
 c6787: +54 Y419,3 <= +50
 c6788: +54 Y419,4 <= +40
 c6789: +54 Y419,5 <= +70
 c6790: +54 Y419,6 <= +80
 c6791: +58.8 Y420,0 <= +70
 c6792: +58.8 Y420,1 <= +70
 c6793: +58.8 Y420,2 <= +60
 c6794: +58.8 Y420,3 <= +50
 c6795: +58.8 Y420,4 <= +40
 c6796: +58.8 Y420,5 <= +70
 c6797: +58.8 Y420,6 <= +80
 c6798: +68.3 Y421,0 <= +70
 c6799: +68.3 Y421,1 <= +70
 c6800: +68.3 Y421,2 <= +60
 c6801: +68.3 Y421,3 <= +50
 c6802: +68.3 Y421,4 <= +40
 c6803: +68.3 Y421,5 <= +70
 c6804: +68.3 Y421,6 <= +80
 c6805: +69.3 Y422,0 <= +70
 c6806: +69.3 Y422,1 <= +70
 c6807: +69.3 Y422,2 <= +60
 c6808: +69.3 Y422,3 <= +50
 c6809: +69.3 Y422,4 <= +40
 c6810: +69.3 Y422,5 <= +70
 c6811: +69.3 Y422,6 <= +80
 c6812: +67.3 Y423,0 <= +70
 c6813: +67.3 Y423,1 <= +70
 c6814: +67.3 Y423,2 <= +60
 c6815: +67.3 Y423,3 <= +50
 c6816: +67.3 Y423,4 <= +40
 c6817: +67.3 Y423,5 <= +70
 c6818: +67.3 Y423,6 <= +80
 c6819: +72.1 Y424,0 <= +70
 c6820: +72.1 Y424,1 <= +70
 c6821: +72.1 Y424,2 <= +60
 c6822: +72.1 Y424,3 <= +50
 c6823: +72.1 Y424,4 <= +40
 c6824: +72.1 Y424,5 <= +70
 c6825: +72.1 Y424,6 <= +80
 c6826: +53.5 Y425,0 <= +70
 c6827: +53.5 Y425,1 <= +70
 c6828: +53.5 Y425,2 <= +60
 c6829: +53.5 Y425,3 <= +50
 c6830: +53.5 Y425,4 <= +40
 c6831: +53.5 Y425,5 <= +70
 c6832: +53.5 Y425,6 <= +80
 c6833: +70.2 Y426,0 <= +70
 c6834: +70.2 Y426,1 <= +70
 c6835: +70.2 Y426,2 <= +60
 c6836: +70.2 Y426,3 <= +50
 c6837: +70.2 Y426,4 <= +40
 c6838: +70.2 Y426,5 <= +70
 c6839: +70.2 Y426,6 <= +80
 c6840: +68.2 Y427,0 <= +70
 c6841: +68.2 Y427,1 <= +70
 c6842: +68.2 Y427,2 <= +60
 c6843: +68.2 Y427,3 <= +50
 c6844: +68.2 Y427,4 <= +40
 c6845: +68.2 Y427,5 <= +70
 c6846: +68.2 Y427,6 <= +80
 c6847: +69.2 Y428,0 <= +70
 c6848: +69.2 Y428,1 <= +70
 c6849: +69.2 Y428,2 <= +60
 c6850: +69.2 Y428,3 <= +50
 c6851: +69.2 Y428,4 <= +40
 c6852: +69.2 Y428,5 <= +70
 c6853: +69.2 Y428,6 <= +80
 c6854: +73 Y429,0 <= +70
 c6855: +73 Y429,1 <= +70
 c6856: +73 Y429,2 <= +60
 c6857: +73 Y429,3 <= +50
 c6858: +73 Y429,4 <= +40
 c6859: +73 Y429,5 <= +70
 c6860: +73 Y429,6 <= +80
 c6861: +74 Y430,0 <= +70
 c6862: +74 Y430,1 <= +70
 c6863: +74 Y430,2 <= +60
 c6864: +74 Y430,3 <= +50
 c6865: +74 Y430,4 <= +40
 c6866: +74 Y430,5 <= +70
 c6867: +74 Y430,6 <= +80
 c6868: +72 Y431,0 <= +70
 c6869: +72 Y431,1 <= +70
 c6870: +72 Y431,2 <= +60
 c6871: +72 Y431,3 <= +50
 c6872: +72 Y431,4 <= +40
 c6873: +72 Y431,5 <= +70
 c6874: +72 Y431,6 <= +80
 c6875: +67.7 Y432,0 <= +70
 c6876: +67.7 Y432,1 <= +70
 c6877: +67.7 Y432,2 <= +60
 c6878: +67.7 Y432,3 <= +50
 c6879: +67.7 Y432,4 <= +40
 c6880: +67.7 Y432,5 <= +70
 c6881: +67.7 Y432,6 <= +80
 c6882: +68.7 Y433,0 <= +70
 c6883: +68.7 Y433,1 <= +70
 c6884: +68.7 Y433,2 <= +60
 c6885: +68.7 Y433,3 <= +50
 c6886: +68.7 Y433,4 <= +40
 c6887: +68.7 Y433,5 <= +70
 c6888: +68.7 Y433,6 <= +80
 c6889: +66.7 Y434,0 <= +70
 c6890: +66.7 Y434,1 <= +70
 c6891: +66.7 Y434,2 <= +60
 c6892: +66.7 Y434,3 <= +50
 c6893: +66.7 Y434,4 <= +40
 c6894: +66.7 Y434,5 <= +70
 c6895: +66.7 Y434,6 <= +80
 c6896: +71.5 Y435,0 <= +70
 c6897: +71.5 Y435,1 <= +70
 c6898: +71.5 Y435,2 <= +60
 c6899: +71.5 Y435,3 <= +50
 c6900: +71.5 Y435,4 <= +40
 c6901: +71.5 Y435,5 <= +70
 c6902: +71.5 Y435,6 <= +80
 c6903: +71.2 Y436,0 <= +70
 c6904: +71.2 Y436,1 <= +70
 c6905: +71.2 Y436,2 <= +60
 c6906: +71.2 Y436,3 <= +50
 c6907: +71.2 Y436,4 <= +40
 c6908: +71.2 Y436,5 <= +70
 c6909: +71.2 Y436,6 <= +80
 c6910: +69.2 Y437,0 <= +70
 c6911: +69.2 Y437,1 <= +70
 c6912: +69.2 Y437,2 <= +60
 c6913: +69.2 Y437,3 <= +50
 c6914: +69.2 Y437,4 <= +40
 c6915: +69.2 Y437,5 <= +70
 c6916: +69.2 Y437,6 <= +80
 c6917: +70.2 Y438,0 <= +70
 c6918: +70.2 Y438,1 <= +70
 c6919: +70.2 Y438,2 <= +60
 c6920: +70.2 Y438,3 <= +50
 c6921: +70.2 Y438,4 <= +40
 c6922: +70.2 Y438,5 <= +70
 c6923: +70.2 Y438,6 <= +80
 c6924: +74 Y439,0 <= +70
 c6925: +74 Y439,1 <= +70
 c6926: +74 Y439,2 <= +60
 c6927: +74 Y439,3 <= +50
 c6928: +74 Y439,4 <= +40
 c6929: +74 Y439,5 <= +70
 c6930: +74 Y439,6 <= +80
 c6931: +75 Y440,0 <= +70
 c6932: +75 Y440,1 <= +70
 c6933: +75 Y440,2 <= +60
 c6934: +75 Y440,3 <= +50
 c6935: +75 Y440,4 <= +40
 c6936: +75 Y440,5 <= +70
 c6937: +75 Y440,6 <= +80
 c6938: +73 Y441,0 <= +70
 c6939: +73 Y441,1 <= +70
 c6940: +73 Y441,2 <= +60
 c6941: +73 Y441,3 <= +50
 c6942: +73 Y441,4 <= +40
 c6943: +73 Y441,5 <= +70
 c6944: +73 Y441,6 <= +80
 c6945: +68.7 Y442,0 <= +70
 c6946: +68.7 Y442,1 <= +70
 c6947: +68.7 Y442,2 <= +60
 c6948: +68.7 Y442,3 <= +50
 c6949: +68.7 Y442,4 <= +40
 c6950: +68.7 Y442,5 <= +70
 c6951: +68.7 Y442,6 <= +80
 c6952: +69.7 Y443,0 <= +70
 c6953: +69.7 Y443,1 <= +70
 c6954: +69.7 Y443,2 <= +60
 c6955: +69.7 Y443,3 <= +50
 c6956: +69.7 Y443,4 <= +40
 c6957: +69.7 Y443,5 <= +70
 c6958: +69.7 Y443,6 <= +80
 c6959: +67.7 Y444,0 <= +70
 c6960: +67.7 Y444,1 <= +70
 c6961: +67.7 Y444,2 <= +60
 c6962: +67.7 Y444,3 <= +50
 c6963: +67.7 Y444,4 <= +40
 c6964: +67.7 Y444,5 <= +70
 c6965: +67.7 Y444,6 <= +80
 c6966: +72.5 Y445,0 <= +70
 c6967: +72.5 Y445,1 <= +70
 c6968: +72.5 Y445,2 <= +60
 c6969: +72.5 Y445,3 <= +50
 c6970: +72.5 Y445,4 <= +40
 c6971: +72.5 Y445,5 <= +70
 c6972: +72.5 Y445,6 <= +80
 c6973: +70.9 Y446,0 <= +70
 c6974: +70.9 Y446,1 <= +70
 c6975: +70.9 Y446,2 <= +60
 c6976: +70.9 Y446,3 <= +50
 c6977: +70.9 Y446,4 <= +40
 c6978: +70.9 Y446,5 <= +70
 c6979: +70.9 Y446,6 <= +80
 c6980: +68.9 Y447,0 <= +70
 c6981: +68.9 Y447,1 <= +70
 c6982: +68.9 Y447,2 <= +60
 c6983: +68.9 Y447,3 <= +50
 c6984: +68.9 Y447,4 <= +40
 c6985: +68.9 Y447,5 <= +70
 c6986: +68.9 Y447,6 <= +80
 c6987: +69.9 Y448,0 <= +70
 c6988: +69.9 Y448,1 <= +70
 c6989: +69.9 Y448,2 <= +60
 c6990: +69.9 Y448,3 <= +50
 c6991: +69.9 Y448,4 <= +40
 c6992: +69.9 Y448,5 <= +70
 c6993: +69.9 Y448,6 <= +80
 c6994: +73.7 Y449,0 <= +70
 c6995: +73.7 Y449,1 <= +70
 c6996: +73.7 Y449,2 <= +60
 c6997: +73.7 Y449,3 <= +50
 c6998: +73.7 Y449,4 <= +40
 c6999: +73.7 Y449,5 <= +70
 c7000: +73.7 Y449,6 <= +80
 c7001: +74.7 Y450,0 <= +70
 c7002: +74.7 Y450,1 <= +70
 c7003: +74.7 Y450,2 <= +60
 c7004: +74.7 Y450,3 <= +50
 c7005: +74.7 Y450,4 <= +40
 c7006: +74.7 Y450,5 <= +70
 c7007: +74.7 Y450,6 <= +80
 c7008: +72.7 Y451,0 <= +70
 c7009: +72.7 Y451,1 <= +70
 c7010: +72.7 Y451,2 <= +60
 c7011: +72.7 Y451,3 <= +50
 c7012: +72.7 Y451,4 <= +40
 c7013: +72.7 Y451,5 <= +70
 c7014: +72.7 Y451,6 <= +80
 c7015: +55.1 Y452,0 <= +70
 c7016: +55.1 Y452,1 <= +70
 c7017: +55.1 Y452,2 <= +60
 c7018: +55.1 Y452,3 <= +50
 c7019: +55.1 Y452,4 <= +40
 c7020: +55.1 Y452,5 <= +70
 c7021: +55.1 Y452,6 <= +80
 c7022: +56.1 Y453,0 <= +70
 c7023: +56.1 Y453,1 <= +70
 c7024: +56.1 Y453,2 <= +60
 c7025: +56.1 Y453,3 <= +50
 c7026: +56.1 Y453,4 <= +40
 c7027: +56.1 Y453,5 <= +70
 c7028: +56.1 Y453,6 <= +80
 c7029: +54.1 Y454,0 <= +70
 c7030: +54.1 Y454,1 <= +70
 c7031: +54.1 Y454,2 <= +60
 c7032: +54.1 Y454,3 <= +50
 c7033: +54.1 Y454,4 <= +40
 c7034: +54.1 Y454,5 <= +70
 c7035: +54.1 Y454,6 <= +80
 c7036: +58.9 Y455,0 <= +70
 c7037: +58.9 Y455,1 <= +70
 c7038: +58.9 Y455,2 <= +60
 c7039: +58.9 Y455,3 <= +50
 c7040: +58.9 Y455,4 <= +40
 c7041: +58.9 Y455,5 <= +70
 c7042: +58.9 Y455,6 <= +80
 c7043: +68.4 Y456,0 <= +70
 c7044: +68.4 Y456,1 <= +70
 c7045: +68.4 Y456,2 <= +60
 c7046: +68.4 Y456,3 <= +50
 c7047: +68.4 Y456,4 <= +40
 c7048: +68.4 Y456,5 <= +70
 c7049: +68.4 Y456,6 <= +80
 c7050: +69.4 Y457,0 <= +70
 c7051: +69.4 Y457,1 <= +70
 c7052: +69.4 Y457,2 <= +60
 c7053: +69.4 Y457,3 <= +50
 c7054: +69.4 Y457,4 <= +40
 c7055: +69.4 Y457,5 <= +70
 c7056: +69.4 Y457,6 <= +80
 c7057: +67.4 Y458,0 <= +70
 c7058: +67.4 Y458,1 <= +70
 c7059: +67.4 Y458,2 <= +60
 c7060: +67.4 Y458,3 <= +50
 c7061: +67.4 Y458,4 <= +40
 c7062: +67.4 Y458,5 <= +70
 c7063: +67.4 Y458,6 <= +80
 c7064: +72.2 Y459,0 <= +70
 c7065: +72.2 Y459,1 <= +70
 c7066: +72.2 Y459,2 <= +60
 c7067: +72.2 Y459,3 <= +50
 c7068: +72.2 Y459,4 <= +40
 c7069: +72.2 Y459,5 <= +70
 c7070: +72.2 Y459,6 <= +80
 c7071: +53.6 Y460,0 <= +70
 c7072: +53.6 Y460,1 <= +70
 c7073: +53.6 Y460,2 <= +60
 c7074: +53.6 Y460,3 <= +50
 c7075: +53.6 Y460,4 <= +40
 c7076: +53.6 Y460,5 <= +70
 c7077: +53.6 Y460,6 <= +80
 c7078: +73.4 Y461,0 <= +70
 c7079: +73.4 Y461,1 <= +70
 c7080: +73.4 Y461,2 <= +60
 c7081: +73.4 Y461,3 <= +50
 c7082: +73.4 Y461,4 <= +40
 c7083: +73.4 Y461,5 <= +70
 c7084: +73.4 Y461,6 <= +80
 c7085: +71.4 Y462,0 <= +70
 c7086: +71.4 Y462,1 <= +70
 c7087: +71.4 Y462,2 <= +60
 c7088: +71.4 Y462,3 <= +50
 c7089: +71.4 Y462,4 <= +40
 c7090: +71.4 Y462,5 <= +70
 c7091: +71.4 Y462,6 <= +80
 c7092: +72.4 Y463,0 <= +70
 c7093: +72.4 Y463,1 <= +70
 c7094: +72.4 Y463,2 <= +60
 c7095: +72.4 Y463,3 <= +50
 c7096: +72.4 Y463,4 <= +40
 c7097: +72.4 Y463,5 <= +70
 c7098: +72.4 Y463,6 <= +80
 c7099: +76.2 Y464,0 <= +70
 c7100: +76.2 Y464,1 <= +70
 c7101: +76.2 Y464,2 <= +60
 c7102: +76.2 Y464,3 <= +50
 c7103: +76.2 Y464,4 <= +40
 c7104: +76.2 Y464,5 <= +70
 c7105: +76.2 Y464,6 <= +80
 c7106: +77.2 Y465,0 <= +70
 c7107: +77.2 Y465,1 <= +70
 c7108: +77.2 Y465,2 <= +60
 c7109: +77.2 Y465,3 <= +50
 c7110: +77.2 Y465,4 <= +40
 c7111: +77.2 Y465,5 <= +70
 c7112: +77.2 Y465,6 <= +80
 c7113: +75.2 Y466,0 <= +70
 c7114: +75.2 Y466,1 <= +70
 c7115: +75.2 Y466,2 <= +60
 c7116: +75.2 Y466,3 <= +50
 c7117: +75.2 Y466,4 <= +40
 c7118: +75.2 Y466,5 <= +70
 c7119: +75.2 Y466,6 <= +80
 c7120: +70.9 Y467,0 <= +70
 c7121: +70.9 Y467,1 <= +70
 c7122: +70.9 Y467,2 <= +60
 c7123: +70.9 Y467,3 <= +50
 c7124: +70.9 Y467,4 <= +40
 c7125: +70.9 Y467,5 <= +70
 c7126: +70.9 Y467,6 <= +80
 c7127: +71.9 Y468,0 <= +70
 c7128: +71.9 Y468,1 <= +70
 c7129: +71.9 Y468,2 <= +60
 c7130: +71.9 Y468,3 <= +50
 c7131: +71.9 Y468,4 <= +40
 c7132: +71.9 Y468,5 <= +70
 c7133: +71.9 Y468,6 <= +80
 c7134: +69.9 Y469,0 <= +70
 c7135: +69.9 Y469,1 <= +70
 c7136: +69.9 Y469,2 <= +60
 c7137: +69.9 Y469,3 <= +50
 c7138: +69.9 Y469,4 <= +40
 c7139: +69.9 Y469,5 <= +70
 c7140: +69.9 Y469,6 <= +80
 c7141: +74.7 Y470,0 <= +70
 c7142: +74.7 Y470,1 <= +70
 c7143: +74.7 Y470,2 <= +60
 c7144: +74.7 Y470,3 <= +50
 c7145: +74.7 Y470,4 <= +40
 c7146: +74.7 Y470,5 <= +70
 c7147: +74.7 Y470,6 <= +80
 c7148: +73.1 Y471,0 <= +70
 c7149: +73.1 Y471,1 <= +70
 c7150: +73.1 Y471,2 <= +60
 c7151: +73.1 Y471,3 <= +50
 c7152: +73.1 Y471,4 <= +40
 c7153: +73.1 Y471,5 <= +70
 c7154: +73.1 Y471,6 <= +80
 c7155: +71.1 Y472,0 <= +70
 c7156: +71.1 Y472,1 <= +70
 c7157: +71.1 Y472,2 <= +60
 c7158: +71.1 Y472,3 <= +50
 c7159: +71.1 Y472,4 <= +40
 c7160: +71.1 Y472,5 <= +70
 c7161: +71.1 Y472,6 <= +80
 c7162: +72.1 Y473,0 <= +70
 c7163: +72.1 Y473,1 <= +70
 c7164: +72.1 Y473,2 <= +60
 c7165: +72.1 Y473,3 <= +50
 c7166: +72.1 Y473,4 <= +40
 c7167: +72.1 Y473,5 <= +70
 c7168: +72.1 Y473,6 <= +80
 c7169: +75.9 Y474,0 <= +70
 c7170: +75.9 Y474,1 <= +70
 c7171: +75.9 Y474,2 <= +60
 c7172: +75.9 Y474,3 <= +50
 c7173: +75.9 Y474,4 <= +40
 c7174: +75.9 Y474,5 <= +70
 c7175: +75.9 Y474,6 <= +80
 c7176: +76.9 Y475,0 <= +70
 c7177: +76.9 Y475,1 <= +70
 c7178: +76.9 Y475,2 <= +60
 c7179: +76.9 Y475,3 <= +50
 c7180: +76.9 Y475,4 <= +40
 c7181: +76.9 Y475,5 <= +70
 c7182: +76.9 Y475,6 <= +80
 c7183: +74.9 Y476,0 <= +70
 c7184: +74.9 Y476,1 <= +70
 c7185: +74.9 Y476,2 <= +60
 c7186: +74.9 Y476,3 <= +50
 c7187: +74.9 Y476,4 <= +40
 c7188: +74.9 Y476,5 <= +70
 c7189: +74.9 Y476,6 <= +80
 c7190: +57.3 Y477,0 <= +70
 c7191: +57.3 Y477,1 <= +70
 c7192: +57.3 Y477,2 <= +60
 c7193: +57.3 Y477,3 <= +50
 c7194: +57.3 Y477,4 <= +40
 c7195: +57.3 Y477,5 <= +70
 c7196: +57.3 Y477,6 <= +80
 c7197: +58.3 Y478,0 <= +70
 c7198: +58.3 Y478,1 <= +70
 c7199: +58.3 Y478,2 <= +60
 c7200: +58.3 Y478,3 <= +50
 c7201: +58.3 Y478,4 <= +40
 c7202: +58.3 Y478,5 <= +70
 c7203: +58.3 Y478,6 <= +80
 c7204: +56.3 Y479,0 <= +70
 c7205: +56.3 Y479,1 <= +70
 c7206: +56.3 Y479,2 <= +60
 c7207: +56.3 Y479,3 <= +50
 c7208: +56.3 Y479,4 <= +40
 c7209: +56.3 Y479,5 <= +70
 c7210: +56.3 Y479,6 <= +80
 c7211: +61.1 Y480,0 <= +70
 c7212: +61.1 Y480,1 <= +70
 c7213: +61.1 Y480,2 <= +60
 c7214: +61.1 Y480,3 <= +50
 c7215: +61.1 Y480,4 <= +40
 c7216: +61.1 Y480,5 <= +70
 c7217: +61.1 Y480,6 <= +80
 c7218: +70.6 Y481,0 <= +70
 c7219: +70.6 Y481,1 <= +70
 c7220: +70.6 Y481,2 <= +60
 c7221: +70.6 Y481,3 <= +50
 c7222: +70.6 Y481,4 <= +40
 c7223: +70.6 Y481,5 <= +70
 c7224: +70.6 Y481,6 <= +80
 c7225: +71.6 Y482,0 <= +70
 c7226: +71.6 Y482,1 <= +70
 c7227: +71.6 Y482,2 <= +60
 c7228: +71.6 Y482,3 <= +50
 c7229: +71.6 Y482,4 <= +40
 c7230: +71.6 Y482,5 <= +70
 c7231: +71.6 Y482,6 <= +80
 c7232: +69.6 Y483,0 <= +70
 c7233: +69.6 Y483,1 <= +70
 c7234: +69.6 Y483,2 <= +60
 c7235: +69.6 Y483,3 <= +50
 c7236: +69.6 Y483,4 <= +40
 c7237: +69.6 Y483,5 <= +70
 c7238: +69.6 Y483,6 <= +80
 c7239: +74.4 Y484,0 <= +70
 c7240: +74.4 Y484,1 <= +70
 c7241: +74.4 Y484,2 <= +60
 c7242: +74.4 Y484,3 <= +50
 c7243: +74.4 Y484,4 <= +40
 c7244: +74.4 Y484,5 <= +70
 c7245: +74.4 Y484,6 <= +80
 c7246: +55.8 Y485,0 <= +70
 c7247: +55.8 Y485,1 <= +70
 c7248: +55.8 Y485,2 <= +60
 c7249: +55.8 Y485,3 <= +50
 c7250: +55.8 Y485,4 <= +40
 c7251: +55.8 Y485,5 <= +70
 c7252: +55.8 Y485,6 <= +80
 c7253: +74.1 Y486,0 <= +70
 c7254: +74.1 Y486,1 <= +70
 c7255: +74.1 Y486,2 <= +60
 c7256: +74.1 Y486,3 <= +50
 c7257: +74.1 Y486,4 <= +40
 c7258: +74.1 Y486,5 <= +70
 c7259: +74.1 Y486,6 <= +80
 c7260: +72.1 Y487,0 <= +70
 c7261: +72.1 Y487,1 <= +70
 c7262: +72.1 Y487,2 <= +60
 c7263: +72.1 Y487,3 <= +50
 c7264: +72.1 Y487,4 <= +40
 c7265: +72.1 Y487,5 <= +70
 c7266: +72.1 Y487,6 <= +80
 c7267: +73.1 Y488,0 <= +70
 c7268: +73.1 Y488,1 <= +70
 c7269: +73.1 Y488,2 <= +60
 c7270: +73.1 Y488,3 <= +50
 c7271: +73.1 Y488,4 <= +40
 c7272: +73.1 Y488,5 <= +70
 c7273: +73.1 Y488,6 <= +80
 c7274: +76.9 Y489,0 <= +70
 c7275: +76.9 Y489,1 <= +70
 c7276: +76.9 Y489,2 <= +60
 c7277: +76.9 Y489,3 <= +50
 c7278: +76.9 Y489,4 <= +40
 c7279: +76.9 Y489,5 <= +70
 c7280: +76.9 Y489,6 <= +80
 c7281: +77.9 Y490,0 <= +70
 c7282: +77.9 Y490,1 <= +70
 c7283: +77.9 Y490,2 <= +60
 c7284: +77.9 Y490,3 <= +50
 c7285: +77.9 Y490,4 <= +40
 c7286: +77.9 Y490,5 <= +70
 c7287: +77.9 Y490,6 <= +80
 c7288: +75.9 Y491,0 <= +70
 c7289: +75.9 Y491,1 <= +70
 c7290: +75.9 Y491,2 <= +60
 c7291: +75.9 Y491,3 <= +50
 c7292: +75.9 Y491,4 <= +40
 c7293: +75.9 Y491,5 <= +70
 c7294: +75.9 Y491,6 <= +80
 c7295: +58.3 Y492,0 <= +70
 c7296: +58.3 Y492,1 <= +70
 c7297: +58.3 Y492,2 <= +60
 c7298: +58.3 Y492,3 <= +50
 c7299: +58.3 Y492,4 <= +40
 c7300: +58.3 Y492,5 <= +70
 c7301: +58.3 Y492,6 <= +80
 c7302: +59.3 Y493,0 <= +70
 c7303: +59.3 Y493,1 <= +70
 c7304: +59.3 Y493,2 <= +60
 c7305: +59.3 Y493,3 <= +50
 c7306: +59.3 Y493,4 <= +40
 c7307: +59.3 Y493,5 <= +70
 c7308: +59.3 Y493,6 <= +80
 c7309: +57.3 Y494,0 <= +70
 c7310: +57.3 Y494,1 <= +70
 c7311: +57.3 Y494,2 <= +60
 c7312: +57.3 Y494,3 <= +50
 c7313: +57.3 Y494,4 <= +40
 c7314: +57.3 Y494,5 <= +70
 c7315: +57.3 Y494,6 <= +80
 c7316: +62.1 Y495,0 <= +70
 c7317: +62.1 Y495,1 <= +70
 c7318: +62.1 Y495,2 <= +60
 c7319: +62.1 Y495,3 <= +50
 c7320: +62.1 Y495,4 <= +40
 c7321: +62.1 Y495,5 <= +70
 c7322: +62.1 Y495,6 <= +80
 c7323: +71.6 Y496,0 <= +70
 c7324: +71.6 Y496,1 <= +70
 c7325: +71.6 Y496,2 <= +60
 c7326: +71.6 Y496,3 <= +50
 c7327: +71.6 Y496,4 <= +40
 c7328: +71.6 Y496,5 <= +70
 c7329: +71.6 Y496,6 <= +80
 c7330: +72.6 Y497,0 <= +70
 c7331: +72.6 Y497,1 <= +70
 c7332: +72.6 Y497,2 <= +60
 c7333: +72.6 Y497,3 <= +50
 c7334: +72.6 Y497,4 <= +40
 c7335: +72.6 Y497,5 <= +70
 c7336: +72.6 Y497,6 <= +80
 c7337: +70.6 Y498,0 <= +70
 c7338: +70.6 Y498,1 <= +70
 c7339: +70.6 Y498,2 <= +60
 c7340: +70.6 Y498,3 <= +50
 c7341: +70.6 Y498,4 <= +40
 c7342: +70.6 Y498,5 <= +70
 c7343: +70.6 Y498,6 <= +80
 c7344: +75.4 Y499,0 <= +70
 c7345: +75.4 Y499,1 <= +70
 c7346: +75.4 Y499,2 <= +60
 c7347: +75.4 Y499,3 <= +50
 c7348: +75.4 Y499,4 <= +40
 c7349: +75.4 Y499,5 <= +70
 c7350: +75.4 Y499,6 <= +80
 c7351: +56.8 Y500,0 <= +70
 c7352: +56.8 Y500,1 <= +70
 c7353: +56.8 Y500,2 <= +60
 c7354: +56.8 Y500,3 <= +50
 c7355: +56.8 Y500,4 <= +40
 c7356: +56.8 Y500,5 <= +70
 c7357: +56.8 Y500,6 <= +80
 c7358: +58 Y501,0 <= +70
 c7359: +58 Y501,1 <= +70
 c7360: +58 Y501,2 <= +60
 c7361: +58 Y501,3 <= +50
 c7362: +58 Y501,4 <= +40
 c7363: +58 Y501,5 <= +70
 c7364: +58 Y501,6 <= +80
 c7365: +59 Y502,0 <= +70
 c7366: +59 Y502,1 <= +70
 c7367: +59 Y502,2 <= +60
 c7368: +59 Y502,3 <= +50
 c7369: +59 Y502,4 <= +40
 c7370: +59 Y502,5 <= +70
 c7371: +59 Y502,6 <= +80
 c7372: +57 Y503,0 <= +70
 c7373: +57 Y503,1 <= +70
 c7374: +57 Y503,2 <= +60
 c7375: +57 Y503,3 <= +50
 c7376: +57 Y503,4 <= +40
 c7377: +57 Y503,5 <= +70
 c7378: +57 Y503,6 <= +80
 c7379: +61.8 Y504,0 <= +70
 c7380: +61.8 Y504,1 <= +70
 c7381: +61.8 Y504,2 <= +60
 c7382: +61.8 Y504,3 <= +50
 c7383: +61.8 Y504,4 <= +40
 c7384: +61.8 Y504,5 <= +70
 c7385: +61.8 Y504,6 <= +80
 c7386: +43.2 Y505,0 <= +70
 c7387: +43.2 Y505,1 <= +70
 c7388: +43.2 Y505,2 <= +60
 c7389: +43.2 Y505,3 <= +50
 c7390: +43.2 Y505,4 <= +40
 c7391: +43.2 Y505,5 <= +70
 c7392: +43.2 Y505,6 <= +80
 c7393: +56.5 Y506,0 <= +70
 c7394: +56.5 Y506,1 <= +70
 c7395: +56.5 Y506,2 <= +60
 c7396: +56.5 Y506,3 <= +50
 c7397: +56.5 Y506,4 <= +40
 c7398: +56.5 Y506,5 <= +70
 c7399: +56.5 Y506,6 <= +80
 c7400: +76 Y507,0 <= +70
 c7401: +76 Y507,1 <= +70
 c7402: +76 Y507,2 <= +60
 c7403: +76 Y507,3 <= +50
 c7404: +76 Y507,4 <= +40
 c7405: +76 Y507,5 <= +70
 c7406: +76 Y507,6 <= +80
 c7407: +77 Y508,0 <= +70
 c7408: +77 Y508,1 <= +70
 c7409: +77 Y508,2 <= +60
 c7410: +77 Y508,3 <= +50
 c7411: +77 Y508,4 <= +40
 c7412: +77 Y508,5 <= +70
 c7413: +77 Y508,6 <= +80
 c7414: +75 Y509,0 <= +70
 c7415: +75 Y509,1 <= +70
 c7416: +75 Y509,2 <= +60
 c7417: +75 Y509,3 <= +50
 c7418: +75 Y509,4 <= +40
 c7419: +75 Y509,5 <= +70
 c7420: +75 Y509,6 <= +80
 c7421: +79.8 Y510,0 <= +70
 c7422: +79.8 Y510,1 <= +70
 c7423: +79.8 Y510,2 <= +60
 c7424: +79.8 Y510,3 <= +50
 c7425: +79.8 Y510,4 <= +40
 c7426: +79.8 Y510,5 <= +70
 c7427: +79.8 Y510,6 <= +80
 c7428: +74.5 Y511,0 <= +70
 c7429: +74.5 Y511,1 <= +70
 c7430: +74.5 Y511,2 <= +60
 c7431: +74.5 Y511,3 <= +50
 c7432: +74.5 Y511,4 <= +40
 c7433: +74.5 Y511,5 <= +70
 c7434: +74.5 Y511,6 <= +80
 c7435: +78.2 Y512,0 <= +70
 c7436: +78.2 Y512,1 <= +70
 c7437: +78.2 Y512,2 <= +60
 c7438: +78.2 Y512,3 <= +50
 c7439: +78.2 Y512,4 <= +40
 c7440: +78.2 Y512,5 <= +70
 c7441: +78.2 Y512,6 <= +80
 c7442: +79.2 Y513,0 <= +70
 c7443: +79.2 Y513,1 <= +70
 c7444: +79.2 Y513,2 <= +60
 c7445: +79.2 Y513,3 <= +50
 c7446: +79.2 Y513,4 <= +40
 c7447: +79.2 Y513,5 <= +70
 c7448: +79.2 Y513,6 <= +80
 c7449: +77.2 Y514,0 <= +70
 c7450: +77.2 Y514,1 <= +70
 c7451: +77.2 Y514,2 <= +60
 c7452: +77.2 Y514,3 <= +50
 c7453: +77.2 Y514,4 <= +40
 c7454: +77.2 Y514,5 <= +70
 c7455: +77.2 Y514,6 <= +80
 c7456: +76.7 Y515,0 <= +70
 c7457: +76.7 Y515,1 <= +70
 c7458: +76.7 Y515,2 <= +60
 c7459: +76.7 Y515,3 <= +50
 c7460: +76.7 Y515,4 <= +40
 c7461: +76.7 Y515,5 <= +70
 c7462: +76.7 Y515,6 <= +80
 c7463: +79.2 Y516,0 <= +70
 c7464: +79.2 Y516,1 <= +70
 c7465: +79.2 Y516,2 <= +60
 c7466: +79.2 Y516,3 <= +50
 c7467: +79.2 Y516,4 <= +40
 c7468: +79.2 Y516,5 <= +70
 c7469: +79.2 Y516,6 <= +80
 c7470: +78.2 Y517,0 <= +70
 c7471: +78.2 Y517,1 <= +70
 c7472: +78.2 Y517,2 <= +60
 c7473: +78.2 Y517,3 <= +50
 c7474: +78.2 Y517,4 <= +40
 c7475: +78.2 Y517,5 <= +70
 c7476: +78.2 Y517,6 <= +80
 c7477: +77.7 Y518,0 <= +70
 c7478: +77.7 Y518,1 <= +70
 c7479: +77.7 Y518,2 <= +60
 c7480: +77.7 Y518,3 <= +50
 c7481: +77.7 Y518,4 <= +40
 c7482: +77.7 Y518,5 <= +70
 c7483: +77.7 Y518,6 <= +80
 c7484: +78.9 Y519,0 <= +70
 c7485: +78.9 Y519,1 <= +70
 c7486: +78.9 Y519,2 <= +60
 c7487: +78.9 Y519,3 <= +50
 c7488: +78.9 Y519,4 <= +40
 c7489: +78.9 Y519,5 <= +70
 c7490: +78.9 Y519,6 <= +80
 c7491: +79.9 Y520,0 <= +70
 c7492: +79.9 Y520,1 <= +70
 c7493: +79.9 Y520,2 <= +60
 c7494: +79.9 Y520,3 <= +50
 c7495: +79.9 Y520,4 <= +40
 c7496: +79.9 Y520,5 <= +70
 c7497: +79.9 Y520,6 <= +80
 c7498: +77.9 Y521,0 <= +70
 c7499: +77.9 Y521,1 <= +70
 c7500: +77.9 Y521,2 <= +60
 c7501: +77.9 Y521,3 <= +50
 c7502: +77.9 Y521,4 <= +40
 c7503: +77.9 Y521,5 <= +70
 c7504: +77.9 Y521,6 <= +80
 c7505: +64.1 Y522,0 <= +70
 c7506: +64.1 Y522,1 <= +70
 c7507: +64.1 Y522,2 <= +60
 c7508: +64.1 Y522,3 <= +50
 c7509: +64.1 Y522,4 <= +40
 c7510: +64.1 Y522,5 <= +70
 c7511: +64.1 Y522,6 <= +80
 c7512: +77.4 Y523,0 <= +70
 c7513: +77.4 Y523,1 <= +70
 c7514: +77.4 Y523,2 <= +60
 c7515: +77.4 Y523,3 <= +50
 c7516: +77.4 Y523,4 <= +40
 c7517: +77.4 Y523,5 <= +70
 c7518: +77.4 Y523,6 <= +80
 c7519: +78.3 Y524,0 <= +70
 c7520: +78.3 Y524,1 <= +70
 c7521: +78.3 Y524,2 <= +60
 c7522: +78.3 Y524,3 <= +50
 c7523: +78.3 Y524,4 <= +40
 c7524: +78.3 Y524,5 <= +70
 c7525: +78.3 Y524,6 <= +80
 c7526: +79.3 Y525,0 <= +70
 c7527: +79.3 Y525,1 <= +70
 c7528: +79.3 Y525,2 <= +60
 c7529: +79.3 Y525,3 <= +50
 c7530: +79.3 Y525,4 <= +40
 c7531: +79.3 Y525,5 <= +70
 c7532: +79.3 Y525,6 <= +80
 c7533: +77.3 Y526,0 <= +70
 c7534: +77.3 Y526,1 <= +70
 c7535: +77.3 Y526,2 <= +60
 c7536: +77.3 Y526,3 <= +50
 c7537: +77.3 Y526,4 <= +40
 c7538: +77.3 Y526,5 <= +70
 c7539: +77.3 Y526,6 <= +80
 c7540: +76.8 Y527,0 <= +70
 c7541: +76.8 Y527,1 <= +70
 c7542: +76.8 Y527,2 <= +60
 c7543: +76.8 Y527,3 <= +50
 c7544: +76.8 Y527,4 <= +40
 c7545: +76.8 Y527,5 <= +70
 c7546: +76.8 Y527,6 <= +80
 c7547: +79.3 Y528,0 <= +70
 c7548: +79.3 Y528,1 <= +70
 c7549: +79.3 Y528,2 <= +60
 c7550: +79.3 Y528,3 <= +50
 c7551: +79.3 Y528,4 <= +40
 c7552: +79.3 Y528,5 <= +70
 c7553: +79.3 Y528,6 <= +80
 c7554: +78.3 Y529,0 <= +70
 c7555: +78.3 Y529,1 <= +70
 c7556: +78.3 Y529,2 <= +60
 c7557: +78.3 Y529,3 <= +50
 c7558: +78.3 Y529,4 <= +40
 c7559: +78.3 Y529,5 <= +70
 c7560: +78.3 Y529,6 <= +80
 c7561: +77.8 Y530,0 <= +70
 c7562: +77.8 Y530,1 <= +70
 c7563: +77.8 Y530,2 <= +60
 c7564: +77.8 Y530,3 <= +50
 c7565: +77.8 Y530,4 <= +40
 c7566: +77.8 Y530,5 <= +70
 c7567: +77.8 Y530,6 <= +80
 c7568: +79 Y531,0 <= +70
 c7569: +79 Y531,1 <= +70
 c7570: +79 Y531,2 <= +60
 c7571: +79 Y531,3 <= +50
 c7572: +79 Y531,4 <= +40
 c7573: +79 Y531,5 <= +70
 c7574: +79 Y531,6 <= +80
 c7575: +80 Y532,0 <= +70
 c7576: +80 Y532,1 <= +70
 c7577: +80 Y532,2 <= +60
 c7578: +80 Y532,3 <= +50
 c7579: +80 Y532,4 <= +40
 c7580: +80 Y532,5 <= +70
 c7581: +80 Y532,6 <= +80
 c7582: +78 Y533,0 <= +70
 c7583: +78 Y533,1 <= +70
 c7584: +78 Y533,2 <= +60
 c7585: +78 Y533,3 <= +50
 c7586: +78 Y533,4 <= +40
 c7587: +78 Y533,5 <= +70
 c7588: +78 Y533,6 <= +80
 c7589: +64.2 Y534,0 <= +70
 c7590: +64.2 Y534,1 <= +70
 c7591: +64.2 Y534,2 <= +60
 c7592: +64.2 Y534,3 <= +50
 c7593: +64.2 Y534,4 <= +40
 c7594: +64.2 Y534,5 <= +70
 c7595: +64.2 Y534,6 <= +80
 c7596: +77.5 Y535,0 <= +70
 c7597: +77.5 Y535,1 <= +70
 c7598: +77.5 Y535,2 <= +60
 c7599: +77.5 Y535,3 <= +50
 c7600: +77.5 Y535,4 <= +40
 c7601: +77.5 Y535,5 <= +70
 c7602: +77.5 Y535,6 <= +80
 c7603: +80 Y536,0 <= +70
 c7604: +80 Y536,1 <= +70
 c7605: +80 Y536,2 <= +60
 c7606: +80 Y536,3 <= +50
 c7607: +80 Y536,4 <= +40
 c7608: +80 Y536,5 <= +70
 c7609: +80 Y536,6 <= +80
 c7610: +66.4 Y537,0 <= +70
 c7611: +66.4 Y537,1 <= +70
 c7612: +66.4 Y537,2 <= +60
 c7613: +66.4 Y537,3 <= +50
 c7614: +66.4 Y537,4 <= +40
 c7615: +66.4 Y537,5 <= +70
 c7616: +66.4 Y537,6 <= +80
 c7617: +79.7 Y538,0 <= +70
 c7618: +79.7 Y538,1 <= +70
 c7619: +79.7 Y538,2 <= +60
 c7620: +79.7 Y538,3 <= +50
 c7621: +79.7 Y538,4 <= +40
 c7622: +79.7 Y538,5 <= +70
 c7623: +79.7 Y538,6 <= +80
 c7624: +67.4 Y539,0 <= +70
 c7625: +67.4 Y539,1 <= +70
 c7626: +67.4 Y539,2 <= +60
 c7627: +67.4 Y539,3 <= +50
 c7628: +67.4 Y539,4 <= +40
 c7629: +67.4 Y539,5 <= +70
 c7630: +67.4 Y539,6 <= +80
 c7631: +67.1 Y540,0 <= +70
 c7632: +67.1 Y540,1 <= +70
 c7633: +67.1 Y540,2 <= +60
 c7634: +67.1 Y540,3 <= +50
 c7635: +67.1 Y540,4 <= +40
 c7636: +67.1 Y540,5 <= +70
 c7637: +67.1 Y540,6 <= +80
 c7638: +6.3 Y541,0 <= +70
 c7639: +6.3 Y541,1 <= +70
 c7640: +6.3 Y541,2 <= +60
 c7641: +6.3 Y541,3 <= +50
 c7642: +6.3 Y541,4 <= +40
 c7643: +6.3 Y541,5 <= +70
 c7644: +6.3 Y541,6 <= +80
 c7645: +22.1 Y542,0 <= +70
 c7646: +22.1 Y542,1 <= +70
 c7647: +22.1 Y542,2 <= +60
 c7648: +22.1 Y542,3 <= +50
 c7649: +22.1 Y542,4 <= +40
 c7650: +22.1 Y542,5 <= +70
 c7651: +22.1 Y542,6 <= +80
 c7652: +22.7 Y543,0 <= +70
 c7653: +22.7 Y543,1 <= +70
 c7654: +22.7 Y543,2 <= +60
 c7655: +22.7 Y543,3 <= +50
 c7656: +22.7 Y543,4 <= +40
 c7657: +22.7 Y543,5 <= +70
 c7658: +22.7 Y543,6 <= +80
 c7659: +28.4 Y544,0 <= +70
 c7660: +28.4 Y544,1 <= +70
 c7661: +28.4 Y544,2 <= +60
 c7662: +28.4 Y544,3 <= +50
 c7663: +28.4 Y544,4 <= +40
 c7664: +28.4 Y544,5 <= +70
 c7665: +28.4 Y544,6 <= +80
 c7666: +29 Y545,0 <= +70
 c7667: +29 Y545,1 <= +70
 c7668: +29 Y545,2 <= +60
 c7669: +29 Y545,3 <= +50
 c7670: +29 Y545,4 <= +40
 c7671: +29 Y545,5 <= +70
 c7672: +29 Y545,6 <= +80
 c7673: +44.8 Y546,0 <= +70
 c7674: +44.8 Y546,1 <= +70
 c7675: +44.8 Y546,2 <= +60
 c7676: +44.8 Y546,3 <= +50
 c7677: +44.8 Y546,4 <= +40
 c7678: +44.8 Y546,5 <= +70
 c7679: +44.8 Y546,6 <= +80
 c7680: +51.1 Y547,0 <= +70
 c7681: +51.1 Y547,1 <= +70
 c7682: +51.1 Y547,2 <= +60
 c7683: +51.1 Y547,3 <= +50
 c7684: +51.1 Y547,4 <= +40
 c7685: +51.1 Y547,5 <= +70
 c7686: +51.1 Y547,6 <= +80
 c7687: +8.8 Y548,0 <= +70
 c7688: +8.8 Y548,1 <= +70
 c7689: +8.8 Y548,2 <= +60
 c7690: +8.8 Y548,3 <= +50
 c7691: +8.8 Y548,4 <= +40
 c7692: +8.8 Y548,5 <= +70
 c7693: +8.8 Y548,6 <= +80
 c7694: +17.3 Y549,0 <= +70
 c7695: +17.3 Y549,1 <= +70
 c7696: +17.3 Y549,2 <= +60
 c7697: +17.3 Y549,3 <= +50
 c7698: +17.3 Y549,4 <= +40
 c7699: +17.3 Y549,5 <= +70
 c7700: +17.3 Y549,6 <= +80
 c7701: +18.6 Y550,0 <= +70
 c7702: +18.6 Y550,1 <= +70
 c7703: +18.6 Y550,2 <= +60
 c7704: +18.6 Y550,3 <= +50
 c7705: +18.6 Y550,4 <= +40
 c7706: +18.6 Y550,5 <= +70
 c7707: +18.6 Y550,6 <= +80
 c7708: +12.7 Y551,0 <= +70
 c7709: +12.7 Y551,1 <= +70
 c7710: +12.7 Y551,2 <= +60
 c7711: +12.7 Y551,3 <= +50
 c7712: +12.7 Y551,4 <= +40
 c7713: +12.7 Y551,5 <= +70
 c7714: +12.7 Y551,6 <= +80
 c7715: +21.9 Y552,0 <= +70
 c7716: +21.9 Y552,1 <= +70
 c7717: +21.9 Y552,2 <= +60
 c7718: +21.9 Y552,3 <= +50
 c7719: +21.9 Y552,4 <= +40
 c7720: +21.9 Y552,5 <= +70
 c7721: +21.9 Y552,6 <= +80
 c7722: +26.1 Y553,0 <= +70
 c7723: +26.1 Y553,1 <= +70
 c7724: +26.1 Y553,2 <= +60
 c7725: +26.1 Y553,3 <= +50
 c7726: +26.1 Y553,4 <= +40
 c7727: +26.1 Y553,5 <= +70
 c7728: +26.1 Y553,6 <= +80
 c7729: +27.4 Y554,0 <= +70
 c7730: +27.4 Y554,1 <= +70
 c7731: +27.4 Y554,2 <= +60
 c7732: +27.4 Y554,3 <= +50
 c7733: +27.4 Y554,4 <= +40
 c7734: +27.4 Y554,5 <= +70
 c7735: +27.4 Y554,6 <= +80
 c7736: +21.5 Y555,0 <= +70
 c7737: +21.5 Y555,1 <= +70
 c7738: +21.5 Y555,2 <= +60
 c7739: +21.5 Y555,3 <= +50
 c7740: +21.5 Y555,4 <= +40
 c7741: +21.5 Y555,5 <= +70
 c7742: +21.5 Y555,6 <= +80
 c7743: +30.7 Y556,0 <= +70
 c7744: +30.7 Y556,1 <= +70
 c7745: +30.7 Y556,2 <= +60
 c7746: +30.7 Y556,3 <= +50
 c7747: +30.7 Y556,4 <= +40
 c7748: +30.7 Y556,5 <= +70
 c7749: +30.7 Y556,6 <= +80
 c7750: +35.9 Y557,0 <= +70
 c7751: +35.9 Y557,1 <= +70
 c7752: +35.9 Y557,2 <= +60
 c7753: +35.9 Y557,3 <= +50
 c7754: +35.9 Y557,4 <= +40
 c7755: +35.9 Y557,5 <= +70
 c7756: +35.9 Y557,6 <= +80
 c7757: +30 Y558,0 <= +70
 c7758: +30 Y558,1 <= +70
 c7759: +30 Y558,2 <= +60
 c7760: +30 Y558,3 <= +50
 c7761: +30 Y558,4 <= +40
 c7762: +30 Y558,5 <= +70
 c7763: +30 Y558,6 <= +80
 c7764: +39.2 Y559,0 <= +70
 c7765: +39.2 Y559,1 <= +70
 c7766: +39.2 Y559,2 <= +60
 c7767: +39.2 Y559,3 <= +50
 c7768: +39.2 Y559,4 <= +40
 c7769: +39.2 Y559,5 <= +70
 c7770: +39.2 Y559,6 <= +80
 c7771: +31.3 Y560,0 <= +70
 c7772: +31.3 Y560,1 <= +70
 c7773: +31.3 Y560,2 <= +60
 c7774: +31.3 Y560,3 <= +50
 c7775: +31.3 Y560,4 <= +40
 c7776: +31.3 Y560,5 <= +70
 c7777: +31.3 Y560,6 <= +80
 c7778: +40.5 Y561,0 <= +70
 c7779: +40.5 Y561,1 <= +70
 c7780: +40.5 Y561,2 <= +60
 c7781: +40.5 Y561,3 <= +50
 c7782: +40.5 Y561,4 <= +40
 c7783: +40.5 Y561,5 <= +70
 c7784: +40.5 Y561,6 <= +80
 c7785: +34.6 Y562,0 <= +70
 c7786: +34.6 Y562,1 <= +70
 c7787: +34.6 Y562,2 <= +60
 c7788: +34.6 Y562,3 <= +50
 c7789: +34.6 Y562,4 <= +40
 c7790: +34.6 Y562,5 <= +70
 c7791: +34.6 Y562,6 <= +80
 c7792: +44.7 Y563,0 <= +70
 c7793: +44.7 Y563,1 <= +70
 c7794: +44.7 Y563,2 <= +60
 c7795: +44.7 Y563,3 <= +50
 c7796: +44.7 Y563,4 <= +40
 c7797: +44.7 Y563,5 <= +70
 c7798: +44.7 Y563,6 <= +80
 c7799: +38.8 Y564,0 <= +70
 c7800: +38.8 Y564,1 <= +70
 c7801: +38.8 Y564,2 <= +60
 c7802: +38.8 Y564,3 <= +50
 c7803: +38.8 Y564,4 <= +40
 c7804: +38.8 Y564,5 <= +70
 c7805: +38.8 Y564,6 <= +80
 c7806: +48 Y565,0 <= +70
 c7807: +48 Y565,1 <= +70
 c7808: +48 Y565,2 <= +60
 c7809: +48 Y565,3 <= +50
 c7810: +48 Y565,4 <= +40
 c7811: +48 Y565,5 <= +70
 c7812: +48 Y565,6 <= +80
 c7813: +40.1 Y566,0 <= +70
 c7814: +40.1 Y566,1 <= +70
 c7815: +40.1 Y566,2 <= +60
 c7816: +40.1 Y566,3 <= +50
 c7817: +40.1 Y566,4 <= +40
 c7818: +40.1 Y566,5 <= +70
 c7819: +40.1 Y566,6 <= +80
 c7820: +49.3 Y567,0 <= +70
 c7821: +49.3 Y567,1 <= +70
 c7822: +49.3 Y567,2 <= +60
 c7823: +49.3 Y567,3 <= +50
 c7824: +49.3 Y567,4 <= +40
 c7825: +49.3 Y567,5 <= +70
 c7826: +49.3 Y567,6 <= +80
 c7827: +43.4 Y568,0 <= +70
 c7828: +43.4 Y568,1 <= +70
 c7829: +43.4 Y568,2 <= +60
 c7830: +43.4 Y568,3 <= +50
 c7831: +43.4 Y568,4 <= +40
 c7832: +43.4 Y568,5 <= +70
 c7833: +43.4 Y568,6 <= +80
 c7834: +48.6 Y569,0 <= +70
 c7835: +48.6 Y569,1 <= +70
 c7836: +48.6 Y569,2 <= +60
 c7837: +48.6 Y569,3 <= +50
 c7838: +48.6 Y569,4 <= +40
 c7839: +48.6 Y569,5 <= +70
 c7840: +48.6 Y569,6 <= +80
 c7841: +57.8 Y570,0 <= +70
 c7842: +57.8 Y570,1 <= +70
 c7843: +57.8 Y570,2 <= +60
 c7844: +57.8 Y570,3 <= +50
 c7845: +57.8 Y570,4 <= +40
 c7846: +57.8 Y570,5 <= +70
 c7847: +57.8 Y570,6 <= +80
 c7848: +51.9 Y571,0 <= +70
 c7849: +51.9 Y571,1 <= +70
 c7850: +51.9 Y571,2 <= +60
 c7851: +51.9 Y571,3 <= +50
 c7852: +51.9 Y571,4 <= +40
 c7853: +51.9 Y571,5 <= +70
 c7854: +51.9 Y571,6 <= +80
 c7855: +53.2 Y572,0 <= +70
 c7856: +53.2 Y572,1 <= +70
 c7857: +53.2 Y572,2 <= +60
 c7858: +53.2 Y572,3 <= +50
 c7859: +53.2 Y572,4 <= +40
 c7860: +53.2 Y572,5 <= +70
 c7861: +53.2 Y572,6 <= +80
 c7862: +57.4 Y573,0 <= +70
 c7863: +57.4 Y573,1 <= +70
 c7864: +57.4 Y573,2 <= +60
 c7865: +57.4 Y573,3 <= +50
 c7866: +57.4 Y573,4 <= +40
 c7867: +57.4 Y573,5 <= +70
 c7868: +57.4 Y573,6 <= +80
 c7869: +66.6 Y574,0 <= +70
 c7870: +66.6 Y574,1 <= +70
 c7871: +66.6 Y574,2 <= +60
 c7872: +66.6 Y574,3 <= +50
 c7873: +66.6 Y574,4 <= +40
 c7874: +66.6 Y574,5 <= +70
 c7875: +66.6 Y574,6 <= +80
 c7876: +60.7 Y575,0 <= +70
 c7877: +60.7 Y575,1 <= +70
 c7878: +60.7 Y575,2 <= +60
 c7879: +60.7 Y575,3 <= +50
 c7880: +60.7 Y575,4 <= +40
 c7881: +60.7 Y575,5 <= +70
 c7882: +60.7 Y575,6 <= +80
 c7883: +62 Y576,0 <= +70
 c7884: +62 Y576,1 <= +70
 c7885: +62 Y576,2 <= +60
 c7886: +62 Y576,3 <= +50
 c7887: +62 Y576,4 <= +40
 c7888: +62 Y576,5 <= +70
 c7889: +62 Y576,6 <= +80
 c7890: +70.5 Y577,0 <= +70
 c7891: +70.5 Y577,1 <= +70
 c7892: +70.5 Y577,2 <= +60
 c7893: +70.5 Y577,3 <= +50
 c7894: +70.5 Y577,4 <= +40
 c7895: +70.5 Y577,5 <= +70
 c7896: +70.5 Y577,6 <= +80
 c7897: +79.3 Y578,0 <= +70
 c7898: +79.3 Y578,1 <= +70
 c7899: +79.3 Y578,2 <= +60
 c7900: +79.3 Y578,3 <= +50
 c7901: +79.3 Y578,4 <= +40
 c7902: +79.3 Y578,5 <= +70
 c7903: +79.3 Y578,6 <= +80
 c7904: +17.9 Y579,0 <= +70
 c7905: +17.9 Y579,1 <= +70
 c7906: +17.9 Y579,2 <= +60
 c7907: +17.9 Y579,3 <= +50
 c7908: +17.9 Y579,4 <= +40
 c7909: +17.9 Y579,5 <= +70
 c7910: +17.9 Y579,6 <= +80
 c7911: +6.9 Y580,0 <= +70
 c7912: +6.9 Y580,1 <= +70
 c7913: +6.9 Y580,2 <= +60
 c7914: +6.9 Y580,3 <= +50
 c7915: +6.9 Y580,4 <= +40
 c7916: +6.9 Y580,5 <= +70
 c7917: +6.9 Y580,6 <= +80
 c7918: +20.7 Y581,0 <= +70
 c7919: +20.7 Y581,1 <= +70
 c7920: +20.7 Y581,2 <= +60
 c7921: +20.7 Y581,3 <= +50
 c7922: +20.7 Y581,4 <= +40
 c7923: +20.7 Y581,5 <= +70
 c7924: +20.7 Y581,6 <= +80
 c7925: +11.8 Y582,0 <= +70
 c7926: +11.8 Y582,1 <= +70
 c7927: +11.8 Y582,2 <= +60
 c7928: +11.8 Y582,3 <= +50
 c7929: +11.8 Y582,4 <= +40
 c7930: +11.8 Y582,5 <= +70
 c7931: +11.8 Y582,6 <= +80
 c7932: +14.5 Y583,0 <= +70
 c7933: +14.5 Y583,1 <= +70
 c7934: +14.5 Y583,2 <= +60
 c7935: +14.5 Y583,3 <= +50
 c7936: +14.5 Y583,4 <= +40
 c7937: +14.5 Y583,5 <= +70
 c7938: +14.5 Y583,6 <= +80
 c7939: +18.9 Y584,0 <= +70
 c7940: +18.9 Y584,1 <= +70
 c7941: +18.9 Y584,2 <= +60
 c7942: +18.9 Y584,3 <= +50
 c7943: +18.9 Y584,4 <= +40
 c7944: +18.9 Y584,5 <= +70
 c7945: +18.9 Y584,6 <= +80
 c7946: +9 Y585,0 <= +70
 c7947: +9 Y585,1 <= +70
 c7948: +9 Y585,2 <= +60
 c7949: +9 Y585,3 <= +50
 c7950: +9 Y585,4 <= +40
 c7951: +9 Y585,5 <= +70
 c7952: +9 Y585,6 <= +80
 c7953: +24.8 Y586,0 <= +70
 c7954: +24.8 Y586,1 <= +70
 c7955: +24.8 Y586,2 <= +60
 c7956: +24.8 Y586,3 <= +50
 c7957: +24.8 Y586,4 <= +40
 c7958: +24.8 Y586,5 <= +70
 c7959: +24.8 Y586,6 <= +80
 c7960: +38.6 Y587,0 <= +70
 c7961: +38.6 Y587,1 <= +70
 c7962: +38.6 Y587,2 <= +60
 c7963: +38.6 Y587,3 <= +50
 c7964: +38.6 Y587,4 <= +40
 c7965: +38.6 Y587,5 <= +70
 c7966: +38.6 Y587,6 <= +80
 c7967: +29.7 Y588,0 <= +70
 c7968: +29.7 Y588,1 <= +70
 c7969: +29.7 Y588,2 <= +60
 c7970: +29.7 Y588,3 <= +50
 c7971: +29.7 Y588,4 <= +40
 c7972: +29.7 Y588,5 <= +70
 c7973: +29.7 Y588,6 <= +80
 c7974: +32.4 Y589,0 <= +70
 c7975: +32.4 Y589,1 <= +70
 c7976: +32.4 Y589,2 <= +60
 c7977: +32.4 Y589,3 <= +50
 c7978: +32.4 Y589,4 <= +40
 c7979: +32.4 Y589,5 <= +70
 c7980: +32.4 Y589,6 <= +80
 c7981: +36.8 Y590,0 <= +70
 c7982: +36.8 Y590,1 <= +70
 c7983: +36.8 Y590,2 <= +60
 c7984: +36.8 Y590,3 <= +50
 c7985: +36.8 Y590,4 <= +40
 c7986: +36.8 Y590,5 <= +70
 c7987: +36.8 Y590,6 <= +80
 c7988: +26.9 Y591,0 <= +70
 c7989: +26.9 Y591,1 <= +70
 c7990: +26.9 Y591,2 <= +60
 c7991: +26.9 Y591,3 <= +50
 c7992: +26.9 Y591,4 <= +40
 c7993: +26.9 Y591,5 <= +70
 c7994: +26.9 Y591,6 <= +80
 c7995: +27.6 Y592,0 <= +70
 c7996: +27.6 Y592,1 <= +70
 c7997: +27.6 Y592,2 <= +60
 c7998: +27.6 Y592,3 <= +50
 c7999: +27.6 Y592,4 <= +40
 c8000: +27.6 Y592,5 <= +70
 c8001: +27.6 Y592,6 <= +80
 c8002: +18.7 Y593,0 <= +70
 c8003: +18.7 Y593,1 <= +70
 c8004: +18.7 Y593,2 <= +60
 c8005: +18.7 Y593,3 <= +50
 c8006: +18.7 Y593,4 <= +40
 c8007: +18.7 Y593,5 <= +70
 c8008: +18.7 Y593,6 <= +80
 c8009: +21.4 Y594,0 <= +70
 c8010: +21.4 Y594,1 <= +70
 c8011: +21.4 Y594,2 <= +60
 c8012: +21.4 Y594,3 <= +50
 c8013: +21.4 Y594,4 <= +40
 c8014: +21.4 Y594,5 <= +70
 c8015: +21.4 Y594,6 <= +80
 c8016: +25.8 Y595,0 <= +70
 c8017: +25.8 Y595,1 <= +70
 c8018: +25.8 Y595,2 <= +60
 c8019: +25.8 Y595,3 <= +50
 c8020: +25.8 Y595,4 <= +40
 c8021: +25.8 Y595,5 <= +70
 c8022: +25.8 Y595,6 <= +80
 c8023: +15.9 Y596,0 <= +70
 c8024: +15.9 Y596,1 <= +70
 c8025: +15.9 Y596,2 <= +60
 c8026: +15.9 Y596,3 <= +50
 c8027: +15.9 Y596,4 <= +40
 c8028: +15.9 Y596,5 <= +70
 c8029: +15.9 Y596,6 <= +80
 c8030: +32.5 Y597,0 <= +70
 c8031: +32.5 Y597,1 <= +70
 c8032: +32.5 Y597,2 <= +60
 c8033: +32.5 Y597,3 <= +50
 c8034: +32.5 Y597,4 <= +40
 c8035: +32.5 Y597,5 <= +70
 c8036: +32.5 Y597,6 <= +80
 c8037: +35.2 Y598,0 <= +70
 c8038: +35.2 Y598,1 <= +70
 c8039: +35.2 Y598,2 <= +60
 c8040: +35.2 Y598,3 <= +50
 c8041: +35.2 Y598,4 <= +40
 c8042: +35.2 Y598,5 <= +70
 c8043: +35.2 Y598,6 <= +80
 c8044: +39.6 Y599,0 <= +70
 c8045: +39.6 Y599,1 <= +70
 c8046: +39.6 Y599,2 <= +60
 c8047: +39.6 Y599,3 <= +50
 c8048: +39.6 Y599,4 <= +40
 c8049: +39.6 Y599,5 <= +70
 c8050: +39.6 Y599,6 <= +80
 c8051: +29.7 Y600,0 <= +70
 c8052: +29.7 Y600,1 <= +70
 c8053: +29.7 Y600,2 <= +60
 c8054: +29.7 Y600,3 <= +50
 c8055: +29.7 Y600,4 <= +40
 c8056: +29.7 Y600,5 <= +70
 c8057: +29.7 Y600,6 <= +80
 c8058: +26.3 Y601,0 <= +70
 c8059: +26.3 Y601,1 <= +70
 c8060: +26.3 Y601,2 <= +60
 c8061: +26.3 Y601,3 <= +50
 c8062: +26.3 Y601,4 <= +40
 c8063: +26.3 Y601,5 <= +70
 c8064: +26.3 Y601,6 <= +80
 c8065: +30.7 Y602,0 <= +70
 c8066: +30.7 Y602,1 <= +70
 c8067: +30.7 Y602,2 <= +60
 c8068: +30.7 Y602,3 <= +50
 c8069: +30.7 Y602,4 <= +40
 c8070: +30.7 Y602,5 <= +70
 c8071: +30.7 Y602,6 <= +80
 c8072: +20.8 Y603,0 <= +70
 c8073: +20.8 Y603,1 <= +70
 c8074: +20.8 Y603,2 <= +60
 c8075: +20.8 Y603,3 <= +50
 c8076: +20.8 Y603,4 <= +40
 c8077: +20.8 Y603,5 <= +70
 c8078: +20.8 Y603,6 <= +80
 c8079: +33.4 Y604,0 <= +70
 c8080: +33.4 Y604,1 <= +70
 c8081: +33.4 Y604,2 <= +60
 c8082: +33.4 Y604,3 <= +50
 c8083: +33.4 Y604,4 <= +40
 c8084: +33.4 Y604,5 <= +70
 c8085: +33.4 Y604,6 <= +80
 c8086: +23.5 Y605,0 <= +70
 c8087: +23.5 Y605,1 <= +70
 c8088: +23.5 Y605,2 <= +60
 c8089: +23.5 Y605,3 <= +50
 c8090: +23.5 Y605,4 <= +40
 c8091: +23.5 Y605,5 <= +70
 c8092: +23.5 Y605,6 <= +80
 c8093: +27.9 Y606,0 <= +70
 c8094: +27.9 Y606,1 <= +70
 c8095: +27.9 Y606,2 <= +60
 c8096: +27.9 Y606,3 <= +50
 c8097: +27.9 Y606,4 <= +40
 c8098: +27.9 Y606,5 <= +70
 c8099: +27.9 Y606,6 <= +80
 c8100: +45.5 Y607,0 <= +70
 c8101: +45.5 Y607,1 <= +70
 c8102: +45.5 Y607,2 <= +60
 c8103: +45.5 Y607,3 <= +50
 c8104: +45.5 Y607,4 <= +40
 c8105: +45.5 Y607,5 <= +70
 c8106: +45.5 Y607,6 <= +80
 c8107: +36.6 Y608,0 <= +70
 c8108: +36.6 Y608,1 <= +70
 c8109: +36.6 Y608,2 <= +60
 c8110: +36.6 Y608,3 <= +50
 c8111: +36.6 Y608,4 <= +40
 c8112: +36.6 Y608,5 <= +70
 c8113: +36.6 Y608,6 <= +80
 c8114: +39.3 Y609,0 <= +70
 c8115: +39.3 Y609,1 <= +70
 c8116: +39.3 Y609,2 <= +60
 c8117: +39.3 Y609,3 <= +50
 c8118: +39.3 Y609,4 <= +40
 c8119: +39.3 Y609,5 <= +70
 c8120: +39.3 Y609,6 <= +80
 c8121: +43.7 Y610,0 <= +70
 c8122: +43.7 Y610,1 <= +70
 c8123: +43.7 Y610,2 <= +60
 c8124: +43.7 Y610,3 <= +50
 c8125: +43.7 Y610,4 <= +40
 c8126: +43.7 Y610,5 <= +70
 c8127: +43.7 Y610,6 <= +80
 c8128: +33.8 Y611,0 <= +70
 c8129: +33.8 Y611,1 <= +70
 c8130: +33.8 Y611,2 <= +60
 c8131: +33.8 Y611,3 <= +50
 c8132: +33.8 Y611,4 <= +40
 c8133: +33.8 Y611,5 <= +70
 c8134: +33.8 Y611,6 <= +80
 c8135: +50.4 Y612,0 <= +70
 c8136: +50.4 Y612,1 <= +70
 c8137: +50.4 Y612,2 <= +60
 c8138: +50.4 Y612,3 <= +50
 c8139: +50.4 Y612,4 <= +40
 c8140: +50.4 Y612,5 <= +70
 c8141: +50.4 Y612,6 <= +80
 c8142: +53.1 Y613,0 <= +70
 c8143: +53.1 Y613,1 <= +70
 c8144: +53.1 Y613,2 <= +60
 c8145: +53.1 Y613,3 <= +50
 c8146: +53.1 Y613,4 <= +40
 c8147: +53.1 Y613,5 <= +70
 c8148: +53.1 Y613,6 <= +80
 c8149: +57.5 Y614,0 <= +70
 c8150: +57.5 Y614,1 <= +70
 c8151: +57.5 Y614,2 <= +60
 c8152: +57.5 Y614,3 <= +50
 c8153: +57.5 Y614,4 <= +40
 c8154: +57.5 Y614,5 <= +70
 c8155: +57.5 Y614,6 <= +80
 c8156: +47.6 Y615,0 <= +70
 c8157: +47.6 Y615,1 <= +70
 c8158: +47.6 Y615,2 <= +60
 c8159: +47.6 Y615,3 <= +50
 c8160: +47.6 Y615,4 <= +40
 c8161: +47.6 Y615,5 <= +70
 c8162: +47.6 Y615,6 <= +80
 c8163: +44.2 Y616,0 <= +70
 c8164: +44.2 Y616,1 <= +70
 c8165: +44.2 Y616,2 <= +60
 c8166: +44.2 Y616,3 <= +50
 c8167: +44.2 Y616,4 <= +40
 c8168: +44.2 Y616,5 <= +70
 c8169: +44.2 Y616,6 <= +80
 c8170: +48.6 Y617,0 <= +70
 c8171: +48.6 Y617,1 <= +70
 c8172: +48.6 Y617,2 <= +60
 c8173: +48.6 Y617,3 <= +50
 c8174: +48.6 Y617,4 <= +40
 c8175: +48.6 Y617,5 <= +70
 c8176: +48.6 Y617,6 <= +80
 c8177: +38.7 Y618,0 <= +70
 c8178: +38.7 Y618,1 <= +70
 c8179: +38.7 Y618,2 <= +60
 c8180: +38.7 Y618,3 <= +50
 c8181: +38.7 Y618,4 <= +40
 c8182: +38.7 Y618,5 <= +70
 c8183: +38.7 Y618,6 <= +80
 c8184: +51.3 Y619,0 <= +70
 c8185: +51.3 Y619,1 <= +70
 c8186: +51.3 Y619,2 <= +60
 c8187: +51.3 Y619,3 <= +50
 c8188: +51.3 Y619,4 <= +40
 c8189: +51.3 Y619,5 <= +70
 c8190: +51.3 Y619,6 <= +80
 c8191: +41.4 Y620,0 <= +70
 c8192: +41.4 Y620,1 <= +70
 c8193: +41.4 Y620,2 <= +60
 c8194: +41.4 Y620,3 <= +50
 c8195: +41.4 Y620,4 <= +40
 c8196: +41.4 Y620,5 <= +70
 c8197: +41.4 Y620,6 <= +80
 c8198: +45.8 Y621,0 <= +70
 c8199: +45.8 Y621,1 <= +70
 c8200: +45.8 Y621,2 <= +60
 c8201: +45.8 Y621,3 <= +50
 c8202: +45.8 Y621,4 <= +40
 c8203: +45.8 Y621,5 <= +70
 c8204: +45.8 Y621,6 <= +80
 c8205: +39.4 Y622,0 <= +70
 c8206: +39.4 Y622,1 <= +70
 c8207: +39.4 Y622,2 <= +60
 c8208: +39.4 Y622,3 <= +50
 c8209: +39.4 Y622,4 <= +40
 c8210: +39.4 Y622,5 <= +70
 c8211: +39.4 Y622,6 <= +80
 c8212: +42.1 Y623,0 <= +70
 c8213: +42.1 Y623,1 <= +70
 c8214: +42.1 Y623,2 <= +60
 c8215: +42.1 Y623,3 <= +50
 c8216: +42.1 Y623,4 <= +40
 c8217: +42.1 Y623,5 <= +70
 c8218: +42.1 Y623,6 <= +80
 c8219: +46.5 Y624,0 <= +70
 c8220: +46.5 Y624,1 <= +70
 c8221: +46.5 Y624,2 <= +60
 c8222: +46.5 Y624,3 <= +50
 c8223: +46.5 Y624,4 <= +40
 c8224: +46.5 Y624,5 <= +70
 c8225: +46.5 Y624,6 <= +80
 c8226: +36.6 Y625,0 <= +70
 c8227: +36.6 Y625,1 <= +70
 c8228: +36.6 Y625,2 <= +60
 c8229: +36.6 Y625,3 <= +50
 c8230: +36.6 Y625,4 <= +40
 c8231: +36.6 Y625,5 <= +70
 c8232: +36.6 Y625,6 <= +80
 c8233: +33.2 Y626,0 <= +70
 c8234: +33.2 Y626,1 <= +70
 c8235: +33.2 Y626,2 <= +60
 c8236: +33.2 Y626,3 <= +50
 c8237: +33.2 Y626,4 <= +40
 c8238: +33.2 Y626,5 <= +70
 c8239: +33.2 Y626,6 <= +80
 c8240: +37.6 Y627,0 <= +70
 c8241: +37.6 Y627,1 <= +70
 c8242: +37.6 Y627,2 <= +60
 c8243: +37.6 Y627,3 <= +50
 c8244: +37.6 Y627,4 <= +40
 c8245: +37.6 Y627,5 <= +70
 c8246: +37.6 Y627,6 <= +80
 c8247: +27.7 Y628,0 <= +70
 c8248: +27.7 Y628,1 <= +70
 c8249: +27.7 Y628,2 <= +60
 c8250: +27.7 Y628,3 <= +50
 c8251: +27.7 Y628,4 <= +40
 c8252: +27.7 Y628,5 <= +70
 c8253: +27.7 Y628,6 <= +80
 c8254: +40.3 Y629,0 <= +70
 c8255: +40.3 Y629,1 <= +70
 c8256: +40.3 Y629,2 <= +60
 c8257: +40.3 Y629,3 <= +50
 c8258: +40.3 Y629,4 <= +40
 c8259: +40.3 Y629,5 <= +70
 c8260: +40.3 Y629,6 <= +80
 c8261: +30.4 Y630,0 <= +70
 c8262: +30.4 Y630,1 <= +70
 c8263: +30.4 Y630,2 <= +60
 c8264: +30.4 Y630,3 <= +50
 c8265: +30.4 Y630,4 <= +40
 c8266: +30.4 Y630,5 <= +70
 c8267: +30.4 Y630,6 <= +80
 c8268: +34.8 Y631,0 <= +70
 c8269: +34.8 Y631,1 <= +70
 c8270: +34.8 Y631,2 <= +60
 c8271: +34.8 Y631,3 <= +50
 c8272: +34.8 Y631,4 <= +40
 c8273: +34.8 Y631,5 <= +70
 c8274: +34.8 Y631,6 <= +80
 c8275: +47 Y632,0 <= +70
 c8276: +47 Y632,1 <= +70
 c8277: +47 Y632,2 <= +60
 c8278: +47 Y632,3 <= +50
 c8279: +47 Y632,4 <= +40
 c8280: +47 Y632,5 <= +70
 c8281: +47 Y632,6 <= +80
 c8282: +51.4 Y633,0 <= +70
 c8283: +51.4 Y633,1 <= +70
 c8284: +51.4 Y633,2 <= +60
 c8285: +51.4 Y633,3 <= +50
 c8286: +51.4 Y633,4 <= +40
 c8287: +51.4 Y633,5 <= +70
 c8288: +51.4 Y633,6 <= +80
 c8289: +41.5 Y634,0 <= +70
 c8290: +41.5 Y634,1 <= +70
 c8291: +41.5 Y634,2 <= +60
 c8292: +41.5 Y634,3 <= +50
 c8293: +41.5 Y634,4 <= +40
 c8294: +41.5 Y634,5 <= +70
 c8295: +41.5 Y634,6 <= +80
 c8296: +54.1 Y635,0 <= +70
 c8297: +54.1 Y635,1 <= +70
 c8298: +54.1 Y635,2 <= +60
 c8299: +54.1 Y635,3 <= +50
 c8300: +54.1 Y635,4 <= +40
 c8301: +54.1 Y635,5 <= +70
 c8302: +54.1 Y635,6 <= +80
 c8303: +44.2 Y636,0 <= +70
 c8304: +44.2 Y636,1 <= +70
 c8305: +44.2 Y636,2 <= +60
 c8306: +44.2 Y636,3 <= +50
 c8307: +44.2 Y636,4 <= +40
 c8308: +44.2 Y636,5 <= +70
 c8309: +44.2 Y636,6 <= +80
 c8310: +48.6 Y637,0 <= +70
 c8311: +48.6 Y637,1 <= +70
 c8312: +48.6 Y637,2 <= +60
 c8313: +48.6 Y637,3 <= +50
 c8314: +48.6 Y637,4 <= +40
 c8315: +48.6 Y637,5 <= +70
 c8316: +48.6 Y637,6 <= +80
 c8317: +45.2 Y638,0 <= +70
 c8318: +45.2 Y638,1 <= +70
 c8319: +45.2 Y638,2 <= +60
 c8320: +45.2 Y638,3 <= +50
 c8321: +45.2 Y638,4 <= +40
 c8322: +45.2 Y638,5 <= +70
 c8323: +45.2 Y638,6 <= +80
 c8324: +35.3 Y639,0 <= +70
 c8325: +35.3 Y639,1 <= +70
 c8326: +35.3 Y639,2 <= +60
 c8327: +35.3 Y639,3 <= +50
 c8328: +35.3 Y639,4 <= +40
 c8329: +35.3 Y639,5 <= +70
 c8330: +35.3 Y639,6 <= +80
 c8331: +39.7 Y640,0 <= +70
 c8332: +39.7 Y640,1 <= +70
 c8333: +39.7 Y640,2 <= +60
 c8334: +39.7 Y640,3 <= +50
 c8335: +39.7 Y640,4 <= +40
 c8336: +39.7 Y640,5 <= +70
 c8337: +39.7 Y640,6 <= +80
 c8338: +42.4 Y641,0 <= +70
 c8339: +42.4 Y641,1 <= +70
 c8340: +42.4 Y641,2 <= +60
 c8341: +42.4 Y641,3 <= +50
 c8342: +42.4 Y641,4 <= +40
 c8343: +42.4 Y641,5 <= +70
 c8344: +42.4 Y641,6 <= +80
 c8345: +57.3 Y642,0 <= +70
 c8346: +57.3 Y642,1 <= +70
 c8347: +57.3 Y642,2 <= +60
 c8348: +57.3 Y642,3 <= +50
 c8349: +57.3 Y642,4 <= +40
 c8350: +57.3 Y642,5 <= +70
 c8351: +57.3 Y642,6 <= +80
 c8352: +60 Y643,0 <= +70
 c8353: +60 Y643,1 <= +70
 c8354: +60 Y643,2 <= +60
 c8355: +60 Y643,3 <= +50
 c8356: +60 Y643,4 <= +40
 c8357: +60 Y643,5 <= +70
 c8358: +60 Y643,6 <= +80
 c8359: +64.4 Y644,0 <= +70
 c8360: +64.4 Y644,1 <= +70
 c8361: +64.4 Y644,2 <= +60
 c8362: +64.4 Y644,3 <= +50
 c8363: +64.4 Y644,4 <= +40
 c8364: +64.4 Y644,5 <= +70
 c8365: +64.4 Y644,6 <= +80
 c8366: +54.5 Y645,0 <= +70
 c8367: +54.5 Y645,1 <= +70
 c8368: +54.5 Y645,2 <= +60
 c8369: +54.5 Y645,3 <= +50
 c8370: +54.5 Y645,4 <= +40
 c8371: +54.5 Y645,5 <= +70
 c8372: +54.5 Y645,6 <= +80
 c8373: +51.1 Y646,0 <= +70
 c8374: +51.1 Y646,1 <= +70
 c8375: +51.1 Y646,2 <= +60
 c8376: +51.1 Y646,3 <= +50
 c8377: +51.1 Y646,4 <= +40
 c8378: +51.1 Y646,5 <= +70
 c8379: +51.1 Y646,6 <= +80
 c8380: +55.5 Y647,0 <= +70
 c8381: +55.5 Y647,1 <= +70
 c8382: +55.5 Y647,2 <= +60
 c8383: +55.5 Y647,3 <= +50
 c8384: +55.5 Y647,4 <= +40
 c8385: +55.5 Y647,5 <= +70
 c8386: +55.5 Y647,6 <= +80
 c8387: +45.6 Y648,0 <= +70
 c8388: +45.6 Y648,1 <= +70
 c8389: +45.6 Y648,2 <= +60
 c8390: +45.6 Y648,3 <= +50
 c8391: +45.6 Y648,4 <= +40
 c8392: +45.6 Y648,5 <= +70
 c8393: +45.6 Y648,6 <= +80
 c8394: +58.2 Y649,0 <= +70
 c8395: +58.2 Y649,1 <= +70
 c8396: +58.2 Y649,2 <= +60
 c8397: +58.2 Y649,3 <= +50
 c8398: +58.2 Y649,4 <= +40
 c8399: +58.2 Y649,5 <= +70
 c8400: +58.2 Y649,6 <= +80
 c8401: +48.3 Y650,0 <= +70
 c8402: +48.3 Y650,1 <= +70
 c8403: +48.3 Y650,2 <= +60
 c8404: +48.3 Y650,3 <= +50
 c8405: +48.3 Y650,4 <= +40
 c8406: +48.3 Y650,5 <= +70
 c8407: +48.3 Y650,6 <= +80
 c8408: +52.7 Y651,0 <= +70
 c8409: +52.7 Y651,1 <= +70
 c8410: +52.7 Y651,2 <= +60
 c8411: +52.7 Y651,3 <= +50
 c8412: +52.7 Y651,4 <= +40
 c8413: +52.7 Y651,5 <= +70
 c8414: +52.7 Y651,6 <= +80
 c8415: +64.9 Y652,0 <= +70
 c8416: +64.9 Y652,1 <= +70
 c8417: +64.9 Y652,2 <= +60
 c8418: +64.9 Y652,3 <= +50
 c8419: +64.9 Y652,4 <= +40
 c8420: +64.9 Y652,5 <= +70
 c8421: +64.9 Y652,6 <= +80
 c8422: +69.3 Y653,0 <= +70
 c8423: +69.3 Y653,1 <= +70
 c8424: +69.3 Y653,2 <= +60
 c8425: +69.3 Y653,3 <= +50
 c8426: +69.3 Y653,4 <= +40
 c8427: +69.3 Y653,5 <= +70
 c8428: +69.3 Y653,6 <= +80
 c8429: +59.4 Y654,0 <= +70
 c8430: +59.4 Y654,1 <= +70
 c8431: +59.4 Y654,2 <= +60
 c8432: +59.4 Y654,3 <= +50
 c8433: +59.4 Y654,4 <= +40
 c8434: +59.4 Y654,5 <= +70
 c8435: +59.4 Y654,6 <= +80
 c8436: +72 Y655,0 <= +70
 c8437: +72 Y655,1 <= +70
 c8438: +72 Y655,2 <= +60
 c8439: +72 Y655,3 <= +50
 c8440: +72 Y655,4 <= +40
 c8441: +72 Y655,5 <= +70
 c8442: +72 Y655,6 <= +80
 c8443: +62.1 Y656,0 <= +70
 c8444: +62.1 Y656,1 <= +70
 c8445: +62.1 Y656,2 <= +60
 c8446: +62.1 Y656,3 <= +50
 c8447: +62.1 Y656,4 <= +40
 c8448: +62.1 Y656,5 <= +70
 c8449: +62.1 Y656,6 <= +80
 c8450: +66.5 Y657,0 <= +70
 c8451: +66.5 Y657,1 <= +70
 c8452: +66.5 Y657,2 <= +60
 c8453: +66.5 Y657,3 <= +50
 c8454: +66.5 Y657,4 <= +40
 c8455: +66.5 Y657,5 <= +70
 c8456: +66.5 Y657,6 <= +80
 c8457: +63.1 Y658,0 <= +70
 c8458: +63.1 Y658,1 <= +70
 c8459: +63.1 Y658,2 <= +60
 c8460: +63.1 Y658,3 <= +50
 c8461: +63.1 Y658,4 <= +40
 c8462: +63.1 Y658,5 <= +70
 c8463: +63.1 Y658,6 <= +80
 c8464: +53.2 Y659,0 <= +70
 c8465: +53.2 Y659,1 <= +70
 c8466: +53.2 Y659,2 <= +60
 c8467: +53.2 Y659,3 <= +50
 c8468: +53.2 Y659,4 <= +40
 c8469: +53.2 Y659,5 <= +70
 c8470: +53.2 Y659,6 <= +80
 c8471: +57.6 Y660,0 <= +70
 c8472: +57.6 Y660,1 <= +70
 c8473: +57.6 Y660,2 <= +60
 c8474: +57.6 Y660,3 <= +50
 c8475: +57.6 Y660,4 <= +40
 c8476: +57.6 Y660,5 <= +70
 c8477: +57.6 Y660,6 <= +80
 c8478: +60.3 Y661,0 <= +70
 c8479: +60.3 Y661,1 <= +70
 c8480: +60.3 Y661,2 <= +60
 c8481: +60.3 Y661,3 <= +50
 c8482: +60.3 Y661,4 <= +40
 c8483: +60.3 Y661,5 <= +70
 c8484: +60.3 Y661,6 <= +80
 c8485: +53.9 Y662,0 <= +70
 c8486: +53.9 Y662,1 <= +70
 c8487: +53.9 Y662,2 <= +60
 c8488: +53.9 Y662,3 <= +50
 c8489: +53.9 Y662,4 <= +40
 c8490: +53.9 Y662,5 <= +70
 c8491: +53.9 Y662,6 <= +80
 c8492: +58.3 Y663,0 <= +70
 c8493: +58.3 Y663,1 <= +70
 c8494: +58.3 Y663,2 <= +60
 c8495: +58.3 Y663,3 <= +50
 c8496: +58.3 Y663,4 <= +40
 c8497: +58.3 Y663,5 <= +70
 c8498: +58.3 Y663,6 <= +80
 c8499: +48.4 Y664,0 <= +70
 c8500: +48.4 Y664,1 <= +70
 c8501: +48.4 Y664,2 <= +60
 c8502: +48.4 Y664,3 <= +50
 c8503: +48.4 Y664,4 <= +40
 c8504: +48.4 Y664,5 <= +70
 c8505: +48.4 Y664,6 <= +80
 c8506: +61 Y665,0 <= +70
 c8507: +61 Y665,1 <= +70
 c8508: +61 Y665,2 <= +60
 c8509: +61 Y665,3 <= +50
 c8510: +61 Y665,4 <= +40
 c8511: +61 Y665,5 <= +70
 c8512: +61 Y665,6 <= +80
 c8513: +51.1 Y666,0 <= +70
 c8514: +51.1 Y666,1 <= +70
 c8515: +51.1 Y666,2 <= +60
 c8516: +51.1 Y666,3 <= +50
 c8517: +51.1 Y666,4 <= +40
 c8518: +51.1 Y666,5 <= +70
 c8519: +51.1 Y666,6 <= +80
 c8520: +55.5 Y667,0 <= +70
 c8521: +55.5 Y667,1 <= +70
 c8522: +55.5 Y667,2 <= +60
 c8523: +55.5 Y667,3 <= +50
 c8524: +55.5 Y667,4 <= +40
 c8525: +55.5 Y667,5 <= +70
 c8526: +55.5 Y667,6 <= +80
 c8527: +52.1 Y668,0 <= +70
 c8528: +52.1 Y668,1 <= +70
 c8529: +52.1 Y668,2 <= +60
 c8530: +52.1 Y668,3 <= +50
 c8531: +52.1 Y668,4 <= +40
 c8532: +52.1 Y668,5 <= +70
 c8533: +52.1 Y668,6 <= +80
 c8534: +42.2 Y669,0 <= +70
 c8535: +42.2 Y669,1 <= +70
 c8536: +42.2 Y669,2 <= +60
 c8537: +42.2 Y669,3 <= +50
 c8538: +42.2 Y669,4 <= +40
 c8539: +42.2 Y669,5 <= +70
 c8540: +42.2 Y669,6 <= +80
 c8541: +46.6 Y670,0 <= +70
 c8542: +46.6 Y670,1 <= +70
 c8543: +46.6 Y670,2 <= +60
 c8544: +46.6 Y670,3 <= +50
 c8545: +46.6 Y670,4 <= +40
 c8546: +46.6 Y670,5 <= +70
 c8547: +46.6 Y670,6 <= +80
 c8548: +49.3 Y671,0 <= +70
 c8549: +49.3 Y671,1 <= +70
 c8550: +49.3 Y671,2 <= +60
 c8551: +49.3 Y671,3 <= +50
 c8552: +49.3 Y671,4 <= +40
 c8553: +49.3 Y671,5 <= +70
 c8554: +49.3 Y671,6 <= +80
 c8555: +65.9 Y672,0 <= +70
 c8556: +65.9 Y672,1 <= +70
 c8557: +65.9 Y672,2 <= +60
 c8558: +65.9 Y672,3 <= +50
 c8559: +65.9 Y672,4 <= +40
 c8560: +65.9 Y672,5 <= +70
 c8561: +65.9 Y672,6 <= +80
 c8562: +56 Y673,0 <= +70
 c8563: +56 Y673,1 <= +70
 c8564: +56 Y673,2 <= +60
 c8565: +56 Y673,3 <= +50
 c8566: +56 Y673,4 <= +40
 c8567: +56 Y673,5 <= +70
 c8568: +56 Y673,6 <= +80
 c8569: +60.4 Y674,0 <= +70
 c8570: +60.4 Y674,1 <= +70
 c8571: +60.4 Y674,2 <= +60
 c8572: +60.4 Y674,3 <= +50
 c8573: +60.4 Y674,4 <= +40
 c8574: +60.4 Y674,5 <= +70
 c8575: +60.4 Y674,6 <= +80
 c8576: +63.1 Y675,0 <= +70
 c8577: +63.1 Y675,1 <= +70
 c8578: +63.1 Y675,2 <= +60
 c8579: +63.1 Y675,3 <= +50
 c8580: +63.1 Y675,4 <= +40
 c8581: +63.1 Y675,5 <= +70
 c8582: +63.1 Y675,6 <= +80
 c8583: +54.2 Y676,0 <= +70
 c8584: +54.2 Y676,1 <= +70
 c8585: +54.2 Y676,2 <= +60
 c8586: +54.2 Y676,3 <= +50
 c8587: +54.2 Y676,4 <= +40
 c8588: +54.2 Y676,5 <= +70
 c8589: +54.2 Y676,6 <= +80
 c8590: +71.8 Y677,0 <= +70
 c8591: +71.8 Y677,1 <= +70
 c8592: +71.8 Y677,2 <= +60
 c8593: +71.8 Y677,3 <= +50
 c8594: +71.8 Y677,4 <= +40
 c8595: +71.8 Y677,5 <= +70
 c8596: +71.8 Y677,6 <= +80
 c8597: +76.2 Y678,0 <= +70
 c8598: +76.2 Y678,1 <= +70
 c8599: +76.2 Y678,2 <= +60
 c8600: +76.2 Y678,3 <= +50
 c8601: +76.2 Y678,4 <= +40
 c8602: +76.2 Y678,5 <= +70
 c8603: +76.2 Y678,6 <= +80
 c8604: +66.3 Y679,0 <= +70
 c8605: +66.3 Y679,1 <= +70
 c8606: +66.3 Y679,2 <= +60
 c8607: +66.3 Y679,3 <= +50
 c8608: +66.3 Y679,4 <= +40
 c8609: +66.3 Y679,5 <= +70
 c8610: +66.3 Y679,6 <= +80
 c8611: +78.9 Y680,0 <= +70
 c8612: +78.9 Y680,1 <= +70
 c8613: +78.9 Y680,2 <= +60
 c8614: +78.9 Y680,3 <= +50
 c8615: +78.9 Y680,4 <= +40
 c8616: +78.9 Y680,5 <= +70
 c8617: +78.9 Y680,6 <= +80
 c8618: +69 Y681,0 <= +70
 c8619: +69 Y681,1 <= +70
 c8620: +69 Y681,2 <= +60
 c8621: +69 Y681,3 <= +50
 c8622: +69 Y681,4 <= +40
 c8623: +69 Y681,5 <= +70
 c8624: +69 Y681,6 <= +80
 c8625: +73.4 Y682,0 <= +70
 c8626: +73.4 Y682,1 <= +70
 c8627: +73.4 Y682,2 <= +60
 c8628: +73.4 Y682,3 <= +50
 c8629: +73.4 Y682,4 <= +40
 c8630: +73.4 Y682,5 <= +70
 c8631: +73.4 Y682,6 <= +80
 c8632: +70 Y683,0 <= +70
 c8633: +70 Y683,1 <= +70
 c8634: +70 Y683,2 <= +60
 c8635: +70 Y683,3 <= +50
 c8636: +70 Y683,4 <= +40
 c8637: +70 Y683,5 <= +70
 c8638: +70 Y683,6 <= +80
 c8639: +60.1 Y684,0 <= +70
 c8640: +60.1 Y684,1 <= +70
 c8641: +60.1 Y684,2 <= +60
 c8642: +60.1 Y684,3 <= +50
 c8643: +60.1 Y684,4 <= +40
 c8644: +60.1 Y684,5 <= +70
 c8645: +60.1 Y684,6 <= +80
 c8646: +64.5 Y685,0 <= +70
 c8647: +64.5 Y685,1 <= +70
 c8648: +64.5 Y685,2 <= +60
 c8649: +64.5 Y685,3 <= +50
 c8650: +64.5 Y685,4 <= +40
 c8651: +64.5 Y685,5 <= +70
 c8652: +64.5 Y685,6 <= +80
 c8653: +67.2 Y686,0 <= +70
 c8654: +67.2 Y686,1 <= +70
 c8655: +67.2 Y686,2 <= +60
 c8656: +67.2 Y686,3 <= +50
 c8657: +67.2 Y686,4 <= +40
 c8658: +67.2 Y686,5 <= +70
 c8659: +67.2 Y686,6 <= +80
 c8660: +73.9 Y687,0 <= +70
 c8661: +73.9 Y687,1 <= +70
 c8662: +73.9 Y687,2 <= +60
 c8663: +73.9 Y687,3 <= +50
 c8664: +73.9 Y687,4 <= +40
 c8665: +73.9 Y687,5 <= +70
 c8666: +73.9 Y687,6 <= +80
 c8667: +78.3 Y688,0 <= +70
 c8668: +78.3 Y688,1 <= +70
 c8669: +78.3 Y688,2 <= +60
 c8670: +78.3 Y688,3 <= +50
 c8671: +78.3 Y688,4 <= +40
 c8672: +78.3 Y688,5 <= +70
 c8673: +78.3 Y688,6 <= +80
 c8674: +72.1 Y689,0 <= +70
 c8675: +72.1 Y689,1 <= +70
 c8676: +72.1 Y689,2 <= +60
 c8677: +72.1 Y689,3 <= +50
 c8678: +72.1 Y689,4 <= +40
 c8679: +72.1 Y689,5 <= +70
 c8680: +72.1 Y689,6 <= +80
 c8681: +72.8 Y690,0 <= +70
 c8682: +72.8 Y690,1 <= +70
 c8683: +72.8 Y690,2 <= +60
 c8684: +72.8 Y690,3 <= +50
 c8685: +72.8 Y690,4 <= +40
 c8686: +72.8 Y690,5 <= +70
 c8687: +72.8 Y690,6 <= +80
 c8688: +62.9 Y691,0 <= +70
 c8689: +62.9 Y691,1 <= +70
 c8690: +62.9 Y691,2 <= +60
 c8691: +62.9 Y691,3 <= +50
 c8692: +62.9 Y691,4 <= +40
 c8693: +62.9 Y691,5 <= +70
 c8694: +62.9 Y691,6 <= +80
 c8695: +67.3 Y692,0 <= +70
 c8696: +67.3 Y692,1 <= +70
 c8697: +67.3 Y692,2 <= +60
 c8698: +67.3 Y692,3 <= +50
 c8699: +67.3 Y692,4 <= +40
 c8700: +67.3 Y692,5 <= +70
 c8701: +67.3 Y692,6 <= +80
 c8702: +70 Y693,0 <= +70
 c8703: +70 Y693,1 <= +70
 c8704: +70 Y693,2 <= +60
 c8705: +70 Y693,3 <= +50
 c8706: +70 Y693,4 <= +40
 c8707: +70 Y693,5 <= +70
 c8708: +70 Y693,6 <= +80
 c8709: +61.1 Y694,0 <= +70
 c8710: +61.1 Y694,1 <= +70
 c8711: +61.1 Y694,2 <= +60
 c8712: +61.1 Y694,3 <= +50
 c8713: +61.1 Y694,4 <= +40
 c8714: +61.1 Y694,5 <= +70
 c8715: +61.1 Y694,6 <= +80
 c8716: +74.9 Y695,0 <= +70
 c8717: +74.9 Y695,1 <= +70
 c8718: +74.9 Y695,2 <= +60
 c8719: +74.9 Y695,3 <= +50
 c8720: +74.9 Y695,4 <= +40
 c8721: +74.9 Y695,5 <= +70
 c8722: +74.9 Y695,6 <= +80
 c8723: +79 Y696,0 <= +70
 c8724: +79 Y696,1 <= +70
 c8725: +79 Y696,2 <= +60
 c8726: +79 Y696,3 <= +50
 c8727: +79 Y696,4 <= +40
 c8728: +79 Y696,5 <= +70
 c8729: +79 Y696,6 <= +80
 c8730: +18.2 Y697,0 <= +70
 c8731: +18.2 Y697,1 <= +70
 c8732: +18.2 Y697,2 <= +60
 c8733: +18.2 Y697,3 <= +50
 c8734: +18.2 Y697,4 <= +40
 c8735: +18.2 Y697,5 <= +70
 c8736: +18.2 Y697,6 <= +80
 c8737: +12.1 Y698,0 <= +70
 c8738: +12.1 Y698,1 <= +70
 c8739: +12.1 Y698,2 <= +60
 c8740: +12.1 Y698,3 <= +50
 c8741: +12.1 Y698,4 <= +40
 c8742: +12.1 Y698,5 <= +70
 c8743: +12.1 Y698,6 <= +80
 c8744: +21.6 Y699,0 <= +70
 c8745: +21.6 Y699,1 <= +70
 c8746: +21.6 Y699,2 <= +60
 c8747: +21.6 Y699,3 <= +50
 c8748: +21.6 Y699,4 <= +40
 c8749: +21.6 Y699,5 <= +70
 c8750: +21.6 Y699,6 <= +80
 c8751: +9.5 Y700,0 <= +70
 c8752: +9.5 Y700,1 <= +70
 c8753: +9.5 Y700,2 <= +60
 c8754: +9.5 Y700,3 <= +50
 c8755: +9.5 Y700,4 <= +40
 c8756: +9.5 Y700,5 <= +70
 c8757: +9.5 Y700,6 <= +80
 c8758: +30.3 Y701,0 <= +70
 c8759: +30.3 Y701,1 <= +70
 c8760: +30.3 Y701,2 <= +60
 c8761: +30.3 Y701,3 <= +50
 c8762: +30.3 Y701,4 <= +40
 c8763: +30.3 Y701,5 <= +70
 c8764: +30.3 Y701,6 <= +80
 c8765: +39.8 Y702,0 <= +70
 c8766: +39.8 Y702,1 <= +70
 c8767: +39.8 Y702,2 <= +60
 c8768: +39.8 Y702,3 <= +50
 c8769: +39.8 Y702,4 <= +40
 c8770: +39.8 Y702,5 <= +70
 c8771: +39.8 Y702,6 <= +80
 c8772: +27.7 Y703,0 <= +70
 c8773: +27.7 Y703,1 <= +70
 c8774: +27.7 Y703,2 <= +60
 c8775: +27.7 Y703,3 <= +50
 c8776: +27.7 Y703,4 <= +40
 c8777: +27.7 Y703,5 <= +70
 c8778: +27.7 Y703,6 <= +80
 c8779: +33.7 Y704,0 <= +70
 c8780: +33.7 Y704,1 <= +70
 c8781: +33.7 Y704,2 <= +60
 c8782: +33.7 Y704,3 <= +50
 c8783: +33.7 Y704,4 <= +40
 c8784: +33.7 Y704,5 <= +70
 c8785: +33.7 Y704,6 <= +80
 c8786: +21.6 Y705,0 <= +70
 c8787: +21.6 Y705,1 <= +70
 c8788: +21.6 Y705,2 <= +60
 c8789: +21.6 Y705,3 <= +50
 c8790: +21.6 Y705,4 <= +40
 c8791: +21.6 Y705,5 <= +70
 c8792: +21.6 Y705,6 <= +80
 c8793: +31.1 Y706,0 <= +70
 c8794: +31.1 Y706,1 <= +70
 c8795: +31.1 Y706,2 <= +60
 c8796: +31.1 Y706,3 <= +50
 c8797: +31.1 Y706,4 <= +40
 c8798: +31.1 Y706,5 <= +70
 c8799: +31.1 Y706,6 <= +80
 c8800: +51.9 Y707,0 <= +70
 c8801: +51.9 Y707,1 <= +70
 c8802: +51.9 Y707,2 <= +60
 c8803: +51.9 Y707,3 <= +50
 c8804: +51.9 Y707,4 <= +40
 c8805: +51.9 Y707,5 <= +70
 c8806: +51.9 Y707,6 <= +80
 c8807: +39.8 Y708,0 <= +70
 c8808: +39.8 Y708,1 <= +70
 c8809: +39.8 Y708,2 <= +60
 c8810: +39.8 Y708,3 <= +50
 c8811: +39.8 Y708,4 <= +40
 c8812: +39.8 Y708,5 <= +70
 c8813: +39.8 Y708,6 <= +80
 c8814: +49.3 Y709,0 <= +70
 c8815: +49.3 Y709,1 <= +70
 c8816: +49.3 Y709,2 <= +60
 c8817: +49.3 Y709,3 <= +50
 c8818: +49.3 Y709,4 <= +40
 c8819: +49.3 Y709,5 <= +70
 c8820: +49.3 Y709,6 <= +80
 c8821: +43.2 Y710,0 <= +70
 c8822: +43.2 Y710,1 <= +70
 c8823: +43.2 Y710,2 <= +60
 c8824: +43.2 Y710,3 <= +50
 c8825: +43.2 Y710,4 <= +40
 c8826: +43.2 Y710,5 <= +70
 c8827: +43.2 Y710,6 <= +80
 c8828: +61.4 Y711,0 <= +70
 c8829: +61.4 Y711,1 <= +70
 c8830: +61.4 Y711,2 <= +60
 c8831: +61.4 Y711,3 <= +50
 c8832: +61.4 Y711,4 <= +40
 c8833: +61.4 Y711,5 <= +70
 c8834: +61.4 Y711,6 <= +80
 c8835: +10.7 Y712,0 <= +70
 c8836: +10.7 Y712,1 <= +70
 c8837: +10.7 Y712,2 <= +60
 c8838: +10.7 Y712,3 <= +50
 c8839: +10.7 Y712,4 <= +40
 c8840: +10.7 Y712,5 <= +70
 c8841: +10.7 Y712,6 <= +80
 c8842: +11.9 Y713,0 <= +70
 c8843: +11.9 Y713,1 <= +70
 c8844: +11.9 Y713,2 <= +60
 c8845: +11.9 Y713,3 <= +50
 c8846: +11.9 Y713,4 <= +40
 c8847: +11.9 Y713,5 <= +70
 c8848: +11.9 Y713,6 <= +80
 c8849: +20.8 Y714,0 <= +70
 c8850: +20.8 Y714,1 <= +70
 c8851: +20.8 Y714,2 <= +60
 c8852: +20.8 Y714,3 <= +50
 c8853: +20.8 Y714,4 <= +40
 c8854: +20.8 Y714,5 <= +70
 c8855: +20.8 Y714,6 <= +80
 c8856: +10.8 Y715,0 <= +70
 c8857: +10.8 Y715,1 <= +70
 c8858: +10.8 Y715,2 <= +60
 c8859: +10.8 Y715,3 <= +50
 c8860: +10.8 Y715,4 <= +40
 c8861: +10.8 Y715,5 <= +70
 c8862: +10.8 Y715,6 <= +80
 c8863: +22.6 Y716,0 <= +70
 c8864: +22.6 Y716,1 <= +70
 c8865: +22.6 Y716,2 <= +60
 c8866: +22.6 Y716,3 <= +50
 c8867: +22.6 Y716,4 <= +40
 c8868: +22.6 Y716,5 <= +70
 c8869: +22.6 Y716,6 <= +80
 c8870: +31.5 Y717,0 <= +70
 c8871: +31.5 Y717,1 <= +70
 c8872: +31.5 Y717,2 <= +60
 c8873: +31.5 Y717,3 <= +50
 c8874: +31.5 Y717,4 <= +40
 c8875: +31.5 Y717,5 <= +70
 c8876: +31.5 Y717,6 <= +80
 c8877: +21.5 Y718,0 <= +70
 c8878: +21.5 Y718,1 <= +70
 c8879: +21.5 Y718,2 <= +60
 c8880: +21.5 Y718,3 <= +50
 c8881: +21.5 Y718,4 <= +40
 c8882: +21.5 Y718,5 <= +70
 c8883: +21.5 Y718,6 <= +80
 c8884: +32.7 Y719,0 <= +70
 c8885: +32.7 Y719,1 <= +70
 c8886: +32.7 Y719,2 <= +60
 c8887: +32.7 Y719,3 <= +50
 c8888: +32.7 Y719,4 <= +40
 c8889: +32.7 Y719,5 <= +70
 c8890: +32.7 Y719,6 <= +80
 c8891: +22.7 Y720,0 <= +70
 c8892: +22.7 Y720,1 <= +70
 c8893: +22.7 Y720,2 <= +60
 c8894: +22.7 Y720,3 <= +50
 c8895: +22.7 Y720,4 <= +40
 c8896: +22.7 Y720,5 <= +70
 c8897: +22.7 Y720,6 <= +80
 c8898: +31.6 Y721,0 <= +70
 c8899: +31.6 Y721,1 <= +70
 c8900: +31.6 Y721,2 <= +60
 c8901: +31.6 Y721,3 <= +50
 c8902: +31.6 Y721,4 <= +40
 c8903: +31.6 Y721,5 <= +70
 c8904: +31.6 Y721,6 <= +80
 c8905: +43.4 Y722,0 <= +70
 c8906: +43.4 Y722,1 <= +70
 c8907: +43.4 Y722,2 <= +60
 c8908: +43.4 Y722,3 <= +50
 c8909: +43.4 Y722,4 <= +40
 c8910: +43.4 Y722,5 <= +70
 c8911: +43.4 Y722,6 <= +80
 c8912: +33.4 Y723,0 <= +70
 c8913: +33.4 Y723,1 <= +70
 c8914: +33.4 Y723,2 <= +60
 c8915: +33.4 Y723,3 <= +50
 c8916: +33.4 Y723,4 <= +40
 c8917: +33.4 Y723,5 <= +70
 c8918: +33.4 Y723,6 <= +80
 c8919: +42.3 Y724,0 <= +70
 c8920: +42.3 Y724,1 <= +70
 c8921: +42.3 Y724,2 <= +60
 c8922: +42.3 Y724,3 <= +50
 c8923: +42.3 Y724,4 <= +40
 c8924: +42.3 Y724,5 <= +70
 c8925: +42.3 Y724,6 <= +80
 c8926: +43.5 Y725,0 <= +70
 c8927: +43.5 Y725,1 <= +70
 c8928: +43.5 Y725,2 <= +60
 c8929: +43.5 Y725,3 <= +50
 c8930: +43.5 Y725,4 <= +40
 c8931: +43.5 Y725,5 <= +70
 c8932: +43.5 Y725,6 <= +80
 c8933: +54.2 Y726,0 <= +70
 c8934: +54.2 Y726,1 <= +70
 c8935: +54.2 Y726,2 <= +60
 c8936: +54.2 Y726,3 <= +50
 c8937: +54.2 Y726,4 <= +40
 c8938: +54.2 Y726,5 <= +70
 c8939: +54.2 Y726,6 <= +80
 c8940: +6.2 Y727,0 <= +70
 c8941: +6.2 Y727,1 <= +70
 c8942: +6.2 Y727,2 <= +60
 c8943: +6.2 Y727,3 <= +50
 c8944: +6.2 Y727,4 <= +40
 c8945: +6.2 Y727,5 <= +70
 c8946: +6.2 Y727,6 <= +80
 c8947: +23.5 Y728,0 <= +70
 c8948: +23.5 Y728,1 <= +70
 c8949: +23.5 Y728,2 <= +60
 c8950: +23.5 Y728,3 <= +50
 c8951: +23.5 Y728,4 <= +40
 c8952: +23.5 Y728,5 <= +70
 c8953: +23.5 Y728,6 <= +80
 c8954: +6.2 Y729,0 <= +70
 c8955: +6.2 Y729,1 <= +70
 c8956: +6.2 Y729,2 <= +60
 c8957: +6.2 Y729,3 <= +50
 c8958: +6.2 Y729,4 <= +40
 c8959: +6.2 Y729,5 <= +70
 c8960: +6.2 Y729,6 <= +80
 c8961: +14.2 Y730,0 <= +70
 c8962: +14.2 Y730,1 <= +70
 c8963: +14.2 Y730,2 <= +60
 c8964: +14.2 Y730,3 <= +50
 c8965: +14.2 Y730,4 <= +40
 c8966: +14.2 Y730,5 <= +70
 c8967: +14.2 Y730,6 <= +80
 c8968: +10.4 Y731,0 <= +70
 c8969: +10.4 Y731,1 <= +70
 c8970: +10.4 Y731,2 <= +60
 c8971: +10.4 Y731,3 <= +50
 c8972: +10.4 Y731,4 <= +40
 c8973: +10.4 Y731,5 <= +70
 c8974: +10.4 Y731,6 <= +80
 c8975: +29.7 Y732,0 <= +70
 c8976: +29.7 Y732,1 <= +70
 c8977: +29.7 Y732,2 <= +60
 c8978: +29.7 Y732,3 <= +50
 c8979: +29.7 Y732,4 <= +40
 c8980: +29.7 Y732,5 <= +70
 c8981: +29.7 Y732,6 <= +80
 c8982: +12.4 Y733,0 <= +70
 c8983: +12.4 Y733,1 <= +70
 c8984: +12.4 Y733,2 <= +60
 c8985: +12.4 Y733,3 <= +50
 c8986: +12.4 Y733,4 <= +40
 c8987: +12.4 Y733,5 <= +70
 c8988: +12.4 Y733,6 <= +80
 c8989: +20.4 Y734,0 <= +70
 c8990: +20.4 Y734,1 <= +70
 c8991: +20.4 Y734,2 <= +60
 c8992: +20.4 Y734,3 <= +50
 c8993: +20.4 Y734,4 <= +40
 c8994: +20.4 Y734,5 <= +70
 c8995: +20.4 Y734,6 <= +80
 c8996: +16.6 Y735,0 <= +70
 c8997: +16.6 Y735,1 <= +70
 c8998: +16.6 Y735,2 <= +60
 c8999: +16.6 Y735,3 <= +50
 c9000: +16.6 Y735,4 <= +40
 c9001: +16.6 Y735,5 <= +70
 c9002: +16.6 Y735,6 <= +80
 c9003: +29.7 Y736,0 <= +70
 c9004: +29.7 Y736,1 <= +70
 c9005: +29.7 Y736,2 <= +60
 c9006: +29.7 Y736,3 <= +50
 c9007: +29.7 Y736,4 <= +40
 c9008: +29.7 Y736,5 <= +70
 c9009: +29.7 Y736,6 <= +80
 c9010: +37.7 Y737,0 <= +70
 c9011: +37.7 Y737,1 <= +70
 c9012: +37.7 Y737,2 <= +60
 c9013: +37.7 Y737,3 <= +50
 c9014: +37.7 Y737,4 <= +40
 c9015: +37.7 Y737,5 <= +70
 c9016: +37.7 Y737,6 <= +80
 c9017: +33.9 Y738,0 <= +70
 c9018: +33.9 Y738,1 <= +70
 c9019: +33.9 Y738,2 <= +60
 c9020: +33.9 Y738,3 <= +50
 c9021: +33.9 Y738,4 <= +40
 c9022: +33.9 Y738,5 <= +70
 c9023: +33.9 Y738,6 <= +80
 c9024: +20.4 Y739,0 <= +70
 c9025: +20.4 Y739,1 <= +70
 c9026: +20.4 Y739,2 <= +60
 c9027: +20.4 Y739,3 <= +50
 c9028: +20.4 Y739,4 <= +40
 c9029: +20.4 Y739,5 <= +70
 c9030: +20.4 Y739,6 <= +80
 c9031: +16.6 Y740,0 <= +70
 c9032: +16.6 Y740,1 <= +70
 c9033: +16.6 Y740,2 <= +60
 c9034: +16.6 Y740,3 <= +50
 c9035: +16.6 Y740,4 <= +40
 c9036: +16.6 Y740,5 <= +70
 c9037: +16.6 Y740,6 <= +80
 c9038: +24.6 Y741,0 <= +70
 c9039: +24.6 Y741,1 <= +70
 c9040: +24.6 Y741,2 <= +60
 c9041: +24.6 Y741,3 <= +50
 c9042: +24.6 Y741,4 <= +40
 c9043: +24.6 Y741,5 <= +70
 c9044: +24.6 Y741,6 <= +80
 c9045: +35.9 Y742,0 <= +70
 c9046: +35.9 Y742,1 <= +70
 c9047: +35.9 Y742,2 <= +60
 c9048: +35.9 Y742,3 <= +50
 c9049: +35.9 Y742,4 <= +40
 c9050: +35.9 Y742,5 <= +70
 c9051: +35.9 Y742,6 <= +80
 c9052: +43.9 Y743,0 <= +70
 c9053: +43.9 Y743,1 <= +70
 c9054: +43.9 Y743,2 <= +60
 c9055: +43.9 Y743,3 <= +50
 c9056: +43.9 Y743,4 <= +40
 c9057: +43.9 Y743,5 <= +70
 c9058: +43.9 Y743,6 <= +80
 c9059: +40.1 Y744,0 <= +70
 c9060: +40.1 Y744,1 <= +70
 c9061: +40.1 Y744,2 <= +60
 c9062: +40.1 Y744,3 <= +50
 c9063: +40.1 Y744,4 <= +40
 c9064: +40.1 Y744,5 <= +70
 c9065: +40.1 Y744,6 <= +80
 c9066: +26.6 Y745,0 <= +70
 c9067: +26.6 Y745,1 <= +70
 c9068: +26.6 Y745,2 <= +60
 c9069: +26.6 Y745,3 <= +50
 c9070: +26.6 Y745,4 <= +40
 c9071: +26.6 Y745,5 <= +70
 c9072: +26.6 Y745,6 <= +80
 c9073: +22.8 Y746,0 <= +70
 c9074: +22.8 Y746,1 <= +70
 c9075: +22.8 Y746,2 <= +60
 c9076: +22.8 Y746,3 <= +50
 c9077: +22.8 Y746,4 <= +40
 c9078: +22.8 Y746,5 <= +70
 c9079: +22.8 Y746,6 <= +80
 c9080: +30.8 Y747,0 <= +70
 c9081: +30.8 Y747,1 <= +70
 c9082: +30.8 Y747,2 <= +60
 c9083: +30.8 Y747,3 <= +50
 c9084: +30.8 Y747,4 <= +40
 c9085: +30.8 Y747,5 <= +70
 c9086: +30.8 Y747,6 <= +80
 c9087: +43.9 Y748,0 <= +70
 c9088: +43.9 Y748,1 <= +70
 c9089: +43.9 Y748,2 <= +60
 c9090: +43.9 Y748,3 <= +50
 c9091: +43.9 Y748,4 <= +40
 c9092: +43.9 Y748,5 <= +70
 c9093: +43.9 Y748,6 <= +80
 c9094: +40.1 Y749,0 <= +70
 c9095: +40.1 Y749,1 <= +70
 c9096: +40.1 Y749,2 <= +60
 c9097: +40.1 Y749,3 <= +50
 c9098: +40.1 Y749,4 <= +40
 c9099: +40.1 Y749,5 <= +70
 c9100: +40.1 Y749,6 <= +80
 c9101: +48.1 Y750,0 <= +70
 c9102: +48.1 Y750,1 <= +70
 c9103: +48.1 Y750,2 <= +60
 c9104: +48.1 Y750,3 <= +50
 c9105: +48.1 Y750,4 <= +40
 c9106: +48.1 Y750,5 <= +70
 c9107: +48.1 Y750,6 <= +80
 c9108: +30.8 Y751,0 <= +70
 c9109: +30.8 Y751,1 <= +70
 c9110: +30.8 Y751,2 <= +60
 c9111: +30.8 Y751,3 <= +50
 c9112: +30.8 Y751,4 <= +40
 c9113: +30.8 Y751,5 <= +70
 c9114: +30.8 Y751,6 <= +80
 c9115: +50.1 Y752,0 <= +70
 c9116: +50.1 Y752,1 <= +70
 c9117: +50.1 Y752,2 <= +60
 c9118: +50.1 Y752,3 <= +50
 c9119: +50.1 Y752,4 <= +40
 c9120: +50.1 Y752,5 <= +70
 c9121: +50.1 Y752,6 <= +80
 c9122: +46.3 Y753,0 <= +70
 c9123: +46.3 Y753,1 <= +70
 c9124: +46.3 Y753,2 <= +60
 c9125: +46.3 Y753,3 <= +50
 c9126: +46.3 Y753,4 <= +40
 c9127: +46.3 Y753,5 <= +70
 c9128: +46.3 Y753,6 <= +80
 c9129: +54.3 Y754,0 <= +70
 c9130: +54.3 Y754,1 <= +70
 c9131: +54.3 Y754,2 <= +60
 c9132: +54.3 Y754,3 <= +50
 c9133: +54.3 Y754,4 <= +40
 c9134: +54.3 Y754,5 <= +70
 c9135: +54.3 Y754,6 <= +80
 c9136: +37 Y755,0 <= +70
 c9137: +37 Y755,1 <= +70
 c9138: +37 Y755,2 <= +60
 c9139: +37 Y755,3 <= +50
 c9140: +37 Y755,4 <= +40
 c9141: +37 Y755,5 <= +70
 c9142: +37 Y755,6 <= +80
 c9143: +54.3 Y756,0 <= +70
 c9144: +54.3 Y756,1 <= +70
 c9145: +54.3 Y756,2 <= +60
 c9146: +54.3 Y756,3 <= +50
 c9147: +54.3 Y756,4 <= +40
 c9148: +54.3 Y756,5 <= +70
 c9149: +54.3 Y756,6 <= +80
 c9150: +60.5 Y757,0 <= +70
 c9151: +60.5 Y757,1 <= +70
 c9152: +60.5 Y757,2 <= +60
 c9153: +60.5 Y757,3 <= +50
 c9154: +60.5 Y757,4 <= +40
 c9155: +60.5 Y757,5 <= +70
 c9156: +60.5 Y757,6 <= +80
 c9157: +13.4 Y758,0 <= +70
 c9158: +13.4 Y758,1 <= +70
 c9159: +13.4 Y758,2 <= +60
 c9160: +13.4 Y758,3 <= +50
 c9161: +13.4 Y758,4 <= +40
 c9162: +13.4 Y758,5 <= +70
 c9163: +13.4 Y758,6 <= +80
 c9164: +23.4 Y759,0 <= +70
 c9165: +23.4 Y759,1 <= +70
 c9166: +23.4 Y759,2 <= +60
 c9167: +23.4 Y759,3 <= +50
 c9168: +23.4 Y759,4 <= +40
 c9169: +23.4 Y759,5 <= +70
 c9170: +23.4 Y759,6 <= +80
 c9171: +13.3 Y760,0 <= +70
 c9172: +13.3 Y760,1 <= +70
 c9173: +13.3 Y760,2 <= +60
 c9174: +13.3 Y760,3 <= +50
 c9175: +13.3 Y760,4 <= +40
 c9176: +13.3 Y760,5 <= +70
 c9177: +13.3 Y760,6 <= +80
 c9178: +13.9 Y761,0 <= +70
 c9179: +13.9 Y761,1 <= +70
 c9180: +13.9 Y761,2 <= +60
 c9181: +13.9 Y761,3 <= +50
 c9182: +13.9 Y761,4 <= +40
 c9183: +13.9 Y761,5 <= +70
 c9184: +13.9 Y761,6 <= +80
 c9185: +10 Y762,0 <= +70
 c9186: +10 Y762,1 <= +70
 c9187: +10 Y762,2 <= +60
 c9188: +10 Y762,3 <= +50
 c9189: +10 Y762,4 <= +40
 c9190: +10 Y762,5 <= +70
 c9191: +10 Y762,6 <= +80
 c9192: +14.8 Y763,0 <= +70
 c9193: +14.8 Y763,1 <= +70
 c9194: +14.8 Y763,2 <= +60
 c9195: +14.8 Y763,3 <= +50
 c9196: +14.8 Y763,4 <= +40
 c9197: +14.8 Y763,5 <= +70
 c9198: +14.8 Y763,6 <= +80
 c9199: +5.3 Y764,0 <= +70
 c9200: +5.3 Y764,1 <= +70
 c9201: +5.3 Y764,2 <= +60
 c9202: +5.3 Y764,3 <= +50
 c9203: +5.3 Y764,4 <= +40
 c9204: +5.3 Y764,5 <= +70
 c9205: +5.3 Y764,6 <= +80
 c9206: +36.8 Y765,0 <= +70
 c9207: +36.8 Y765,1 <= +70
 c9208: +36.8 Y765,2 <= +60
 c9209: +36.8 Y765,3 <= +50
 c9210: +36.8 Y765,4 <= +40
 c9211: +36.8 Y765,5 <= +70
 c9212: +36.8 Y765,6 <= +80
 c9213: +26.7 Y766,0 <= +70
 c9214: +26.7 Y766,1 <= +70
 c9215: +26.7 Y766,2 <= +60
 c9216: +26.7 Y766,3 <= +50
 c9217: +26.7 Y766,4 <= +40
 c9218: +26.7 Y766,5 <= +70
 c9219: +26.7 Y766,6 <= +80
 c9220: +27.3 Y767,0 <= +70
 c9221: +27.3 Y767,1 <= +70
 c9222: +27.3 Y767,2 <= +60
 c9223: +27.3 Y767,3 <= +50
 c9224: +27.3 Y767,4 <= +40
 c9225: +27.3 Y767,5 <= +70
 c9226: +27.3 Y767,6 <= +80
 c9227: +23.4 Y768,0 <= +70
 c9228: +23.4 Y768,1 <= +70
 c9229: +23.4 Y768,2 <= +60
 c9230: +23.4 Y768,3 <= +50
 c9231: +23.4 Y768,4 <= +40
 c9232: +23.4 Y768,5 <= +70
 c9233: +23.4 Y768,6 <= +80
 c9234: +28.2 Y769,0 <= +70
 c9235: +28.2 Y769,1 <= +70
 c9236: +28.2 Y769,2 <= +60
 c9237: +28.2 Y769,3 <= +50
 c9238: +28.2 Y769,4 <= +40
 c9239: +28.2 Y769,5 <= +70
 c9240: +28.2 Y769,6 <= +80
 c9241: +18.7 Y770,0 <= +70
 c9242: +18.7 Y770,1 <= +70
 c9243: +18.7 Y770,2 <= +60
 c9244: +18.7 Y770,3 <= +50
 c9245: +18.7 Y770,4 <= +40
 c9246: +18.7 Y770,5 <= +70
 c9247: +18.7 Y770,6 <= +80
 c9248: +36.7 Y771,0 <= +70
 c9249: +36.7 Y771,1 <= +70
 c9250: +36.7 Y771,2 <= +60
 c9251: +36.7 Y771,3 <= +50
 c9252: +36.7 Y771,4 <= +40
 c9253: +36.7 Y771,5 <= +70
 c9254: +36.7 Y771,6 <= +80
 c9255: +37.3 Y772,0 <= +70
 c9256: +37.3 Y772,1 <= +70
 c9257: +37.3 Y772,2 <= +60
 c9258: +37.3 Y772,3 <= +50
 c9259: +37.3 Y772,4 <= +40
 c9260: +37.3 Y772,5 <= +70
 c9261: +37.3 Y772,6 <= +80
 c9262: +33.4 Y773,0 <= +70
 c9263: +33.4 Y773,1 <= +70
 c9264: +33.4 Y773,2 <= +60
 c9265: +33.4 Y773,3 <= +50
 c9266: +33.4 Y773,4 <= +40
 c9267: +33.4 Y773,5 <= +70
 c9268: +33.4 Y773,6 <= +80
 c9269: +38.2 Y774,0 <= +70
 c9270: +38.2 Y774,1 <= +70
 c9271: +38.2 Y774,2 <= +60
 c9272: +38.2 Y774,3 <= +50
 c9273: +38.2 Y774,4 <= +40
 c9274: +38.2 Y774,5 <= +70
 c9275: +38.2 Y774,6 <= +80
 c9276: +28.7 Y775,0 <= +70
 c9277: +28.7 Y775,1 <= +70
 c9278: +28.7 Y775,2 <= +60
 c9279: +28.7 Y775,3 <= +50
 c9280: +28.7 Y775,4 <= +40
 c9281: +28.7 Y775,5 <= +70
 c9282: +28.7 Y775,6 <= +80
 c9283: +27.2 Y776,0 <= +70
 c9284: +27.2 Y776,1 <= +70
 c9285: +27.2 Y776,2 <= +60
 c9286: +27.2 Y776,3 <= +50
 c9287: +27.2 Y776,4 <= +40
 c9288: +27.2 Y776,5 <= +70
 c9289: +27.2 Y776,6 <= +80
 c9290: +23.3 Y777,0 <= +70
 c9291: +23.3 Y777,1 <= +70
 c9292: +23.3 Y777,2 <= +60
 c9293: +23.3 Y777,3 <= +50
 c9294: +23.3 Y777,4 <= +40
 c9295: +23.3 Y777,5 <= +70
 c9296: +23.3 Y777,6 <= +80
 c9297: +28.1 Y778,0 <= +70
 c9298: +28.1 Y778,1 <= +70
 c9299: +28.1 Y778,2 <= +60
 c9300: +28.1 Y778,3 <= +50
 c9301: +28.1 Y778,4 <= +40
 c9302: +28.1 Y778,5 <= +70
 c9303: +28.1 Y778,6 <= +80
 c9304: +18.6 Y779,0 <= +70
 c9305: +18.6 Y779,1 <= +70
 c9306: +18.6 Y779,2 <= +60
 c9307: +18.6 Y779,3 <= +50
 c9308: +18.6 Y779,4 <= +40
 c9309: +18.6 Y779,5 <= +70
 c9310: +18.6 Y779,6 <= +80
 c9311: +23.9 Y780,0 <= +70
 c9312: +23.9 Y780,1 <= +70
 c9313: +23.9 Y780,2 <= +60
 c9314: +23.9 Y780,3 <= +50
 c9315: +23.9 Y780,4 <= +40
 c9316: +23.9 Y780,5 <= +70
 c9317: +23.9 Y780,6 <= +80
 c9318: +28.7 Y781,0 <= +70
 c9319: +28.7 Y781,1 <= +70
 c9320: +28.7 Y781,2 <= +60
 c9321: +28.7 Y781,3 <= +50
 c9322: +28.7 Y781,4 <= +40
 c9323: +28.7 Y781,5 <= +70
 c9324: +28.7 Y781,6 <= +80
 c9325: +19.2 Y782,0 <= +70
 c9326: +19.2 Y782,1 <= +70
 c9327: +19.2 Y782,2 <= +60
 c9328: +19.2 Y782,3 <= +50
 c9329: +19.2 Y782,4 <= +40
 c9330: +19.2 Y782,5 <= +70
 c9331: +19.2 Y782,6 <= +80
 c9332: +24.8 Y783,0 <= +70
 c9333: +24.8 Y783,1 <= +70
 c9334: +24.8 Y783,2 <= +60
 c9335: +24.8 Y783,3 <= +50
 c9336: +24.8 Y783,4 <= +40
 c9337: +24.8 Y783,5 <= +70
 c9338: +24.8 Y783,6 <= +80
 c9339: +15.3 Y784,0 <= +70
 c9340: +15.3 Y784,1 <= +70
 c9341: +15.3 Y784,2 <= +60
 c9342: +15.3 Y784,3 <= +50
 c9343: +15.3 Y784,4 <= +40
 c9344: +15.3 Y784,5 <= +70
 c9345: +15.3 Y784,6 <= +80
 c9346: +20.1 Y785,0 <= +70
 c9347: +20.1 Y785,1 <= +70
 c9348: +20.1 Y785,2 <= +60
 c9349: +20.1 Y785,3 <= +50
 c9350: +20.1 Y785,4 <= +40
 c9351: +20.1 Y785,5 <= +70
 c9352: +20.1 Y785,6 <= +80
 c9353: +50.1 Y786,0 <= +70
 c9354: +50.1 Y786,1 <= +70
 c9355: +50.1 Y786,2 <= +60
 c9356: +50.1 Y786,3 <= +50
 c9357: +50.1 Y786,4 <= +40
 c9358: +50.1 Y786,5 <= +70
 c9359: +50.1 Y786,6 <= +80
 c9360: +50.7 Y787,0 <= +70
 c9361: +50.7 Y787,1 <= +70
 c9362: +50.7 Y787,2 <= +60
 c9363: +50.7 Y787,3 <= +50
 c9364: +50.7 Y787,4 <= +40
 c9365: +50.7 Y787,5 <= +70
 c9366: +50.7 Y787,6 <= +80
 c9367: +46.8 Y788,0 <= +70
 c9368: +46.8 Y788,1 <= +70
 c9369: +46.8 Y788,2 <= +60
 c9370: +46.8 Y788,3 <= +50
 c9371: +46.8 Y788,4 <= +40
 c9372: +46.8 Y788,5 <= +70
 c9373: +46.8 Y788,6 <= +80
 c9374: +51.6 Y789,0 <= +70
 c9375: +51.6 Y789,1 <= +70
 c9376: +51.6 Y789,2 <= +60
 c9377: +51.6 Y789,3 <= +50
 c9378: +51.6 Y789,4 <= +40
 c9379: +51.6 Y789,5 <= +70
 c9380: +51.6 Y789,6 <= +80
 c9381: +42.1 Y790,0 <= +70
 c9382: +42.1 Y790,1 <= +70
 c9383: +42.1 Y790,2 <= +60
 c9384: +42.1 Y790,3 <= +50
 c9385: +42.1 Y790,4 <= +40
 c9386: +42.1 Y790,5 <= +70
 c9387: +42.1 Y790,6 <= +80
 c9388: +40.6 Y791,0 <= +70
 c9389: +40.6 Y791,1 <= +70
 c9390: +40.6 Y791,2 <= +60
 c9391: +40.6 Y791,3 <= +50
 c9392: +40.6 Y791,4 <= +40
 c9393: +40.6 Y791,5 <= +70
 c9394: +40.6 Y791,6 <= +80
 c9395: +36.7 Y792,0 <= +70
 c9396: +36.7 Y792,1 <= +70
 c9397: +36.7 Y792,2 <= +60
 c9398: +36.7 Y792,3 <= +50
 c9399: +36.7 Y792,4 <= +40
 c9400: +36.7 Y792,5 <= +70
 c9401: +36.7 Y792,6 <= +80
 c9402: +41.5 Y793,0 <= +70
 c9403: +41.5 Y793,1 <= +70
 c9404: +41.5 Y793,2 <= +60
 c9405: +41.5 Y793,3 <= +50
 c9406: +41.5 Y793,4 <= +40
 c9407: +41.5 Y793,5 <= +70
 c9408: +41.5 Y793,6 <= +80
 c9409: +32 Y794,0 <= +70
 c9410: +32 Y794,1 <= +70
 c9411: +32 Y794,2 <= +60
 c9412: +32 Y794,3 <= +50
 c9413: +32 Y794,4 <= +40
 c9414: +32 Y794,5 <= +70
 c9415: +32 Y794,6 <= +80
 c9416: +37.3 Y795,0 <= +70
 c9417: +37.3 Y795,1 <= +70
 c9418: +37.3 Y795,2 <= +60
 c9419: +37.3 Y795,3 <= +50
 c9420: +37.3 Y795,4 <= +40
 c9421: +37.3 Y795,5 <= +70
 c9422: +37.3 Y795,6 <= +80
 c9423: +42.1 Y796,0 <= +70
 c9424: +42.1 Y796,1 <= +70
 c9425: +42.1 Y796,2 <= +60
 c9426: +42.1 Y796,3 <= +50
 c9427: +42.1 Y796,4 <= +40
 c9428: +42.1 Y796,5 <= +70
 c9429: +42.1 Y796,6 <= +80
 c9430: +32.6 Y797,0 <= +70
 c9431: +32.6 Y797,1 <= +70
 c9432: +32.6 Y797,2 <= +60
 c9433: +32.6 Y797,3 <= +50
 c9434: +32.6 Y797,4 <= +40
 c9435: +32.6 Y797,5 <= +70
 c9436: +32.6 Y797,6 <= +80
 c9437: +38.2 Y798,0 <= +70
 c9438: +38.2 Y798,1 <= +70
 c9439: +38.2 Y798,2 <= +60
 c9440: +38.2 Y798,3 <= +50
 c9441: +38.2 Y798,4 <= +40
 c9442: +38.2 Y798,5 <= +70
 c9443: +38.2 Y798,6 <= +80
 c9444: +28.7 Y799,0 <= +70
 c9445: +28.7 Y799,1 <= +70
 c9446: +28.7 Y799,2 <= +60
 c9447: +28.7 Y799,3 <= +50
 c9448: +28.7 Y799,4 <= +40
 c9449: +28.7 Y799,5 <= +70
 c9450: +28.7 Y799,6 <= +80
 c9451: +33.5 Y800,0 <= +70
 c9452: +33.5 Y800,1 <= +70
 c9453: +33.5 Y800,2 <= +60
 c9454: +33.5 Y800,3 <= +50
 c9455: +33.5 Y800,4 <= +40
 c9456: +33.5 Y800,5 <= +70
 c9457: +33.5 Y800,6 <= +80
 c9458: +50.6 Y801,0 <= +70
 c9459: +50.6 Y801,1 <= +70
 c9460: +50.6 Y801,2 <= +60
 c9461: +50.6 Y801,3 <= +50
 c9462: +50.6 Y801,4 <= +40
 c9463: +50.6 Y801,5 <= +70
 c9464: +50.6 Y801,6 <= +80
 c9465: +46.7 Y802,0 <= +70
 c9466: +46.7 Y802,1 <= +70
 c9467: +46.7 Y802,2 <= +60
 c9468: +46.7 Y802,3 <= +50
 c9469: +46.7 Y802,4 <= +40
 c9470: +46.7 Y802,5 <= +70
 c9471: +46.7 Y802,6 <= +80
 c9472: +51.5 Y803,0 <= +70
 c9473: +51.5 Y803,1 <= +70
 c9474: +51.5 Y803,2 <= +60
 c9475: +51.5 Y803,3 <= +50
 c9476: +51.5 Y803,4 <= +40
 c9477: +51.5 Y803,5 <= +70
 c9478: +51.5 Y803,6 <= +80
 c9479: +42 Y804,0 <= +70
 c9480: +42 Y804,1 <= +70
 c9481: +42 Y804,2 <= +60
 c9482: +42 Y804,3 <= +50
 c9483: +42 Y804,4 <= +40
 c9484: +42 Y804,5 <= +70
 c9485: +42 Y804,6 <= +80
 c9486: +47.3 Y805,0 <= +70
 c9487: +47.3 Y805,1 <= +70
 c9488: +47.3 Y805,2 <= +60
 c9489: +47.3 Y805,3 <= +50
 c9490: +47.3 Y805,4 <= +40
 c9491: +47.3 Y805,5 <= +70
 c9492: +47.3 Y805,6 <= +80
 c9493: +52.1 Y806,0 <= +70
 c9494: +52.1 Y806,1 <= +70
 c9495: +52.1 Y806,2 <= +60
 c9496: +52.1 Y806,3 <= +50
 c9497: +52.1 Y806,4 <= +40
 c9498: +52.1 Y806,5 <= +70
 c9499: +52.1 Y806,6 <= +80
 c9500: +42.6 Y807,0 <= +70
 c9501: +42.6 Y807,1 <= +70
 c9502: +42.6 Y807,2 <= +60
 c9503: +42.6 Y807,3 <= +50
 c9504: +42.6 Y807,4 <= +40
 c9505: +42.6 Y807,5 <= +70
 c9506: +42.6 Y807,6 <= +80
 c9507: +48.2 Y808,0 <= +70
 c9508: +48.2 Y808,1 <= +70
 c9509: +48.2 Y808,2 <= +60
 c9510: +48.2 Y808,3 <= +50
 c9511: +48.2 Y808,4 <= +40
 c9512: +48.2 Y808,5 <= +70
 c9513: +48.2 Y808,6 <= +80
 c9514: +38.7 Y809,0 <= +70
 c9515: +38.7 Y809,1 <= +70
 c9516: +38.7 Y809,2 <= +60
 c9517: +38.7 Y809,3 <= +50
 c9518: +38.7 Y809,4 <= +40
 c9519: +38.7 Y809,5 <= +70
 c9520: +38.7 Y809,6 <= +80
 c9521: +43.5 Y810,0 <= +70
 c9522: +43.5 Y810,1 <= +70
 c9523: +43.5 Y810,2 <= +60
 c9524: +43.5 Y810,3 <= +50
 c9525: +43.5 Y810,4 <= +40
 c9526: +43.5 Y810,5 <= +70
 c9527: +43.5 Y810,6 <= +80
 c9528: +37.2 Y811,0 <= +70
 c9529: +37.2 Y811,1 <= +70
 c9530: +37.2 Y811,2 <= +60
 c9531: +37.2 Y811,3 <= +50
 c9532: +37.2 Y811,4 <= +40
 c9533: +37.2 Y811,5 <= +70
 c9534: +37.2 Y811,6 <= +80
 c9535: +42 Y812,0 <= +70
 c9536: +42 Y812,1 <= +70
 c9537: +42 Y812,2 <= +60
 c9538: +42 Y812,3 <= +50
 c9539: +42 Y812,4 <= +40
 c9540: +42 Y812,5 <= +70
 c9541: +42 Y812,6 <= +80
 c9542: +32.5 Y813,0 <= +70
 c9543: +32.5 Y813,1 <= +70
 c9544: +32.5 Y813,2 <= +60
 c9545: +32.5 Y813,3 <= +50
 c9546: +32.5 Y813,4 <= +40
 c9547: +32.5 Y813,5 <= +70
 c9548: +32.5 Y813,6 <= +80
 c9549: +38.1 Y814,0 <= +70
 c9550: +38.1 Y814,1 <= +70
 c9551: +38.1 Y814,2 <= +60
 c9552: +38.1 Y814,3 <= +50
 c9553: +38.1 Y814,4 <= +40
 c9554: +38.1 Y814,5 <= +70
 c9555: +38.1 Y814,6 <= +80
 c9556: +28.6 Y815,0 <= +70
 c9557: +28.6 Y815,1 <= +70
 c9558: +28.6 Y815,2 <= +60
 c9559: +28.6 Y815,3 <= +50
 c9560: +28.6 Y815,4 <= +40
 c9561: +28.6 Y815,5 <= +70
 c9562: +28.6 Y815,6 <= +80
 c9563: +33.4 Y816,0 <= +70
 c9564: +33.4 Y816,1 <= +70
 c9565: +33.4 Y816,2 <= +60
 c9566: +33.4 Y816,3 <= +50
 c9567: +33.4 Y816,4 <= +40
 c9568: +33.4 Y816,5 <= +70
 c9569: +33.4 Y816,6 <= +80
 c9570: +38.7 Y817,0 <= +70
 c9571: +38.7 Y817,1 <= +70
 c9572: +38.7 Y817,2 <= +60
 c9573: +38.7 Y817,3 <= +50
 c9574: +38.7 Y817,4 <= +40
 c9575: +38.7 Y817,5 <= +70
 c9576: +38.7 Y817,6 <= +80
 c9577: +29.2 Y818,0 <= +70
 c9578: +29.2 Y818,1 <= +70
 c9579: +29.2 Y818,2 <= +60
 c9580: +29.2 Y818,3 <= +50
 c9581: +29.2 Y818,4 <= +40
 c9582: +29.2 Y818,5 <= +70
 c9583: +29.2 Y818,6 <= +80
 c9584: +34 Y819,0 <= +70
 c9585: +34 Y819,1 <= +70
 c9586: +34 Y819,2 <= +60
 c9587: +34 Y819,3 <= +50
 c9588: +34 Y819,4 <= +40
 c9589: +34 Y819,5 <= +70
 c9590: +34 Y819,6 <= +80
 c9591: +30.1 Y820,0 <= +70
 c9592: +30.1 Y820,1 <= +70
 c9593: +30.1 Y820,2 <= +60
 c9594: +30.1 Y820,3 <= +50
 c9595: +30.1 Y820,4 <= +40
 c9596: +30.1 Y820,5 <= +70
 c9597: +30.1 Y820,6 <= +80
 c9598: +64 Y821,0 <= +70
 c9599: +64 Y821,1 <= +70
 c9600: +64 Y821,2 <= +60
 c9601: +64 Y821,3 <= +50
 c9602: +64 Y821,4 <= +40
 c9603: +64 Y821,5 <= +70
 c9604: +64 Y821,6 <= +80
 c9605: +60.1 Y822,0 <= +70
 c9606: +60.1 Y822,1 <= +70
 c9607: +60.1 Y822,2 <= +60
 c9608: +60.1 Y822,3 <= +50
 c9609: +60.1 Y822,4 <= +40
 c9610: +60.1 Y822,5 <= +70
 c9611: +60.1 Y822,6 <= +80
 c9612: +64.9 Y823,0 <= +70
 c9613: +64.9 Y823,1 <= +70
 c9614: +64.9 Y823,2 <= +60
 c9615: +64.9 Y823,3 <= +50
 c9616: +64.9 Y823,4 <= +40
 c9617: +64.9 Y823,5 <= +70
 c9618: +64.9 Y823,6 <= +80
 c9619: +55.4 Y824,0 <= +70
 c9620: +55.4 Y824,1 <= +70
 c9621: +55.4 Y824,2 <= +60
 c9622: +55.4 Y824,3 <= +50
 c9623: +55.4 Y824,4 <= +40
 c9624: +55.4 Y824,5 <= +70
 c9625: +55.4 Y824,6 <= +80
 c9626: +60.7 Y825,0 <= +70
 c9627: +60.7 Y825,1 <= +70
 c9628: +60.7 Y825,2 <= +60
 c9629: +60.7 Y825,3 <= +50
 c9630: +60.7 Y825,4 <= +40
 c9631: +60.7 Y825,5 <= +70
 c9632: +60.7 Y825,6 <= +80
 c9633: +65.5 Y826,0 <= +70
 c9634: +65.5 Y826,1 <= +70
 c9635: +65.5 Y826,2 <= +60
 c9636: +65.5 Y826,3 <= +50
 c9637: +65.5 Y826,4 <= +40
 c9638: +65.5 Y826,5 <= +70
 c9639: +65.5 Y826,6 <= +80
 c9640: +56 Y827,0 <= +70
 c9641: +56 Y827,1 <= +70
 c9642: +56 Y827,2 <= +60
 c9643: +56 Y827,3 <= +50
 c9644: +56 Y827,4 <= +40
 c9645: +56 Y827,5 <= +70
 c9646: +56 Y827,6 <= +80
 c9647: +61.6 Y828,0 <= +70
 c9648: +61.6 Y828,1 <= +70
 c9649: +61.6 Y828,2 <= +60
 c9650: +61.6 Y828,3 <= +50
 c9651: +61.6 Y828,4 <= +40
 c9652: +61.6 Y828,5 <= +70
 c9653: +61.6 Y828,6 <= +80
 c9654: +52.1 Y829,0 <= +70
 c9655: +52.1 Y829,1 <= +70
 c9656: +52.1 Y829,2 <= +60
 c9657: +52.1 Y829,3 <= +50
 c9658: +52.1 Y829,4 <= +40
 c9659: +52.1 Y829,5 <= +70
 c9660: +52.1 Y829,6 <= +80
 c9661: +56.9 Y830,0 <= +70
 c9662: +56.9 Y830,1 <= +70
 c9663: +56.9 Y830,2 <= +60
 c9664: +56.9 Y830,3 <= +50
 c9665: +56.9 Y830,4 <= +40
 c9666: +56.9 Y830,5 <= +70
 c9667: +56.9 Y830,6 <= +80
 c9668: +50.6 Y831,0 <= +70
 c9669: +50.6 Y831,1 <= +70
 c9670: +50.6 Y831,2 <= +60
 c9671: +50.6 Y831,3 <= +50
 c9672: +50.6 Y831,4 <= +40
 c9673: +50.6 Y831,5 <= +70
 c9674: +50.6 Y831,6 <= +80
 c9675: +55.4 Y832,0 <= +70
 c9676: +55.4 Y832,1 <= +70
 c9677: +55.4 Y832,2 <= +60
 c9678: +55.4 Y832,3 <= +50
 c9679: +55.4 Y832,4 <= +40
 c9680: +55.4 Y832,5 <= +70
 c9681: +55.4 Y832,6 <= +80
 c9682: +45.9 Y833,0 <= +70
 c9683: +45.9 Y833,1 <= +70
 c9684: +45.9 Y833,2 <= +60
 c9685: +45.9 Y833,3 <= +50
 c9686: +45.9 Y833,4 <= +40
 c9687: +45.9 Y833,5 <= +70
 c9688: +45.9 Y833,6 <= +80
 c9689: +51.5 Y834,0 <= +70
 c9690: +51.5 Y834,1 <= +70
 c9691: +51.5 Y834,2 <= +60
 c9692: +51.5 Y834,3 <= +50
 c9693: +51.5 Y834,4 <= +40
 c9694: +51.5 Y834,5 <= +70
 c9695: +51.5 Y834,6 <= +80
 c9696: +42 Y835,0 <= +70
 c9697: +42 Y835,1 <= +70
 c9698: +42 Y835,2 <= +60
 c9699: +42 Y835,3 <= +50
 c9700: +42 Y835,4 <= +40
 c9701: +42 Y835,5 <= +70
 c9702: +42 Y835,6 <= +80
 c9703: +46.8 Y836,0 <= +70
 c9704: +46.8 Y836,1 <= +70
 c9705: +46.8 Y836,2 <= +60
 c9706: +46.8 Y836,3 <= +50
 c9707: +46.8 Y836,4 <= +40
 c9708: +46.8 Y836,5 <= +70
 c9709: +46.8 Y836,6 <= +80
 c9710: +52.1 Y837,0 <= +70
 c9711: +52.1 Y837,1 <= +70
 c9712: +52.1 Y837,2 <= +60
 c9713: +52.1 Y837,3 <= +50
 c9714: +52.1 Y837,4 <= +40
 c9715: +52.1 Y837,5 <= +70
 c9716: +52.1 Y837,6 <= +80
 c9717: +42.6 Y838,0 <= +70
 c9718: +42.6 Y838,1 <= +70
 c9719: +42.6 Y838,2 <= +60
 c9720: +42.6 Y838,3 <= +50
 c9721: +42.6 Y838,4 <= +40
 c9722: +42.6 Y838,5 <= +70
 c9723: +42.6 Y838,6 <= +80
 c9724: +47.4 Y839,0 <= +70
 c9725: +47.4 Y839,1 <= +70
 c9726: +47.4 Y839,2 <= +60
 c9727: +47.4 Y839,3 <= +50
 c9728: +47.4 Y839,4 <= +40
 c9729: +47.4 Y839,5 <= +70
 c9730: +47.4 Y839,6 <= +80
 c9731: +43.5 Y840,0 <= +70
 c9732: +43.5 Y840,1 <= +70
 c9733: +43.5 Y840,2 <= +60
 c9734: +43.5 Y840,3 <= +50
 c9735: +43.5 Y840,4 <= +40
 c9736: +43.5 Y840,5 <= +70
 c9737: +43.5 Y840,6 <= +80
 c9738: +60.6 Y841,0 <= +70
 c9739: +60.6 Y841,1 <= +70
 c9740: +60.6 Y841,2 <= +60
 c9741: +60.6 Y841,3 <= +50
 c9742: +60.6 Y841,4 <= +40
 c9743: +60.6 Y841,5 <= +70
 c9744: +60.6 Y841,6 <= +80
 c9745: +65.4 Y842,0 <= +70
 c9746: +65.4 Y842,1 <= +70
 c9747: +65.4 Y842,2 <= +60
 c9748: +65.4 Y842,3 <= +50
 c9749: +65.4 Y842,4 <= +40
 c9750: +65.4 Y842,5 <= +70
 c9751: +65.4 Y842,6 <= +80
 c9752: +55.9 Y843,0 <= +70
 c9753: +55.9 Y843,1 <= +70
 c9754: +55.9 Y843,2 <= +60
 c9755: +55.9 Y843,3 <= +50
 c9756: +55.9 Y843,4 <= +40
 c9757: +55.9 Y843,5 <= +70
 c9758: +55.9 Y843,6 <= +80
 c9759: +61.5 Y844,0 <= +70
 c9760: +61.5 Y844,1 <= +70
 c9761: +61.5 Y844,2 <= +60
 c9762: +61.5 Y844,3 <= +50
 c9763: +61.5 Y844,4 <= +40
 c9764: +61.5 Y844,5 <= +70
 c9765: +61.5 Y844,6 <= +80
 c9766: +52 Y845,0 <= +70
 c9767: +52 Y845,1 <= +70
 c9768: +52 Y845,2 <= +60
 c9769: +52 Y845,3 <= +50
 c9770: +52 Y845,4 <= +40
 c9771: +52 Y845,5 <= +70
 c9772: +52 Y845,6 <= +80
 c9773: +56.8 Y846,0 <= +70
 c9774: +56.8 Y846,1 <= +70
 c9775: +56.8 Y846,2 <= +60
 c9776: +56.8 Y846,3 <= +50
 c9777: +56.8 Y846,4 <= +40
 c9778: +56.8 Y846,5 <= +70
 c9779: +56.8 Y846,6 <= +80
 c9780: +62.1 Y847,0 <= +70
 c9781: +62.1 Y847,1 <= +70
 c9782: +62.1 Y847,2 <= +60
 c9783: +62.1 Y847,3 <= +50
 c9784: +62.1 Y847,4 <= +40
 c9785: +62.1 Y847,5 <= +70
 c9786: +62.1 Y847,6 <= +80
 c9787: +52.6 Y848,0 <= +70
 c9788: +52.6 Y848,1 <= +70
 c9789: +52.6 Y848,2 <= +60
 c9790: +52.6 Y848,3 <= +50
 c9791: +52.6 Y848,4 <= +40
 c9792: +52.6 Y848,5 <= +70
 c9793: +52.6 Y848,6 <= +80
 c9794: +57.4 Y849,0 <= +70
 c9795: +57.4 Y849,1 <= +70
 c9796: +57.4 Y849,2 <= +60
 c9797: +57.4 Y849,3 <= +50
 c9798: +57.4 Y849,4 <= +40
 c9799: +57.4 Y849,5 <= +70
 c9800: +57.4 Y849,6 <= +80
 c9801: +53.5 Y850,0 <= +70
 c9802: +53.5 Y850,1 <= +70
 c9803: +53.5 Y850,2 <= +60
 c9804: +53.5 Y850,3 <= +50
 c9805: +53.5 Y850,4 <= +40
 c9806: +53.5 Y850,5 <= +70
 c9807: +53.5 Y850,6 <= +80
 c9808: +52 Y851,0 <= +70
 c9809: +52 Y851,1 <= +70
 c9810: +52 Y851,2 <= +60
 c9811: +52 Y851,3 <= +50
 c9812: +52 Y851,4 <= +40
 c9813: +52 Y851,5 <= +70
 c9814: +52 Y851,6 <= +80
 c9815: +42.5 Y852,0 <= +70
 c9816: +42.5 Y852,1 <= +70
 c9817: +42.5 Y852,2 <= +60
 c9818: +42.5 Y852,3 <= +50
 c9819: +42.5 Y852,4 <= +40
 c9820: +42.5 Y852,5 <= +70
 c9821: +42.5 Y852,6 <= +80
 c9822: +47.3 Y853,0 <= +70
 c9823: +47.3 Y853,1 <= +70
 c9824: +47.3 Y853,2 <= +60
 c9825: +47.3 Y853,3 <= +50
 c9826: +47.3 Y853,4 <= +40
 c9827: +47.3 Y853,5 <= +70
 c9828: +47.3 Y853,6 <= +80
 c9829: +43.4 Y854,0 <= +70
 c9830: +43.4 Y854,1 <= +70
 c9831: +43.4 Y854,2 <= +60
 c9832: +43.4 Y854,3 <= +50
 c9833: +43.4 Y854,4 <= +40
 c9834: +43.4 Y854,5 <= +70
 c9835: +43.4 Y854,6 <= +80
 c9836: +44 Y855,0 <= +70
 c9837: +44 Y855,1 <= +70
 c9838: +44 Y855,2 <= +60
 c9839: +44 Y855,3 <= +50
 c9840: +44 Y855,4 <= +40
 c9841: +44 Y855,5 <= +70
 c9842: +44 Y855,6 <= +80
 c9843: +74 Y856,0 <= +70
 c9844: +74 Y856,1 <= +70
 c9845: +74 Y856,2 <= +60
 c9846: +74 Y856,3 <= +50
 c9847: +74 Y856,4 <= +40
 c9848: +74 Y856,5 <= +70
 c9849: +74 Y856,6 <= +80
 c9850: +78.8 Y857,0 <= +70
 c9851: +78.8 Y857,1 <= +70
 c9852: +78.8 Y857,2 <= +60
 c9853: +78.8 Y857,3 <= +50
 c9854: +78.8 Y857,4 <= +40
 c9855: +78.8 Y857,5 <= +70
 c9856: +78.8 Y857,6 <= +80
 c9857: +69.3 Y858,0 <= +70
 c9858: +69.3 Y858,1 <= +70
 c9859: +69.3 Y858,2 <= +60
 c9860: +69.3 Y858,3 <= +50
 c9861: +69.3 Y858,4 <= +40
 c9862: +69.3 Y858,5 <= +70
 c9863: +69.3 Y858,6 <= +80
 c9864: +74.9 Y859,0 <= +70
 c9865: +74.9 Y859,1 <= +70
 c9866: +74.9 Y859,2 <= +60
 c9867: +74.9 Y859,3 <= +50
 c9868: +74.9 Y859,4 <= +40
 c9869: +74.9 Y859,5 <= +70
 c9870: +74.9 Y859,6 <= +80
 c9871: +65.4 Y860,0 <= +70
 c9872: +65.4 Y860,1 <= +70
 c9873: +65.4 Y860,2 <= +60
 c9874: +65.4 Y860,3 <= +50
 c9875: +65.4 Y860,4 <= +40
 c9876: +65.4 Y860,5 <= +70
 c9877: +65.4 Y860,6 <= +80
 c9878: +70.2 Y861,0 <= +70
 c9879: +70.2 Y861,1 <= +70
 c9880: +70.2 Y861,2 <= +60
 c9881: +70.2 Y861,3 <= +50
 c9882: +70.2 Y861,4 <= +40
 c9883: +70.2 Y861,5 <= +70
 c9884: +70.2 Y861,6 <= +80
 c9885: +75.5 Y862,0 <= +70
 c9886: +75.5 Y862,1 <= +70
 c9887: +75.5 Y862,2 <= +60
 c9888: +75.5 Y862,3 <= +50
 c9889: +75.5 Y862,4 <= +40
 c9890: +75.5 Y862,5 <= +70
 c9891: +75.5 Y862,6 <= +80
 c9892: +66 Y863,0 <= +70
 c9893: +66 Y863,1 <= +70
 c9894: +66 Y863,2 <= +60
 c9895: +66 Y863,3 <= +50
 c9896: +66 Y863,4 <= +40
 c9897: +66 Y863,5 <= +70
 c9898: +66 Y863,6 <= +80
 c9899: +70.8 Y864,0 <= +70
 c9900: +70.8 Y864,1 <= +70
 c9901: +70.8 Y864,2 <= +60
 c9902: +70.8 Y864,3 <= +50
 c9903: +70.8 Y864,4 <= +40
 c9904: +70.8 Y864,5 <= +70
 c9905: +70.8 Y864,6 <= +80
 c9906: +66.9 Y865,0 <= +70
 c9907: +66.9 Y865,1 <= +70
 c9908: +66.9 Y865,2 <= +60
 c9909: +66.9 Y865,3 <= +50
 c9910: +66.9 Y865,4 <= +40
 c9911: +66.9 Y865,5 <= +70
 c9912: +66.9 Y865,6 <= +80
 c9913: +65.4 Y866,0 <= +70
 c9914: +65.4 Y866,1 <= +70
 c9915: +65.4 Y866,2 <= +60
 c9916: +65.4 Y866,3 <= +50
 c9917: +65.4 Y866,4 <= +40
 c9918: +65.4 Y866,5 <= +70
 c9919: +65.4 Y866,6 <= +80
 c9920: +55.9 Y867,0 <= +70
 c9921: +55.9 Y867,1 <= +70
 c9922: +55.9 Y867,2 <= +60
 c9923: +55.9 Y867,3 <= +50
 c9924: +55.9 Y867,4 <= +40
 c9925: +55.9 Y867,5 <= +70
 c9926: +55.9 Y867,6 <= +80
 c9927: +60.7 Y868,0 <= +70
 c9928: +60.7 Y868,1 <= +70
 c9929: +60.7 Y868,2 <= +60
 c9930: +60.7 Y868,3 <= +50
 c9931: +60.7 Y868,4 <= +40
 c9932: +60.7 Y868,5 <= +70
 c9933: +60.7 Y868,6 <= +80
 c9934: +56.8 Y869,0 <= +70
 c9935: +56.8 Y869,1 <= +70
 c9936: +56.8 Y869,2 <= +60
 c9937: +56.8 Y869,3 <= +50
 c9938: +56.8 Y869,4 <= +40
 c9939: +56.8 Y869,5 <= +70
 c9940: +56.8 Y869,6 <= +80
 c9941: +57.4 Y870,0 <= +70
 c9942: +57.4 Y870,1 <= +70
 c9943: +57.4 Y870,2 <= +60
 c9944: +57.4 Y870,3 <= +50
 c9945: +57.4 Y870,4 <= +40
 c9946: +57.4 Y870,5 <= +70
 c9947: +57.4 Y870,6 <= +80
 c9948: +75.4 Y871,0 <= +70
 c9949: +75.4 Y871,1 <= +70
 c9950: +75.4 Y871,2 <= +60
 c9951: +75.4 Y871,3 <= +50
 c9952: +75.4 Y871,4 <= +40
 c9953: +75.4 Y871,5 <= +70
 c9954: +75.4 Y871,6 <= +80
 c9955: +65.9 Y872,0 <= +70
 c9956: +65.9 Y872,1 <= +70
 c9957: +65.9 Y872,2 <= +60
 c9958: +65.9 Y872,3 <= +50
 c9959: +65.9 Y872,4 <= +40
 c9960: +65.9 Y872,5 <= +70
 c9961: +65.9 Y872,6 <= +80
 c9962: +70.7 Y873,0 <= +70
 c9963: +70.7 Y873,1 <= +70
 c9964: +70.7 Y873,2 <= +60
 c9965: +70.7 Y873,3 <= +50
 c9966: +70.7 Y873,4 <= +40
 c9967: +70.7 Y873,5 <= +70
 c9968: +70.7 Y873,6 <= +80
 c9969: +66.8 Y874,0 <= +70
 c9970: +66.8 Y874,1 <= +70
 c9971: +66.8 Y874,2 <= +60
 c9972: +66.8 Y874,3 <= +50
 c9973: +66.8 Y874,4 <= +40
 c9974: +66.8 Y874,5 <= +70
 c9975: +66.8 Y874,6 <= +80
 c9976: +67.4 Y875,0 <= +70
 c9977: +67.4 Y875,1 <= +70
 c9978: +67.4 Y875,2 <= +60
 c9979: +67.4 Y875,3 <= +50
 c9980: +67.4 Y875,4 <= +40
 c9981: +67.4 Y875,5 <= +70
 c9982: +67.4 Y875,6 <= +80
 c9983: +57.3 Y876,0 <= +70
 c9984: +57.3 Y876,1 <= +70
 c9985: +57.3 Y876,2 <= +60
 c9986: +57.3 Y876,3 <= +50
 c9987: +57.3 Y876,4 <= +40
 c9988: +57.3 Y876,5 <= +70
 c9989: +57.3 Y876,6 <= +80
 c9990: +79.3 Y877,0 <= +70
 c9991: +79.3 Y877,1 <= +70
 c9992: +79.3 Y877,2 <= +60
 c9993: +79.3 Y877,3 <= +50
 c9994: +79.3 Y877,4 <= +40
 c9995: +79.3 Y877,5 <= +70
 c9996: +79.3 Y877,6 <= +80
 c9997: +70.7 Y878,0 <= +70
 c9998: +70.7 Y878,1 <= +70
 c9999: +70.7 Y878,2 <= +60
 c10000: +70.7 Y878,3 <= +50
 c10001: +70.7 Y878,4 <= +40
 c10002: +70.7 Y878,5 <= +70
 c10003: +70.7 Y878,6 <= +80
 c10004: +18.6 Y879,0 <= +70
 c10005: +18.6 Y879,1 <= +70
 c10006: +18.6 Y879,2 <= +60
 c10007: +18.6 Y879,3 <= +50
 c10008: +18.6 Y879,4 <= +40
 c10009: +18.6 Y879,5 <= +70
 c10010: +18.6 Y879,6 <= +80
 c10011: +10.1 Y880,0 <= +70
 c10012: +10.1 Y880,1 <= +70
 c10013: +10.1 Y880,2 <= +60
 c10014: +10.1 Y880,3 <= +50
 c10015: +10.1 Y880,4 <= +40
 c10016: +10.1 Y880,5 <= +70
 c10017: +10.1 Y880,6 <= +80
 c10018: +12.3 Y881,0 <= +70
 c10019: +12.3 Y881,1 <= +70
 c10020: +12.3 Y881,2 <= +60
 c10021: +12.3 Y881,3 <= +50
 c10022: +12.3 Y881,4 <= +40
 c10023: +12.3 Y881,5 <= +70
 c10024: +12.3 Y881,6 <= +80
 c10025: +28.7 Y882,0 <= +70
 c10026: +28.7 Y882,1 <= +70
 c10027: +28.7 Y882,2 <= +60
 c10028: +28.7 Y882,3 <= +50
 c10029: +28.7 Y882,4 <= +40
 c10030: +28.7 Y882,5 <= +70
 c10031: +28.7 Y882,6 <= +80
 c10032: +30.9 Y883,0 <= +70
 c10033: +30.9 Y883,1 <= +70
 c10034: +30.9 Y883,2 <= +60
 c10035: +30.9 Y883,3 <= +50
 c10036: +30.9 Y883,4 <= +40
 c10037: +30.9 Y883,5 <= +70
 c10038: +30.9 Y883,6 <= +80
 c10039: +22.4 Y884,0 <= +70
 c10040: +22.4 Y884,1 <= +70
 c10041: +22.4 Y884,2 <= +60
 c10042: +22.4 Y884,3 <= +50
 c10043: +22.4 Y884,4 <= +40
 c10044: +22.4 Y884,5 <= +70
 c10045: +22.4 Y884,6 <= +80
 c10046: +41 Y885,0 <= +70
 c10047: +41 Y885,1 <= +70
 c10048: +41 Y885,2 <= +60
 c10049: +41 Y885,3 <= +50
 c10050: +41 Y885,4 <= +40
 c10051: +41 Y885,5 <= +70
 c10052: +41 Y885,6 <= +80
 c10053: +14 Y886,0 <= +70
 c10054: +14 Y886,1 <= +70
 c10055: +14 Y886,2 <= +60
 c10056: +14 Y886,3 <= +50
 c10057: +14 Y886,4 <= +40
 c10058: +14 Y886,5 <= +70
 c10059: +14 Y886,6 <= +80
 c10060: +6.4 Y887,0 <= +70
 c10061: +6.4 Y887,1 <= +70
 c10062: +6.4 Y887,2 <= +60
 c10063: +6.4 Y887,3 <= +50
 c10064: +6.4 Y887,4 <= +40
 c10065: +6.4 Y887,5 <= +70
 c10066: +6.4 Y887,6 <= +80
 c10067: +20.4 Y888,0 <= +70
 c10068: +20.4 Y888,1 <= +70
 c10069: +20.4 Y888,2 <= +60
 c10070: +20.4 Y888,3 <= +50
 c10071: +20.4 Y888,4 <= +40
 c10072: +20.4 Y888,5 <= +70
 c10073: +20.4 Y888,6 <= +80
Bounds
 0 <= Y0,0 <= 1
 0 <= Y0,1 <= 1
 0 <= Y0,2 <= 1
 0 <= Y0,3 <= 1
 0 <= Y0,4 <= 1
 0 <= Y0,5 <= 1
 0 <= Y0,6 <= 1
 0 <= Y1,0 <= 1
 0 <= Y1,1 <= 1
 0 <= Y1,2 <= 1
 0 <= Y1,3 <= 1
 0 <= Y1,4 <= 1
 0 <= Y1,5 <= 1
 0 <= Y1,6 <= 1
 0 <= Y2,0 <= 1
 0 <= Y2,1 <= 1
 0 <= Y2,2 <= 1
 0 <= Y2,3 <= 1
 0 <= Y2,4 <= 1
 0 <= Y2,5 <= 1
 0 <= Y2,6 <= 1
 0 <= Y3,0 <= 1
 0 <= Y3,1 <= 1
 0 <= Y3,2 <= 1
 0 <= Y3,3 <= 1
 0 <= Y3,4 <= 1
 0 <= Y3,5 <= 1
 0 <= Y3,6 <= 1
 0 <= Y4,0 <= 1
 0 <= Y4,1 <= 1
 0 <= Y4,2 <= 1
 0 <= Y4,3 <= 1
 0 <= Y4,4 <= 1
 0 <= Y4,5 <= 1
 0 <= Y4,6 <= 1
 0 <= Y5,0 <= 1
 0 <= Y5,1 <= 1
 0 <= Y5,2 <= 1
 0 <= Y5,3 <= 1
 0 <= Y5,4 <= 1
 0 <= Y5,5 <= 1
 0 <= Y5,6 <= 1
 0 <= Y6,0 <= 1
 0 <= Y6,1 <= 1
 0 <= Y6,2 <= 1
 0 <= Y6,3 <= 1
 0 <= Y6,4 <= 1
 0 <= Y6,5 <= 1
 0 <= Y6,6 <= 1
 0 <= Y7,0 <= 1
 0 <= Y7,1 <= 1
 0 <= Y7,2 <= 1
 0 <= Y7,3 <= 1
 0 <= Y7,4 <= 1
 0 <= Y7,5 <= 1
 0 <= Y7,6 <= 1
 0 <= Y8,0 <= 1
 0 <= Y8,1 <= 1
 0 <= Y8,2 <= 1
 0 <= Y8,3 <= 1
 0 <= Y8,4 <= 1
 0 <= Y8,5 <= 1
 0 <= Y8,6 <= 1
 0 <= Y9,0 <= 1
 0 <= Y9,1 <= 1
 0 <= Y9,2 <= 1
 0 <= Y9,3 <= 1
 0 <= Y9,4 <= 1
 0 <= Y9,5 <= 1
 0 <= Y9,6 <= 1
 0 <= Y10,0 <= 1
 0 <= Y10,1 <= 1
 0 <= Y10,2 <= 1
 0 <= Y10,3 <= 1
 0 <= Y10,4 <= 1
 0 <= Y10,5 <= 1
 0 <= Y10,6 <= 1
 0 <= Y11,0 <= 1
 0 <= Y11,1 <= 1
 0 <= Y11,2 <= 1
 0 <= Y11,3 <= 1
 0 <= Y11,4 <= 1
 0 <= Y11,5 <= 1
 0 <= Y11,6 <= 1
 0 <= Y12,0 <= 1
 0 <= Y12,1 <= 1
 0 <= Y12,2 <= 1
 0 <= Y12,3 <= 1
 0 <= Y12,4 <= 1
 0 <= Y12,5 <= 1
 0 <= Y12,6 <= 1
 0 <= Y13,0 <= 1
 0 <= Y13,1 <= 1
 0 <= Y13,2 <= 1
 0 <= Y13,3 <= 1
 0 <= Y13,4 <= 1
 0 <= Y13,5 <= 1
 0 <= Y13,6 <= 1
 0 <= Y14,0 <= 1
 0 <= Y14,1 <= 1
 0 <= Y14,2 <= 1
 0 <= Y14,3 <= 1
 0 <= Y14,4 <= 1
 0 <= Y14,5 <= 1
 0 <= Y14,6 <= 1
 0 <= Y15,0 <= 1
 0 <= Y15,1 <= 1
 0 <= Y15,2 <= 1
 0 <= Y15,3 <= 1
 0 <= Y15,4 <= 1
 0 <= Y15,5 <= 1
 0 <= Y15,6 <= 1
 0 <= Y16,0 <= 1
 0 <= Y16,1 <= 1
 0 <= Y16,2 <= 1
 0 <= Y16,3 <= 1
 0 <= Y16,4 <= 1
 0 <= Y16,5 <= 1
 0 <= Y16,6 <= 1
 0 <= Y17,0 <= 1
 0 <= Y17,1 <= 1
 0 <= Y17,2 <= 1
 0 <= Y17,3 <= 1
 0 <= Y17,4 <= 1
 0 <= Y17,5 <= 1
 0 <= Y17,6 <= 1
 0 <= Y18,0 <= 1
 0 <= Y18,1 <= 1
 0 <= Y18,2 <= 1
 0 <= Y18,3 <= 1
 0 <= Y18,4 <= 1
 0 <= Y18,5 <= 1
 0 <= Y18,6 <= 1
 0 <= Y19,0 <= 1
 0 <= Y19,1 <= 1
 0 <= Y19,2 <= 1
 0 <= Y19,3 <= 1
 0 <= Y19,4 <= 1
 0 <= Y19,5 <= 1
 0 <= Y19,6 <= 1
 0 <= Y20,0 <= 1
 0 <= Y20,1 <= 1
 0 <= Y20,2 <= 1
 0 <= Y20,3 <= 1
 0 <= Y20,4 <= 1
 0 <= Y20,5 <= 1
 0 <= Y20,6 <= 1
 0 <= Y21,0 <= 1
 0 <= Y21,1 <= 1
 0 <= Y21,2 <= 1
 0 <= Y21,3 <= 1
 0 <= Y21,4 <= 1
 0 <= Y21,5 <= 1
 0 <= Y21,6 <= 1
 0 <= Y22,0 <= 1
 0 <= Y22,1 <= 1
 0 <= Y22,2 <= 1
 0 <= Y22,3 <= 1
 0 <= Y22,4 <= 1
 0 <= Y22,5 <= 1
 0 <= Y22,6 <= 1
 0 <= Y23,0 <= 1
 0 <= Y23,1 <= 1
 0 <= Y23,2 <= 1
 0 <= Y23,3 <= 1
 0 <= Y23,4 <= 1
 0 <= Y23,5 <= 1
 0 <= Y23,6 <= 1
 0 <= Y24,0 <= 1
 0 <= Y24,1 <= 1
 0 <= Y24,2 <= 1
 0 <= Y24,3 <= 1
 0 <= Y24,4 <= 1
 0 <= Y24,5 <= 1
 0 <= Y24,6 <= 1
 0 <= Y25,0 <= 1
 0 <= Y25,1 <= 1
 0 <= Y25,2 <= 1
 0 <= Y25,3 <= 1
 0 <= Y25,4 <= 1
 0 <= Y25,5 <= 1
 0 <= Y25,6 <= 1
 0 <= Y26,0 <= 1
 0 <= Y26,1 <= 1
 0 <= Y26,2 <= 1
 0 <= Y26,3 <= 1
 0 <= Y26,4 <= 1
 0 <= Y26,5 <= 1
 0 <= Y26,6 <= 1
 0 <= Y27,0 <= 1
 0 <= Y27,1 <= 1
 0 <= Y27,2 <= 1
 0 <= Y27,3 <= 1
 0 <= Y27,4 <= 1
 0 <= Y27,5 <= 1
 0 <= Y27,6 <= 1
 0 <= Y28,0 <= 1
 0 <= Y28,1 <= 1
 0 <= Y28,2 <= 1
 0 <= Y28,3 <= 1
 0 <= Y28,4 <= 1
 0 <= Y28,5 <= 1
 0 <= Y28,6 <= 1
 0 <= Y29,0 <= 1
 0 <= Y29,1 <= 1
 0 <= Y29,2 <= 1
 0 <= Y29,3 <= 1
 0 <= Y29,4 <= 1
 0 <= Y29,5 <= 1
 0 <= Y29,6 <= 1
 0 <= Y30,0 <= 1
 0 <= Y30,1 <= 1
 0 <= Y30,2 <= 1
 0 <= Y30,3 <= 1
 0 <= Y30,4 <= 1
 0 <= Y30,5 <= 1
 0 <= Y30,6 <= 1
 0 <= Y31,0 <= 1
 0 <= Y31,1 <= 1
 0 <= Y31,2 <= 1
 0 <= Y31,3 <= 1
 0 <= Y31,4 <= 1
 0 <= Y31,5 <= 1
 0 <= Y31,6 <= 1
 0 <= Y32,0 <= 1
 0 <= Y32,1 <= 1
 0 <= Y32,2 <= 1
 0 <= Y32,3 <= 1
 0 <= Y32,4 <= 1
 0 <= Y32,5 <= 1
 0 <= Y32,6 <= 1
 0 <= Y33,0 <= 1
 0 <= Y33,1 <= 1
 0 <= Y33,2 <= 1
 0 <= Y33,3 <= 1
 0 <= Y33,4 <= 1
 0 <= Y33,5 <= 1
 0 <= Y33,6 <= 1
 0 <= Y34,0 <= 1
 0 <= Y34,1 <= 1
 0 <= Y34,2 <= 1
 0 <= Y34,3 <= 1
 0 <= Y34,4 <= 1
 0 <= Y34,5 <= 1
 0 <= Y34,6 <= 1
 0 <= Y35,0 <= 1
 0 <= Y35,1 <= 1
 0 <= Y35,2 <= 1
 0 <= Y35,3 <= 1
 0 <= Y35,4 <= 1
 0 <= Y35,5 <= 1
 0 <= Y35,6 <= 1
 0 <= Y36,0 <= 1
 0 <= Y36,1 <= 1
 0 <= Y36,2 <= 1
 0 <= Y36,3 <= 1
 0 <= Y36,4 <= 1
 0 <= Y36,5 <= 1
 0 <= Y36,6 <= 1
 0 <= Y37,0 <= 1
 0 <= Y37,1 <= 1
 0 <= Y37,2 <= 1
 0 <= Y37,3 <= 1
 0 <= Y37,4 <= 1
 0 <= Y37,5 <= 1
 0 <= Y37,6 <= 1
 0 <= Y38,0 <= 1
 0 <= Y38,1 <= 1
 0 <= Y38,2 <= 1
 0 <= Y38,3 <= 1
 0 <= Y38,4 <= 1
 0 <= Y38,5 <= 1
 0 <= Y38,6 <= 1
 0 <= Y39,0 <= 1
 0 <= Y39,1 <= 1
 0 <= Y39,2 <= 1
 0 <= Y39,3 <= 1
 0 <= Y39,4 <= 1
 0 <= Y39,5 <= 1
 0 <= Y39,6 <= 1
 0 <= Y40,0 <= 1
 0 <= Y40,1 <= 1
 0 <= Y40,2 <= 1
 0 <= Y40,3 <= 1
 0 <= Y40,4 <= 1
 0 <= Y40,5 <= 1
 0 <= Y40,6 <= 1
 0 <= Y41,0 <= 1
 0 <= Y41,1 <= 1
 0 <= Y41,2 <= 1
 0 <= Y41,3 <= 1
 0 <= Y41,4 <= 1
 0 <= Y41,5 <= 1
 0 <= Y41,6 <= 1
 0 <= Y42,0 <= 1
 0 <= Y42,1 <= 1
 0 <= Y42,2 <= 1
 0 <= Y42,3 <= 1
 0 <= Y42,4 <= 1
 0 <= Y42,5 <= 1
 0 <= Y42,6 <= 1
 0 <= Y43,0 <= 1
 0 <= Y43,1 <= 1
 0 <= Y43,2 <= 1
 0 <= Y43,3 <= 1
 0 <= Y43,4 <= 1
 0 <= Y43,5 <= 1
 0 <= Y43,6 <= 1
 0 <= Y44,0 <= 1
 0 <= Y44,1 <= 1
 0 <= Y44,2 <= 1
 0 <= Y44,3 <= 1
 0 <= Y44,4 <= 1
 0 <= Y44,5 <= 1
 0 <= Y44,6 <= 1
 0 <= Y45,0 <= 1
 0 <= Y45,1 <= 1
 0 <= Y45,2 <= 1
 0 <= Y45,3 <= 1
 0 <= Y45,4 <= 1
 0 <= Y45,5 <= 1
 0 <= Y45,6 <= 1
 0 <= Y46,0 <= 1
 0 <= Y46,1 <= 1
 0 <= Y46,2 <= 1
 0 <= Y46,3 <= 1
 0 <= Y46,4 <= 1
 0 <= Y46,5 <= 1
 0 <= Y46,6 <= 1
 0 <= Y47,0 <= 1
 0 <= Y47,1 <= 1
 0 <= Y47,2 <= 1
 0 <= Y47,3 <= 1
 0 <= Y47,4 <= 1
 0 <= Y47,5 <= 1
 0 <= Y47,6 <= 1
 0 <= Y48,0 <= 1
 0 <= Y48,1 <= 1
 0 <= Y48,2 <= 1
 0 <= Y48,3 <= 1
 0 <= Y48,4 <= 1
 0 <= Y48,5 <= 1
 0 <= Y48,6 <= 1
 0 <= Y49,0 <= 1
 0 <= Y49,1 <= 1
 0 <= Y49,2 <= 1
 0 <= Y49,3 <= 1
 0 <= Y49,4 <= 1
 0 <= Y49,5 <= 1
 0 <= Y49,6 <= 1
 0 <= Y50,0 <= 1
 0 <= Y50,1 <= 1
 0 <= Y50,2 <= 1
 0 <= Y50,3 <= 1
 0 <= Y50,4 <= 1
 0 <= Y50,5 <= 1
 0 <= Y50,6 <= 1
 0 <= Y51,0 <= 1
 0 <= Y51,1 <= 1
 0 <= Y51,2 <= 1
 0 <= Y51,3 <= 1
 0 <= Y51,4 <= 1
 0 <= Y51,5 <= 1
 0 <= Y51,6 <= 1
 0 <= Y52,0 <= 1
 0 <= Y52,1 <= 1
 0 <= Y52,2 <= 1
 0 <= Y52,3 <= 1
 0 <= Y52,4 <= 1
 0 <= Y52,5 <= 1
 0 <= Y52,6 <= 1
 0 <= Y53,0 <= 1
 0 <= Y53,1 <= 1
 0 <= Y53,2 <= 1
 0 <= Y53,3 <= 1
 0 <= Y53,4 <= 1
 0 <= Y53,5 <= 1
 0 <= Y53,6 <= 1
 0 <= Y54,0 <= 1
 0 <= Y54,1 <= 1
 0 <= Y54,2 <= 1
 0 <= Y54,3 <= 1
 0 <= Y54,4 <= 1
 0 <= Y54,5 <= 1
 0 <= Y54,6 <= 1
 0 <= Y55,0 <= 1
 0 <= Y55,1 <= 1
 0 <= Y55,2 <= 1
 0 <= Y55,3 <= 1
 0 <= Y55,4 <= 1
 0 <= Y55,5 <= 1
 0 <= Y55,6 <= 1
 0 <= Y56,0 <= 1
 0 <= Y56,1 <= 1
 0 <= Y56,2 <= 1
 0 <= Y56,3 <= 1
 0 <= Y56,4 <= 1
 0 <= Y56,5 <= 1
 0 <= Y56,6 <= 1
 0 <= Y57,0 <= 1
 0 <= Y57,1 <= 1
 0 <= Y57,2 <= 1
 0 <= Y57,3 <= 1
 0 <= Y57,4 <= 1
 0 <= Y57,5 <= 1
 0 <= Y57,6 <= 1
 0 <= Y58,0 <= 1
 0 <= Y58,1 <= 1
 0 <= Y58,2 <= 1
 0 <= Y58,3 <= 1
 0 <= Y58,4 <= 1
 0 <= Y58,5 <= 1
 0 <= Y58,6 <= 1
 0 <= Y59,0 <= 1
 0 <= Y59,1 <= 1
 0 <= Y59,2 <= 1
 0 <= Y59,3 <= 1
 0 <= Y59,4 <= 1
 0 <= Y59,5 <= 1
 0 <= Y59,6 <= 1
 0 <= Y60,0 <= 1
 0 <= Y60,1 <= 1
 0 <= Y60,2 <= 1
 0 <= Y60,3 <= 1
 0 <= Y60,4 <= 1
 0 <= Y60,5 <= 1
 0 <= Y60,6 <= 1
 0 <= Y61,0 <= 1
 0 <= Y61,1 <= 1
 0 <= Y61,2 <= 1
 0 <= Y61,3 <= 1
 0 <= Y61,4 <= 1
 0 <= Y61,5 <= 1
 0 <= Y61,6 <= 1
 0 <= Y62,0 <= 1
 0 <= Y62,1 <= 1
 0 <= Y62,2 <= 1
 0 <= Y62,3 <= 1
 0 <= Y62,4 <= 1
 0 <= Y62,5 <= 1
 0 <= Y62,6 <= 1
 0 <= Y63,0 <= 1
 0 <= Y63,1 <= 1
 0 <= Y63,2 <= 1
 0 <= Y63,3 <= 1
 0 <= Y63,4 <= 1
 0 <= Y63,5 <= 1
 0 <= Y63,6 <= 1
 0 <= Y64,0 <= 1
 0 <= Y64,1 <= 1
 0 <= Y64,2 <= 1
 0 <= Y64,3 <= 1
 0 <= Y64,4 <= 1
 0 <= Y64,5 <= 1
 0 <= Y64,6 <= 1
 0 <= Y65,0 <= 1
 0 <= Y65,1 <= 1
 0 <= Y65,2 <= 1
 0 <= Y65,3 <= 1
 0 <= Y65,4 <= 1
 0 <= Y65,5 <= 1
 0 <= Y65,6 <= 1
 0 <= Y66,0 <= 1
 0 <= Y66,1 <= 1
 0 <= Y66,2 <= 1
 0 <= Y66,3 <= 1
 0 <= Y66,4 <= 1
 0 <= Y66,5 <= 1
 0 <= Y66,6 <= 1
 0 <= Y67,0 <= 1
 0 <= Y67,1 <= 1
 0 <= Y67,2 <= 1
 0 <= Y67,3 <= 1
 0 <= Y67,4 <= 1
 0 <= Y67,5 <= 1
 0 <= Y67,6 <= 1
 0 <= Y68,0 <= 1
 0 <= Y68,1 <= 1
 0 <= Y68,2 <= 1
 0 <= Y68,3 <= 1
 0 <= Y68,4 <= 1
 0 <= Y68,5 <= 1
 0 <= Y68,6 <= 1
 0 <= Y69,0 <= 1
 0 <= Y69,1 <= 1
 0 <= Y69,2 <= 1
 0 <= Y69,3 <= 1
 0 <= Y69,4 <= 1
 0 <= Y69,5 <= 1
 0 <= Y69,6 <= 1
 0 <= Y70,0 <= 1
 0 <= Y70,1 <= 1
 0 <= Y70,2 <= 1
 0 <= Y70,3 <= 1
 0 <= Y70,4 <= 1
 0 <= Y70,5 <= 1
 0 <= Y70,6 <= 1
 0 <= Y71,0 <= 1
 0 <= Y71,1 <= 1
 0 <= Y71,2 <= 1
 0 <= Y71,3 <= 1
 0 <= Y71,4 <= 1
 0 <= Y71,5 <= 1
 0 <= Y71,6 <= 1
 0 <= Y72,0 <= 1
 0 <= Y72,1 <= 1
 0 <= Y72,2 <= 1
 0 <= Y72,3 <= 1
 0 <= Y72,4 <= 1
 0 <= Y72,5 <= 1
 0 <= Y72,6 <= 1
 0 <= Y73,0 <= 1
 0 <= Y73,1 <= 1
 0 <= Y73,2 <= 1
 0 <= Y73,3 <= 1
 0 <= Y73,4 <= 1
 0 <= Y73,5 <= 1
 0 <= Y73,6 <= 1
 0 <= Y74,0 <= 1
 0 <= Y74,1 <= 1
 0 <= Y74,2 <= 1
 0 <= Y74,3 <= 1
 0 <= Y74,4 <= 1
 0 <= Y74,5 <= 1
 0 <= Y74,6 <= 1
 0 <= Y75,0 <= 1
 0 <= Y75,1 <= 1
 0 <= Y75,2 <= 1
 0 <= Y75,3 <= 1
 0 <= Y75,4 <= 1
 0 <= Y75,5 <= 1
 0 <= Y75,6 <= 1
 0 <= Y76,0 <= 1
 0 <= Y76,1 <= 1
 0 <= Y76,2 <= 1
 0 <= Y76,3 <= 1
 0 <= Y76,4 <= 1
 0 <= Y76,5 <= 1
 0 <= Y76,6 <= 1
 0 <= Y77,0 <= 1
 0 <= Y77,1 <= 1
 0 <= Y77,2 <= 1
 0 <= Y77,3 <= 1
 0 <= Y77,4 <= 1
 0 <= Y77,5 <= 1
 0 <= Y77,6 <= 1
 0 <= Y78,0 <= 1
 0 <= Y78,1 <= 1
 0 <= Y78,2 <= 1
 0 <= Y78,3 <= 1
 0 <= Y78,4 <= 1
 0 <= Y78,5 <= 1
 0 <= Y78,6 <= 1
 0 <= Y79,0 <= 1
 0 <= Y79,1 <= 1
 0 <= Y79,2 <= 1
 0 <= Y79,3 <= 1
 0 <= Y79,4 <= 1
 0 <= Y79,5 <= 1
 0 <= Y79,6 <= 1
 0 <= Y80,0 <= 1
 0 <= Y80,1 <= 1
 0 <= Y80,2 <= 1
 0 <= Y80,3 <= 1
 0 <= Y80,4 <= 1
 0 <= Y80,5 <= 1
 0 <= Y80,6 <= 1
 0 <= Y81,0 <= 1
 0 <= Y81,1 <= 1
 0 <= Y81,2 <= 1
 0 <= Y81,3 <= 1
 0 <= Y81,4 <= 1
 0 <= Y81,5 <= 1
 0 <= Y81,6 <= 1
 0 <= Y82,0 <= 1
 0 <= Y82,1 <= 1
 0 <= Y82,2 <= 1
 0 <= Y82,3 <= 1
 0 <= Y82,4 <= 1
 0 <= Y82,5 <= 1
 0 <= Y82,6 <= 1
 0 <= Y83,0 <= 1
 0 <= Y83,1 <= 1
 0 <= Y83,2 <= 1
 0 <= Y83,3 <= 1
 0 <= Y83,4 <= 1
 0 <= Y83,5 <= 1
 0 <= Y83,6 <= 1
 0 <= Y84,0 <= 1
 0 <= Y84,1 <= 1
 0 <= Y84,2 <= 1
 0 <= Y84,3 <= 1
 0 <= Y84,4 <= 1
 0 <= Y84,5 <= 1
 0 <= Y84,6 <= 1
 0 <= Y85,0 <= 1
 0 <= Y85,1 <= 1
 0 <= Y85,2 <= 1
 0 <= Y85,3 <= 1
 0 <= Y85,4 <= 1
 0 <= Y85,5 <= 1
 0 <= Y85,6 <= 1
 0 <= Y86,0 <= 1
 0 <= Y86,1 <= 1
 0 <= Y86,2 <= 1
 0 <= Y86,3 <= 1
 0 <= Y86,4 <= 1
 0 <= Y86,5 <= 1
 0 <= Y86,6 <= 1
 0 <= Y87,0 <= 1
 0 <= Y87,1 <= 1
 0 <= Y87,2 <= 1
 0 <= Y87,3 <= 1
 0 <= Y87,4 <= 1
 0 <= Y87,5 <= 1
 0 <= Y87,6 <= 1
 0 <= Y88,0 <= 1
 0 <= Y88,1 <= 1
 0 <= Y88,2 <= 1
 0 <= Y88,3 <= 1
 0 <= Y88,4 <= 1
 0 <= Y88,5 <= 1
 0 <= Y88,6 <= 1
 0 <= Y89,0 <= 1
 0 <= Y89,1 <= 1
 0 <= Y89,2 <= 1
 0 <= Y89,3 <= 1
 0 <= Y89,4 <= 1
 0 <= Y89,5 <= 1
 0 <= Y89,6 <= 1
 0 <= Y90,0 <= 1
 0 <= Y90,1 <= 1
 0 <= Y90,2 <= 1
 0 <= Y90,3 <= 1
 0 <= Y90,4 <= 1
 0 <= Y90,5 <= 1
 0 <= Y90,6 <= 1
 0 <= Y91,0 <= 1
 0 <= Y91,1 <= 1
 0 <= Y91,2 <= 1
 0 <= Y91,3 <= 1
 0 <= Y91,4 <= 1
 0 <= Y91,5 <= 1
 0 <= Y91,6 <= 1
 0 <= Y92,0 <= 1
 0 <= Y92,1 <= 1
 0 <= Y92,2 <= 1
 0 <= Y92,3 <= 1
 0 <= Y92,4 <= 1
 0 <= Y92,5 <= 1
 0 <= Y92,6 <= 1
 0 <= Y93,0 <= 1
 0 <= Y93,1 <= 1
 0 <= Y93,2 <= 1
 0 <= Y93,3 <= 1
 0 <= Y93,4 <= 1
 0 <= Y93,5 <= 1
 0 <= Y93,6 <= 1
 0 <= Y94,0 <= 1
 0 <= Y94,1 <= 1
 0 <= Y94,2 <= 1
 0 <= Y94,3 <= 1
 0 <= Y94,4 <= 1
 0 <= Y94,5 <= 1
 0 <= Y94,6 <= 1
 0 <= Y95,0 <= 1
 0 <= Y95,1 <= 1
 0 <= Y95,2 <= 1
 0 <= Y95,3 <= 1
 0 <= Y95,4 <= 1
 0 <= Y95,5 <= 1
 0 <= Y95,6 <= 1
 0 <= Y96,0 <= 1
 0 <= Y96,1 <= 1
 0 <= Y96,2 <= 1
 0 <= Y96,3 <= 1
 0 <= Y96,4 <= 1
 0 <= Y96,5 <= 1
 0 <= Y96,6 <= 1
 0 <= Y97,0 <= 1
 0 <= Y97,1 <= 1
 0 <= Y97,2 <= 1
 0 <= Y97,3 <= 1
 0 <= Y97,4 <= 1
 0 <= Y97,5 <= 1
 0 <= Y97,6 <= 1
 0 <= Y98,0 <= 1
 0 <= Y98,1 <= 1
 0 <= Y98,2 <= 1
 0 <= Y98,3 <= 1
 0 <= Y98,4 <= 1
 0 <= Y98,5 <= 1
 0 <= Y98,6 <= 1
 0 <= Y99,0 <= 1
 0 <= Y99,1 <= 1
 0 <= Y99,2 <= 1
 0 <= Y99,3 <= 1
 0 <= Y99,4 <= 1
 0 <= Y99,5 <= 1
 0 <= Y99,6 <= 1
 0 <= Y100,0 <= 1
 0 <= Y100,1 <= 1
 0 <= Y100,2 <= 1
 0 <= Y100,3 <= 1
 0 <= Y100,4 <= 1
 0 <= Y100,5 <= 1
 0 <= Y100,6 <= 1
 0 <= Y101,0 <= 1
 0 <= Y101,1 <= 1
 0 <= Y101,2 <= 1
 0 <= Y101,3 <= 1
 0 <= Y101,4 <= 1
 0 <= Y101,5 <= 1
 0 <= Y101,6 <= 1
 0 <= Y102,0 <= 1
 0 <= Y102,1 <= 1
 0 <= Y102,2 <= 1
 0 <= Y102,3 <= 1
 0 <= Y102,4 <= 1
 0 <= Y102,5 <= 1
 0 <= Y102,6 <= 1
 0 <= Y103,0 <= 1
 0 <= Y103,1 <= 1
 0 <= Y103,2 <= 1
 0 <= Y103,3 <= 1
 0 <= Y103,4 <= 1
 0 <= Y103,5 <= 1
 0 <= Y103,6 <= 1
 0 <= Y104,0 <= 1
 0 <= Y104,1 <= 1
 0 <= Y104,2 <= 1
 0 <= Y104,3 <= 1
 0 <= Y104,4 <= 1
 0 <= Y104,5 <= 1
 0 <= Y104,6 <= 1
 0 <= Y105,0 <= 1
 0 <= Y105,1 <= 1
 0 <= Y105,2 <= 1
 0 <= Y105,3 <= 1
 0 <= Y105,4 <= 1
 0 <= Y105,5 <= 1
 0 <= Y105,6 <= 1
 0 <= Y106,0 <= 1
 0 <= Y106,1 <= 1
 0 <= Y106,2 <= 1
 0 <= Y106,3 <= 1
 0 <= Y106,4 <= 1
 0 <= Y106,5 <= 1
 0 <= Y106,6 <= 1
 0 <= Y107,0 <= 1
 0 <= Y107,1 <= 1
 0 <= Y107,2 <= 1
 0 <= Y107,3 <= 1
 0 <= Y107,4 <= 1
 0 <= Y107,5 <= 1
 0 <= Y107,6 <= 1
 0 <= Y108,0 <= 1
 0 <= Y108,1 <= 1
 0 <= Y108,2 <= 1
 0 <= Y108,3 <= 1
 0 <= Y108,4 <= 1
 0 <= Y108,5 <= 1
 0 <= Y108,6 <= 1
 0 <= Y109,0 <= 1
 0 <= Y109,1 <= 1
 0 <= Y109,2 <= 1
 0 <= Y109,3 <= 1
 0 <= Y109,4 <= 1
 0 <= Y109,5 <= 1
 0 <= Y109,6 <= 1
 0 <= Y110,0 <= 1
 0 <= Y110,1 <= 1
 0 <= Y110,2 <= 1
 0 <= Y110,3 <= 1
 0 <= Y110,4 <= 1
 0 <= Y110,5 <= 1
 0 <= Y110,6 <= 1
 0 <= Y111,0 <= 1
 0 <= Y111,1 <= 1
 0 <= Y111,2 <= 1
 0 <= Y111,3 <= 1
 0 <= Y111,4 <= 1
 0 <= Y111,5 <= 1
 0 <= Y111,6 <= 1
 0 <= Y112,0 <= 1
 0 <= Y112,1 <= 1
 0 <= Y112,2 <= 1
 0 <= Y112,3 <= 1
 0 <= Y112,4 <= 1
 0 <= Y112,5 <= 1
 0 <= Y112,6 <= 1
 0 <= Y113,0 <= 1
 0 <= Y113,1 <= 1
 0 <= Y113,2 <= 1
 0 <= Y113,3 <= 1
 0 <= Y113,4 <= 1
 0 <= Y113,5 <= 1
 0 <= Y113,6 <= 1
 0 <= Y114,0 <= 1
 0 <= Y114,1 <= 1
 0 <= Y114,2 <= 1
 0 <= Y114,3 <= 1
 0 <= Y114,4 <= 1
 0 <= Y114,5 <= 1
 0 <= Y114,6 <= 1
 0 <= Y115,0 <= 1
 0 <= Y115,1 <= 1
 0 <= Y115,2 <= 1
 0 <= Y115,3 <= 1
 0 <= Y115,4 <= 1
 0 <= Y115,5 <= 1
 0 <= Y115,6 <= 1
 0 <= Y116,0 <= 1
 0 <= Y116,1 <= 1
 0 <= Y116,2 <= 1
 0 <= Y116,3 <= 1
 0 <= Y116,4 <= 1
 0 <= Y116,5 <= 1
 0 <= Y116,6 <= 1
 0 <= Y117,0 <= 1
 0 <= Y117,1 <= 1
 0 <= Y117,2 <= 1
 0 <= Y117,3 <= 1
 0 <= Y117,4 <= 1
 0 <= Y117,5 <= 1
 0 <= Y117,6 <= 1
 0 <= Y118,0 <= 1
 0 <= Y118,1 <= 1
 0 <= Y118,2 <= 1
 0 <= Y118,3 <= 1
 0 <= Y118,4 <= 1
 0 <= Y118,5 <= 1
 0 <= Y118,6 <= 1
 0 <= Y119,0 <= 1
 0 <= Y119,1 <= 1
 0 <= Y119,2 <= 1
 0 <= Y119,3 <= 1
 0 <= Y119,4 <= 1
 0 <= Y119,5 <= 1
 0 <= Y119,6 <= 1
 0 <= Y120,0 <= 1
 0 <= Y120,1 <= 1
 0 <= Y120,2 <= 1
 0 <= Y120,3 <= 1
 0 <= Y120,4 <= 1
 0 <= Y120,5 <= 1
 0 <= Y120,6 <= 1
 0 <= Y121,0 <= 1
 0 <= Y121,1 <= 1
 0 <= Y121,2 <= 1
 0 <= Y121,3 <= 1
 0 <= Y121,4 <= 1
 0 <= Y121,5 <= 1
 0 <= Y121,6 <= 1
 0 <= Y122,0 <= 1
 0 <= Y122,1 <= 1
 0 <= Y122,2 <= 1
 0 <= Y122,3 <= 1
 0 <= Y122,4 <= 1
 0 <= Y122,5 <= 1
 0 <= Y122,6 <= 1
 0 <= Y123,0 <= 1
 0 <= Y123,1 <= 1
 0 <= Y123,2 <= 1
 0 <= Y123,3 <= 1
 0 <= Y123,4 <= 1
 0 <= Y123,5 <= 1
 0 <= Y123,6 <= 1
 0 <= Y124,0 <= 1
 0 <= Y124,1 <= 1
 0 <= Y124,2 <= 1
 0 <= Y124,3 <= 1
 0 <= Y124,4 <= 1
 0 <= Y124,5 <= 1
 0 <= Y124,6 <= 1
 0 <= Y125,0 <= 1
 0 <= Y125,1 <= 1
 0 <= Y125,2 <= 1
 0 <= Y125,3 <= 1
 0 <= Y125,4 <= 1
 0 <= Y125,5 <= 1
 0 <= Y125,6 <= 1
 0 <= Y126,0 <= 1
 0 <= Y126,1 <= 1
 0 <= Y126,2 <= 1
 0 <= Y126,3 <= 1
 0 <= Y126,4 <= 1
 0 <= Y126,5 <= 1
 0 <= Y126,6 <= 1
 0 <= Y127,0 <= 1
 0 <= Y127,1 <= 1
 0 <= Y127,2 <= 1
 0 <= Y127,3 <= 1
 0 <= Y127,4 <= 1
 0 <= Y127,5 <= 1
 0 <= Y127,6 <= 1
 0 <= Y128,0 <= 1
 0 <= Y128,1 <= 1
 0 <= Y128,2 <= 1
 0 <= Y128,3 <= 1
 0 <= Y128,4 <= 1
 0 <= Y128,5 <= 1
 0 <= Y128,6 <= 1
 0 <= Y129,0 <= 1
 0 <= Y129,1 <= 1
 0 <= Y129,2 <= 1
 0 <= Y129,3 <= 1
 0 <= Y129,4 <= 1
 0 <= Y129,5 <= 1
 0 <= Y129,6 <= 1
 0 <= Y130,0 <= 1
 0 <= Y130,1 <= 1
 0 <= Y130,2 <= 1
 0 <= Y130,3 <= 1
 0 <= Y130,4 <= 1
 0 <= Y130,5 <= 1
 0 <= Y130,6 <= 1
 0 <= Y131,0 <= 1
 0 <= Y131,1 <= 1
 0 <= Y131,2 <= 1
 0 <= Y131,3 <= 1
 0 <= Y131,4 <= 1
 0 <= Y131,5 <= 1
 0 <= Y131,6 <= 1
 0 <= Y132,0 <= 1
 0 <= Y132,1 <= 1
 0 <= Y132,2 <= 1
 0 <= Y132,3 <= 1
 0 <= Y132,4 <= 1
 0 <= Y132,5 <= 1
 0 <= Y132,6 <= 1
 0 <= Y133,0 <= 1
 0 <= Y133,1 <= 1
 0 <= Y133,2 <= 1
 0 <= Y133,3 <= 1
 0 <= Y133,4 <= 1
 0 <= Y133,5 <= 1
 0 <= Y133,6 <= 1
 0 <= Y134,0 <= 1
 0 <= Y134,1 <= 1
 0 <= Y134,2 <= 1
 0 <= Y134,3 <= 1
 0 <= Y134,4 <= 1
 0 <= Y134,5 <= 1
 0 <= Y134,6 <= 1
 0 <= Y135,0 <= 1
 0 <= Y135,1 <= 1
 0 <= Y135,2 <= 1
 0 <= Y135,3 <= 1
 0 <= Y135,4 <= 1
 0 <= Y135,5 <= 1
 0 <= Y135,6 <= 1
 0 <= Y136,0 <= 1
 0 <= Y136,1 <= 1
 0 <= Y136,2 <= 1
 0 <= Y136,3 <= 1
 0 <= Y136,4 <= 1
 0 <= Y136,5 <= 1
 0 <= Y136,6 <= 1
 0 <= Y137,0 <= 1
 0 <= Y137,1 <= 1
 0 <= Y137,2 <= 1
 0 <= Y137,3 <= 1
 0 <= Y137,4 <= 1
 0 <= Y137,5 <= 1
 0 <= Y137,6 <= 1
 0 <= Y138,0 <= 1
 0 <= Y138,1 <= 1
 0 <= Y138,2 <= 1
 0 <= Y138,3 <= 1
 0 <= Y138,4 <= 1
 0 <= Y138,5 <= 1
 0 <= Y138,6 <= 1
 0 <= Y139,0 <= 1
 0 <= Y139,1 <= 1
 0 <= Y139,2 <= 1
 0 <= Y139,3 <= 1
 0 <= Y139,4 <= 1
 0 <= Y139,5 <= 1
 0 <= Y139,6 <= 1
 0 <= Y140,0 <= 1
 0 <= Y140,1 <= 1
 0 <= Y140,2 <= 1
 0 <= Y140,3 <= 1
 0 <= Y140,4 <= 1
 0 <= Y140,5 <= 1
 0 <= Y140,6 <= 1
 0 <= Y141,0 <= 1
 0 <= Y141,1 <= 1
 0 <= Y141,2 <= 1
 0 <= Y141,3 <= 1
 0 <= Y141,4 <= 1
 0 <= Y141,5 <= 1
 0 <= Y141,6 <= 1
 0 <= Y142,0 <= 1
 0 <= Y142,1 <= 1
 0 <= Y142,2 <= 1
 0 <= Y142,3 <= 1
 0 <= Y142,4 <= 1
 0 <= Y142,5 <= 1
 0 <= Y142,6 <= 1
 0 <= Y143,0 <= 1
 0 <= Y143,1 <= 1
 0 <= Y143,2 <= 1
 0 <= Y143,3 <= 1
 0 <= Y143,4 <= 1
 0 <= Y143,5 <= 1
 0 <= Y143,6 <= 1
 0 <= Y144,0 <= 1
 0 <= Y144,1 <= 1
 0 <= Y144,2 <= 1
 0 <= Y144,3 <= 1
 0 <= Y144,4 <= 1
 0 <= Y144,5 <= 1
 0 <= Y144,6 <= 1
 0 <= Y145,0 <= 1
 0 <= Y145,1 <= 1
 0 <= Y145,2 <= 1
 0 <= Y145,3 <= 1
 0 <= Y145,4 <= 1
 0 <= Y145,5 <= 1
 0 <= Y145,6 <= 1
 0 <= Y146,0 <= 1
 0 <= Y146,1 <= 1
 0 <= Y146,2 <= 1
 0 <= Y146,3 <= 1
 0 <= Y146,4 <= 1
 0 <= Y146,5 <= 1
 0 <= Y146,6 <= 1
 0 <= Y147,0 <= 1
 0 <= Y147,1 <= 1
 0 <= Y147,2 <= 1
 0 <= Y147,3 <= 1
 0 <= Y147,4 <= 1
 0 <= Y147,5 <= 1
 0 <= Y147,6 <= 1
 0 <= Y148,0 <= 1
 0 <= Y148,1 <= 1
 0 <= Y148,2 <= 1
 0 <= Y148,3 <= 1
 0 <= Y148,4 <= 1
 0 <= Y148,5 <= 1
 0 <= Y148,6 <= 1
 0 <= Y149,0 <= 1
 0 <= Y149,1 <= 1
 0 <= Y149,2 <= 1
 0 <= Y149,3 <= 1
 0 <= Y149,4 <= 1
 0 <= Y149,5 <= 1
 0 <= Y149,6 <= 1
 0 <= Y150,0 <= 1
 0 <= Y150,1 <= 1
 0 <= Y150,2 <= 1
 0 <= Y150,3 <= 1
 0 <= Y150,4 <= 1
 0 <= Y150,5 <= 1
 0 <= Y150,6 <= 1
 0 <= Y151,0 <= 1
 0 <= Y151,1 <= 1
 0 <= Y151,2 <= 1
 0 <= Y151,3 <= 1
 0 <= Y151,4 <= 1
 0 <= Y151,5 <= 1
 0 <= Y151,6 <= 1
 0 <= Y152,0 <= 1
 0 <= Y152,1 <= 1
 0 <= Y152,2 <= 1
 0 <= Y152,3 <= 1
 0 <= Y152,4 <= 1
 0 <= Y152,5 <= 1
 0 <= Y152,6 <= 1
 0 <= Y153,0 <= 1
 0 <= Y153,1 <= 1
 0 <= Y153,2 <= 1
 0 <= Y153,3 <= 1
 0 <= Y153,4 <= 1
 0 <= Y153,5 <= 1
 0 <= Y153,6 <= 1
 0 <= Y154,0 <= 1
 0 <= Y154,1 <= 1
 0 <= Y154,2 <= 1
 0 <= Y154,3 <= 1
 0 <= Y154,4 <= 1
 0 <= Y154,5 <= 1
 0 <= Y154,6 <= 1
 0 <= Y155,0 <= 1
 0 <= Y155,1 <= 1
 0 <= Y155,2 <= 1
 0 <= Y155,3 <= 1
 0 <= Y155,4 <= 1
 0 <= Y155,5 <= 1
 0 <= Y155,6 <= 1
 0 <= Y156,0 <= 1
 0 <= Y156,1 <= 1
 0 <= Y156,2 <= 1
 0 <= Y156,3 <= 1
 0 <= Y156,4 <= 1
 0 <= Y156,5 <= 1
 0 <= Y156,6 <= 1
 0 <= Y157,0 <= 1
 0 <= Y157,1 <= 1
 0 <= Y157,2 <= 1
 0 <= Y157,3 <= 1
 0 <= Y157,4 <= 1
 0 <= Y157,5 <= 1
 0 <= Y157,6 <= 1
 0 <= Y158,0 <= 1
 0 <= Y158,1 <= 1
 0 <= Y158,2 <= 1
 0 <= Y158,3 <= 1
 0 <= Y158,4 <= 1
 0 <= Y158,5 <= 1
 0 <= Y158,6 <= 1
 0 <= Y159,0 <= 1
 0 <= Y159,1 <= 1
 0 <= Y159,2 <= 1
 0 <= Y159,3 <= 1
 0 <= Y159,4 <= 1
 0 <= Y159,5 <= 1
 0 <= Y159,6 <= 1
 0 <= Y160,0 <= 1
 0 <= Y160,1 <= 1
 0 <= Y160,2 <= 1
 0 <= Y160,3 <= 1
 0 <= Y160,4 <= 1
 0 <= Y160,5 <= 1
 0 <= Y160,6 <= 1
 0 <= Y161,0 <= 1
 0 <= Y161,1 <= 1
 0 <= Y161,2 <= 1
 0 <= Y161,3 <= 1
 0 <= Y161,4 <= 1
 0 <= Y161,5 <= 1
 0 <= Y161,6 <= 1
 0 <= Y162,0 <= 1
 0 <= Y162,1 <= 1
 0 <= Y162,2 <= 1
 0 <= Y162,3 <= 1
 0 <= Y162,4 <= 1
 0 <= Y162,5 <= 1
 0 <= Y162,6 <= 1
 0 <= Y163,0 <= 1
 0 <= Y163,1 <= 1
 0 <= Y163,2 <= 1
 0 <= Y163,3 <= 1
 0 <= Y163,4 <= 1
 0 <= Y163,5 <= 1
 0 <= Y163,6 <= 1
 0 <= Y164,0 <= 1
 0 <= Y164,1 <= 1
 0 <= Y164,2 <= 1
 0 <= Y164,3 <= 1
 0 <= Y164,4 <= 1
 0 <= Y164,5 <= 1
 0 <= Y164,6 <= 1
 0 <= Y165,0 <= 1
 0 <= Y165,1 <= 1
 0 <= Y165,2 <= 1
 0 <= Y165,3 <= 1
 0 <= Y165,4 <= 1
 0 <= Y165,5 <= 1
 0 <= Y165,6 <= 1
 0 <= Y166,0 <= 1
 0 <= Y166,1 <= 1
 0 <= Y166,2 <= 1
 0 <= Y166,3 <= 1
 0 <= Y166,4 <= 1
 0 <= Y166,5 <= 1
 0 <= Y166,6 <= 1
 0 <= Y167,0 <= 1
 0 <= Y167,1 <= 1
 0 <= Y167,2 <= 1
 0 <= Y167,3 <= 1
 0 <= Y167,4 <= 1
 0 <= Y167,5 <= 1
 0 <= Y167,6 <= 1
 0 <= Y168,0 <= 1
 0 <= Y168,1 <= 1
 0 <= Y168,2 <= 1
 0 <= Y168,3 <= 1
 0 <= Y168,4 <= 1
 0 <= Y168,5 <= 1
 0 <= Y168,6 <= 1
 0 <= Y169,0 <= 1
 0 <= Y169,1 <= 1
 0 <= Y169,2 <= 1
 0 <= Y169,3 <= 1
 0 <= Y169,4 <= 1
 0 <= Y169,5 <= 1
 0 <= Y169,6 <= 1
 0 <= Y170,0 <= 1
 0 <= Y170,1 <= 1
 0 <= Y170,2 <= 1
 0 <= Y170,3 <= 1
 0 <= Y170,4 <= 1
 0 <= Y170,5 <= 1
 0 <= Y170,6 <= 1
 0 <= Y171,0 <= 1
 0 <= Y171,1 <= 1
 0 <= Y171,2 <= 1
 0 <= Y171,3 <= 1
 0 <= Y171,4 <= 1
 0 <= Y171,5 <= 1
 0 <= Y171,6 <= 1
 0 <= Y172,0 <= 1
 0 <= Y172,1 <= 1
 0 <= Y172,2 <= 1
 0 <= Y172,3 <= 1
 0 <= Y172,4 <= 1
 0 <= Y172,5 <= 1
 0 <= Y172,6 <= 1
 0 <= Y173,0 <= 1
 0 <= Y173,1 <= 1
 0 <= Y173,2 <= 1
 0 <= Y173,3 <= 1
 0 <= Y173,4 <= 1
 0 <= Y173,5 <= 1
 0 <= Y173,6 <= 1
 0 <= Y174,0 <= 1
 0 <= Y174,1 <= 1
 0 <= Y174,2 <= 1
 0 <= Y174,3 <= 1
 0 <= Y174,4 <= 1
 0 <= Y174,5 <= 1
 0 <= Y174,6 <= 1
 0 <= Y175,0 <= 1
 0 <= Y175,1 <= 1
 0 <= Y175,2 <= 1
 0 <= Y175,3 <= 1
 0 <= Y175,4 <= 1
 0 <= Y175,5 <= 1
 0 <= Y175,6 <= 1
 0 <= Y176,0 <= 1
 0 <= Y176,1 <= 1
 0 <= Y176,2 <= 1
 0 <= Y176,3 <= 1
 0 <= Y176,4 <= 1
 0 <= Y176,5 <= 1
 0 <= Y176,6 <= 1
 0 <= Y177,0 <= 1
 0 <= Y177,1 <= 1
 0 <= Y177,2 <= 1
 0 <= Y177,3 <= 1
 0 <= Y177,4 <= 1
 0 <= Y177,5 <= 1
 0 <= Y177,6 <= 1
 0 <= Y178,0 <= 1
 0 <= Y178,1 <= 1
 0 <= Y178,2 <= 1
 0 <= Y178,3 <= 1
 0 <= Y178,4 <= 1
 0 <= Y178,5 <= 1
 0 <= Y178,6 <= 1
 0 <= Y179,0 <= 1
 0 <= Y179,1 <= 1
 0 <= Y179,2 <= 1
 0 <= Y179,3 <= 1
 0 <= Y179,4 <= 1
 0 <= Y179,5 <= 1
 0 <= Y179,6 <= 1
 0 <= Y180,0 <= 1
 0 <= Y180,1 <= 1
 0 <= Y180,2 <= 1
 0 <= Y180,3 <= 1
 0 <= Y180,4 <= 1
 0 <= Y180,5 <= 1
 0 <= Y180,6 <= 1
 0 <= Y181,0 <= 1
 0 <= Y181,1 <= 1
 0 <= Y181,2 <= 1
 0 <= Y181,3 <= 1
 0 <= Y181,4 <= 1
 0 <= Y181,5 <= 1
 0 <= Y181,6 <= 1
 0 <= Y182,0 <= 1
 0 <= Y182,1 <= 1
 0 <= Y182,2 <= 1
 0 <= Y182,3 <= 1
 0 <= Y182,4 <= 1
 0 <= Y182,5 <= 1
 0 <= Y182,6 <= 1
 0 <= Y183,0 <= 1
 0 <= Y183,1 <= 1
 0 <= Y183,2 <= 1
 0 <= Y183,3 <= 1
 0 <= Y183,4 <= 1
 0 <= Y183,5 <= 1
 0 <= Y183,6 <= 1
 0 <= Y184,0 <= 1
 0 <= Y184,1 <= 1
 0 <= Y184,2 <= 1
 0 <= Y184,3 <= 1
 0 <= Y184,4 <= 1
 0 <= Y184,5 <= 1
 0 <= Y184,6 <= 1
 0 <= Y185,0 <= 1
 0 <= Y185,1 <= 1
 0 <= Y185,2 <= 1
 0 <= Y185,3 <= 1
 0 <= Y185,4 <= 1
 0 <= Y185,5 <= 1
 0 <= Y185,6 <= 1
 0 <= Y186,0 <= 1
 0 <= Y186,1 <= 1
 0 <= Y186,2 <= 1
 0 <= Y186,3 <= 1
 0 <= Y186,4 <= 1
 0 <= Y186,5 <= 1
 0 <= Y186,6 <= 1
 0 <= Y187,0 <= 1
 0 <= Y187,1 <= 1
 0 <= Y187,2 <= 1
 0 <= Y187,3 <= 1
 0 <= Y187,4 <= 1
 0 <= Y187,5 <= 1
 0 <= Y187,6 <= 1
 0 <= Y188,0 <= 1
 0 <= Y188,1 <= 1
 0 <= Y188,2 <= 1
 0 <= Y188,3 <= 1
 0 <= Y188,4 <= 1
 0 <= Y188,5 <= 1
 0 <= Y188,6 <= 1
 0 <= Y189,0 <= 1
 0 <= Y189,1 <= 1
 0 <= Y189,2 <= 1
 0 <= Y189,3 <= 1
 0 <= Y189,4 <= 1
 0 <= Y189,5 <= 1
 0 <= Y189,6 <= 1
 0 <= Y190,0 <= 1
 0 <= Y190,1 <= 1
 0 <= Y190,2 <= 1
 0 <= Y190,3 <= 1
 0 <= Y190,4 <= 1
 0 <= Y190,5 <= 1
 0 <= Y190,6 <= 1
 0 <= Y191,0 <= 1
 0 <= Y191,1 <= 1
 0 <= Y191,2 <= 1
 0 <= Y191,3 <= 1
 0 <= Y191,4 <= 1
 0 <= Y191,5 <= 1
 0 <= Y191,6 <= 1
 0 <= Y192,0 <= 1
 0 <= Y192,1 <= 1
 0 <= Y192,2 <= 1
 0 <= Y192,3 <= 1
 0 <= Y192,4 <= 1
 0 <= Y192,5 <= 1
 0 <= Y192,6 <= 1
 0 <= Y193,0 <= 1
 0 <= Y193,1 <= 1
 0 <= Y193,2 <= 1
 0 <= Y193,3 <= 1
 0 <= Y193,4 <= 1
 0 <= Y193,5 <= 1
 0 <= Y193,6 <= 1
 0 <= Y194,0 <= 1
 0 <= Y194,1 <= 1
 0 <= Y194,2 <= 1
 0 <= Y194,3 <= 1
 0 <= Y194,4 <= 1
 0 <= Y194,5 <= 1
 0 <= Y194,6 <= 1
 0 <= Y195,0 <= 1
 0 <= Y195,1 <= 1
 0 <= Y195,2 <= 1
 0 <= Y195,3 <= 1
 0 <= Y195,4 <= 1
 0 <= Y195,5 <= 1
 0 <= Y195,6 <= 1
 0 <= Y196,0 <= 1
 0 <= Y196,1 <= 1
 0 <= Y196,2 <= 1
 0 <= Y196,3 <= 1
 0 <= Y196,4 <= 1
 0 <= Y196,5 <= 1
 0 <= Y196,6 <= 1
 0 <= Y197,0 <= 1
 0 <= Y197,1 <= 1
 0 <= Y197,2 <= 1
 0 <= Y197,3 <= 1
 0 <= Y197,4 <= 1
 0 <= Y197,5 <= 1
 0 <= Y197,6 <= 1
 0 <= Y198,0 <= 1
 0 <= Y198,1 <= 1
 0 <= Y198,2 <= 1
 0 <= Y198,3 <= 1
 0 <= Y198,4 <= 1
 0 <= Y198,5 <= 1
 0 <= Y198,6 <= 1
 0 <= Y199,0 <= 1
 0 <= Y199,1 <= 1
 0 <= Y199,2 <= 1
 0 <= Y199,3 <= 1
 0 <= Y199,4 <= 1
 0 <= Y199,5 <= 1
 0 <= Y199,6 <= 1
 0 <= Y200,0 <= 1
 0 <= Y200,1 <= 1
 0 <= Y200,2 <= 1
 0 <= Y200,3 <= 1
 0 <= Y200,4 <= 1
 0 <= Y200,5 <= 1
 0 <= Y200,6 <= 1
 0 <= Y201,0 <= 1
 0 <= Y201,1 <= 1
 0 <= Y201,2 <= 1
 0 <= Y201,3 <= 1
 0 <= Y201,4 <= 1
 0 <= Y201,5 <= 1
 0 <= Y201,6 <= 1
 0 <= Y202,0 <= 1
 0 <= Y202,1 <= 1
 0 <= Y202,2 <= 1
 0 <= Y202,3 <= 1
 0 <= Y202,4 <= 1
 0 <= Y202,5 <= 1
 0 <= Y202,6 <= 1
 0 <= Y203,0 <= 1
 0 <= Y203,1 <= 1
 0 <= Y203,2 <= 1
 0 <= Y203,3 <= 1
 0 <= Y203,4 <= 1
 0 <= Y203,5 <= 1
 0 <= Y203,6 <= 1
 0 <= Y204,0 <= 1
 0 <= Y204,1 <= 1
 0 <= Y204,2 <= 1
 0 <= Y204,3 <= 1
 0 <= Y204,4 <= 1
 0 <= Y204,5 <= 1
 0 <= Y204,6 <= 1
 0 <= Y205,0 <= 1
 0 <= Y205,1 <= 1
 0 <= Y205,2 <= 1
 0 <= Y205,3 <= 1
 0 <= Y205,4 <= 1
 0 <= Y205,5 <= 1
 0 <= Y205,6 <= 1
 0 <= Y206,0 <= 1
 0 <= Y206,1 <= 1
 0 <= Y206,2 <= 1
 0 <= Y206,3 <= 1
 0 <= Y206,4 <= 1
 0 <= Y206,5 <= 1
 0 <= Y206,6 <= 1
 0 <= Y207,0 <= 1
 0 <= Y207,1 <= 1
 0 <= Y207,2 <= 1
 0 <= Y207,3 <= 1
 0 <= Y207,4 <= 1
 0 <= Y207,5 <= 1
 0 <= Y207,6 <= 1
 0 <= Y208,0 <= 1
 0 <= Y208,1 <= 1
 0 <= Y208,2 <= 1
 0 <= Y208,3 <= 1
 0 <= Y208,4 <= 1
 0 <= Y208,5 <= 1
 0 <= Y208,6 <= 1
 0 <= Y209,0 <= 1
 0 <= Y209,1 <= 1
 0 <= Y209,2 <= 1
 0 <= Y209,3 <= 1
 0 <= Y209,4 <= 1
 0 <= Y209,5 <= 1
 0 <= Y209,6 <= 1
 0 <= Y210,0 <= 1
 0 <= Y210,1 <= 1
 0 <= Y210,2 <= 1
 0 <= Y210,3 <= 1
 0 <= Y210,4 <= 1
 0 <= Y210,5 <= 1
 0 <= Y210,6 <= 1
 0 <= Y211,0 <= 1
 0 <= Y211,1 <= 1
 0 <= Y211,2 <= 1
 0 <= Y211,3 <= 1
 0 <= Y211,4 <= 1
 0 <= Y211,5 <= 1
 0 <= Y211,6 <= 1
 0 <= Y212,0 <= 1
 0 <= Y212,1 <= 1
 0 <= Y212,2 <= 1
 0 <= Y212,3 <= 1
 0 <= Y212,4 <= 1
 0 <= Y212,5 <= 1
 0 <= Y212,6 <= 1
 0 <= Y213,0 <= 1
 0 <= Y213,1 <= 1
 0 <= Y213,2 <= 1
 0 <= Y213,3 <= 1
 0 <= Y213,4 <= 1
 0 <= Y213,5 <= 1
 0 <= Y213,6 <= 1
 0 <= Y214,0 <= 1
 0 <= Y214,1 <= 1
 0 <= Y214,2 <= 1
 0 <= Y214,3 <= 1
 0 <= Y214,4 <= 1
 0 <= Y214,5 <= 1
 0 <= Y214,6 <= 1
 0 <= Y215,0 <= 1
 0 <= Y215,1 <= 1
 0 <= Y215,2 <= 1
 0 <= Y215,3 <= 1
 0 <= Y215,4 <= 1
 0 <= Y215,5 <= 1
 0 <= Y215,6 <= 1
 0 <= Y216,0 <= 1
 0 <= Y216,1 <= 1
 0 <= Y216,2 <= 1
 0 <= Y216,3 <= 1
 0 <= Y216,4 <= 1
 0 <= Y216,5 <= 1
 0 <= Y216,6 <= 1
 0 <= Y217,0 <= 1
 0 <= Y217,1 <= 1
 0 <= Y217,2 <= 1
 0 <= Y217,3 <= 1
 0 <= Y217,4 <= 1
 0 <= Y217,5 <= 1
 0 <= Y217,6 <= 1
 0 <= Y218,0 <= 1
 0 <= Y218,1 <= 1
 0 <= Y218,2 <= 1
 0 <= Y218,3 <= 1
 0 <= Y218,4 <= 1
 0 <= Y218,5 <= 1
 0 <= Y218,6 <= 1
 0 <= Y219,0 <= 1
 0 <= Y219,1 <= 1
 0 <= Y219,2 <= 1
 0 <= Y219,3 <= 1
 0 <= Y219,4 <= 1
 0 <= Y219,5 <= 1
 0 <= Y219,6 <= 1
 0 <= Y220,0 <= 1
 0 <= Y220,1 <= 1
 0 <= Y220,2 <= 1
 0 <= Y220,3 <= 1
 0 <= Y220,4 <= 1
 0 <= Y220,5 <= 1
 0 <= Y220,6 <= 1
 0 <= Y221,0 <= 1
 0 <= Y221,1 <= 1
 0 <= Y221,2 <= 1
 0 <= Y221,3 <= 1
 0 <= Y221,4 <= 1
 0 <= Y221,5 <= 1
 0 <= Y221,6 <= 1
 0 <= Y222,0 <= 1
 0 <= Y222,1 <= 1
 0 <= Y222,2 <= 1
 0 <= Y222,3 <= 1
 0 <= Y222,4 <= 1
 0 <= Y222,5 <= 1
 0 <= Y222,6 <= 1
 0 <= Y223,0 <= 1
 0 <= Y223,1 <= 1
 0 <= Y223,2 <= 1
 0 <= Y223,3 <= 1
 0 <= Y223,4 <= 1
 0 <= Y223,5 <= 1
 0 <= Y223,6 <= 1
 0 <= Y224,0 <= 1
 0 <= Y224,1 <= 1
 0 <= Y224,2 <= 1
 0 <= Y224,3 <= 1
 0 <= Y224,4 <= 1
 0 <= Y224,5 <= 1
 0 <= Y224,6 <= 1
 0 <= Y225,0 <= 1
 0 <= Y225,1 <= 1
 0 <= Y225,2 <= 1
 0 <= Y225,3 <= 1
 0 <= Y225,4 <= 1
 0 <= Y225,5 <= 1
 0 <= Y225,6 <= 1
 0 <= Y226,0 <= 1
 0 <= Y226,1 <= 1
 0 <= Y226,2 <= 1
 0 <= Y226,3 <= 1
 0 <= Y226,4 <= 1
 0 <= Y226,5 <= 1
 0 <= Y226,6 <= 1
 0 <= Y227,0 <= 1
 0 <= Y227,1 <= 1
 0 <= Y227,2 <= 1
 0 <= Y227,3 <= 1
 0 <= Y227,4 <= 1
 0 <= Y227,5 <= 1
 0 <= Y227,6 <= 1
 0 <= Y228,0 <= 1
 0 <= Y228,1 <= 1
 0 <= Y228,2 <= 1
 0 <= Y228,3 <= 1
 0 <= Y228,4 <= 1
 0 <= Y228,5 <= 1
 0 <= Y228,6 <= 1
 0 <= Y229,0 <= 1
 0 <= Y229,1 <= 1
 0 <= Y229,2 <= 1
 0 <= Y229,3 <= 1
 0 <= Y229,4 <= 1
 0 <= Y229,5 <= 1
 0 <= Y229,6 <= 1
 0 <= Y230,0 <= 1
 0 <= Y230,1 <= 1
 0 <= Y230,2 <= 1
 0 <= Y230,3 <= 1
 0 <= Y230,4 <= 1
 0 <= Y230,5 <= 1
 0 <= Y230,6 <= 1
 0 <= Y231,0 <= 1
 0 <= Y231,1 <= 1
 0 <= Y231,2 <= 1
 0 <= Y231,3 <= 1
 0 <= Y231,4 <= 1
 0 <= Y231,5 <= 1
 0 <= Y231,6 <= 1
 0 <= Y232,0 <= 1
 0 <= Y232,1 <= 1
 0 <= Y232,2 <= 1
 0 <= Y232,3 <= 1
 0 <= Y232,4 <= 1
 0 <= Y232,5 <= 1
 0 <= Y232,6 <= 1
 0 <= Y233,0 <= 1
 0 <= Y233,1 <= 1
 0 <= Y233,2 <= 1
 0 <= Y233,3 <= 1
 0 <= Y233,4 <= 1
 0 <= Y233,5 <= 1
 0 <= Y233,6 <= 1
 0 <= Y234,0 <= 1
 0 <= Y234,1 <= 1
 0 <= Y234,2 <= 1
 0 <= Y234,3 <= 1
 0 <= Y234,4 <= 1
 0 <= Y234,5 <= 1
 0 <= Y234,6 <= 1
 0 <= Y235,0 <= 1
 0 <= Y235,1 <= 1
 0 <= Y235,2 <= 1
 0 <= Y235,3 <= 1
 0 <= Y235,4 <= 1
 0 <= Y235,5 <= 1
 0 <= Y235,6 <= 1
 0 <= Y236,0 <= 1
 0 <= Y236,1 <= 1
 0 <= Y236,2 <= 1
 0 <= Y236,3 <= 1
 0 <= Y236,4 <= 1
 0 <= Y236,5 <= 1
 0 <= Y236,6 <= 1
 0 <= Y237,0 <= 1
 0 <= Y237,1 <= 1
 0 <= Y237,2 <= 1
 0 <= Y237,3 <= 1
 0 <= Y237,4 <= 1
 0 <= Y237,5 <= 1
 0 <= Y237,6 <= 1
 0 <= Y238,0 <= 1
 0 <= Y238,1 <= 1
 0 <= Y238,2 <= 1
 0 <= Y238,3 <= 1
 0 <= Y238,4 <= 1
 0 <= Y238,5 <= 1
 0 <= Y238,6 <= 1
 0 <= Y239,0 <= 1
 0 <= Y239,1 <= 1
 0 <= Y239,2 <= 1
 0 <= Y239,3 <= 1
 0 <= Y239,4 <= 1
 0 <= Y239,5 <= 1
 0 <= Y239,6 <= 1
 0 <= Y240,0 <= 1
 0 <= Y240,1 <= 1
 0 <= Y240,2 <= 1
 0 <= Y240,3 <= 1
 0 <= Y240,4 <= 1
 0 <= Y240,5 <= 1
 0 <= Y240,6 <= 1
 0 <= Y241,0 <= 1
 0 <= Y241,1 <= 1
 0 <= Y241,2 <= 1
 0 <= Y241,3 <= 1
 0 <= Y241,4 <= 1
 0 <= Y241,5 <= 1
 0 <= Y241,6 <= 1
 0 <= Y242,0 <= 1
 0 <= Y242,1 <= 1
 0 <= Y242,2 <= 1
 0 <= Y242,3 <= 1
 0 <= Y242,4 <= 1
 0 <= Y242,5 <= 1
 0 <= Y242,6 <= 1
 0 <= Y243,0 <= 1
 0 <= Y243,1 <= 1
 0 <= Y243,2 <= 1
 0 <= Y243,3 <= 1
 0 <= Y243,4 <= 1
 0 <= Y243,5 <= 1
 0 <= Y243,6 <= 1
 0 <= Y244,0 <= 1
 0 <= Y244,1 <= 1
 0 <= Y244,2 <= 1
 0 <= Y244,3 <= 1
 0 <= Y244,4 <= 1
 0 <= Y244,5 <= 1
 0 <= Y244,6 <= 1
 0 <= Y245,0 <= 1
 0 <= Y245,1 <= 1
 0 <= Y245,2 <= 1
 0 <= Y245,3 <= 1
 0 <= Y245,4 <= 1
 0 <= Y245,5 <= 1
 0 <= Y245,6 <= 1
 0 <= Y246,0 <= 1
 0 <= Y246,1 <= 1
 0 <= Y246,2 <= 1
 0 <= Y246,3 <= 1
 0 <= Y246,4 <= 1
 0 <= Y246,5 <= 1
 0 <= Y246,6 <= 1
 0 <= Y247,0 <= 1
 0 <= Y247,1 <= 1
 0 <= Y247,2 <= 1
 0 <= Y247,3 <= 1
 0 <= Y247,4 <= 1
 0 <= Y247,5 <= 1
 0 <= Y247,6 <= 1
 0 <= Y248,0 <= 1
 0 <= Y248,1 <= 1
 0 <= Y248,2 <= 1
 0 <= Y248,3 <= 1
 0 <= Y248,4 <= 1
 0 <= Y248,5 <= 1
 0 <= Y248,6 <= 1
 0 <= Y249,0 <= 1
 0 <= Y249,1 <= 1
 0 <= Y249,2 <= 1
 0 <= Y249,3 <= 1
 0 <= Y249,4 <= 1
 0 <= Y249,5 <= 1
 0 <= Y249,6 <= 1
 0 <= Y250,0 <= 1
 0 <= Y250,1 <= 1
 0 <= Y250,2 <= 1
 0 <= Y250,3 <= 1
 0 <= Y250,4 <= 1
 0 <= Y250,5 <= 1
 0 <= Y250,6 <= 1
 0 <= Y251,0 <= 1
 0 <= Y251,1 <= 1
 0 <= Y251,2 <= 1
 0 <= Y251,3 <= 1
 0 <= Y251,4 <= 1
 0 <= Y251,5 <= 1
 0 <= Y251,6 <= 1
 0 <= Y252,0 <= 1
 0 <= Y252,1 <= 1
 0 <= Y252,2 <= 1
 0 <= Y252,3 <= 1
 0 <= Y252,4 <= 1
 0 <= Y252,5 <= 1
 0 <= Y252,6 <= 1
 0 <= Y253,0 <= 1
 0 <= Y253,1 <= 1
 0 <= Y253,2 <= 1
 0 <= Y253,3 <= 1
 0 <= Y253,4 <= 1
 0 <= Y253,5 <= 1
 0 <= Y253,6 <= 1
 0 <= Y254,0 <= 1
 0 <= Y254,1 <= 1
 0 <= Y254,2 <= 1
 0 <= Y254,3 <= 1
 0 <= Y254,4 <= 1
 0 <= Y254,5 <= 1
 0 <= Y254,6 <= 1
 0 <= Y255,0 <= 1
 0 <= Y255,1 <= 1
 0 <= Y255,2 <= 1
 0 <= Y255,3 <= 1
 0 <= Y255,4 <= 1
 0 <= Y255,5 <= 1
 0 <= Y255,6 <= 1
 0 <= Y256,0 <= 1
 0 <= Y256,1 <= 1
 0 <= Y256,2 <= 1
 0 <= Y256,3 <= 1
 0 <= Y256,4 <= 1
 0 <= Y256,5 <= 1
 0 <= Y256,6 <= 1
 0 <= Y257,0 <= 1
 0 <= Y257,1 <= 1
 0 <= Y257,2 <= 1
 0 <= Y257,3 <= 1
 0 <= Y257,4 <= 1
 0 <= Y257,5 <= 1
 0 <= Y257,6 <= 1
 0 <= Y258,0 <= 1
 0 <= Y258,1 <= 1
 0 <= Y258,2 <= 1
 0 <= Y258,3 <= 1
 0 <= Y258,4 <= 1
 0 <= Y258,5 <= 1
 0 <= Y258,6 <= 1
 0 <= Y259,0 <= 1
 0 <= Y259,1 <= 1
 0 <= Y259,2 <= 1
 0 <= Y259,3 <= 1
 0 <= Y259,4 <= 1
 0 <= Y259,5 <= 1
 0 <= Y259,6 <= 1
 0 <= Y260,0 <= 1
 0 <= Y260,1 <= 1
 0 <= Y260,2 <= 1
 0 <= Y260,3 <= 1
 0 <= Y260,4 <= 1
 0 <= Y260,5 <= 1
 0 <= Y260,6 <= 1
 0 <= Y261,0 <= 1
 0 <= Y261,1 <= 1
 0 <= Y261,2 <= 1
 0 <= Y261,3 <= 1
 0 <= Y261,4 <= 1
 0 <= Y261,5 <= 1
 0 <= Y261,6 <= 1
 0 <= Y262,0 <= 1
 0 <= Y262,1 <= 1
 0 <= Y262,2 <= 1
 0 <= Y262,3 <= 1
 0 <= Y262,4 <= 1
 0 <= Y262,5 <= 1
 0 <= Y262,6 <= 1
 0 <= Y263,0 <= 1
 0 <= Y263,1 <= 1
 0 <= Y263,2 <= 1
 0 <= Y263,3 <= 1
 0 <= Y263,4 <= 1
 0 <= Y263,5 <= 1
 0 <= Y263,6 <= 1
 0 <= Y264,0 <= 1
 0 <= Y264,1 <= 1
 0 <= Y264,2 <= 1
 0 <= Y264,3 <= 1
 0 <= Y264,4 <= 1
 0 <= Y264,5 <= 1
 0 <= Y264,6 <= 1
 0 <= Y265,0 <= 1
 0 <= Y265,1 <= 1
 0 <= Y265,2 <= 1
 0 <= Y265,3 <= 1
 0 <= Y265,4 <= 1
 0 <= Y265,5 <= 1
 0 <= Y265,6 <= 1
 0 <= Y266,0 <= 1
 0 <= Y266,1 <= 1
 0 <= Y266,2 <= 1
 0 <= Y266,3 <= 1
 0 <= Y266,4 <= 1
 0 <= Y266,5 <= 1
 0 <= Y266,6 <= 1
 0 <= Y267,0 <= 1
 0 <= Y267,1 <= 1
 0 <= Y267,2 <= 1
 0 <= Y267,3 <= 1
 0 <= Y267,4 <= 1
 0 <= Y267,5 <= 1
 0 <= Y267,6 <= 1
 0 <= Y268,0 <= 1
 0 <= Y268,1 <= 1
 0 <= Y268,2 <= 1
 0 <= Y268,3 <= 1
 0 <= Y268,4 <= 1
 0 <= Y268,5 <= 1
 0 <= Y268,6 <= 1
 0 <= Y269,0 <= 1
 0 <= Y269,1 <= 1
 0 <= Y269,2 <= 1
 0 <= Y269,3 <= 1
 0 <= Y269,4 <= 1
 0 <= Y269,5 <= 1
 0 <= Y269,6 <= 1
 0 <= Y270,0 <= 1
 0 <= Y270,1 <= 1
 0 <= Y270,2 <= 1
 0 <= Y270,3 <= 1
 0 <= Y270,4 <= 1
 0 <= Y270,5 <= 1
 0 <= Y270,6 <= 1
 0 <= Y271,0 <= 1
 0 <= Y271,1 <= 1
 0 <= Y271,2 <= 1
 0 <= Y271,3 <= 1
 0 <= Y271,4 <= 1
 0 <= Y271,5 <= 1
 0 <= Y271,6 <= 1
 0 <= Y272,0 <= 1
 0 <= Y272,1 <= 1
 0 <= Y272,2 <= 1
 0 <= Y272,3 <= 1
 0 <= Y272,4 <= 1
 0 <= Y272,5 <= 1
 0 <= Y272,6 <= 1
 0 <= Y273,0 <= 1
 0 <= Y273,1 <= 1
 0 <= Y273,2 <= 1
 0 <= Y273,3 <= 1
 0 <= Y273,4 <= 1
 0 <= Y273,5 <= 1
 0 <= Y273,6 <= 1
 0 <= Y274,0 <= 1
 0 <= Y274,1 <= 1
 0 <= Y274,2 <= 1
 0 <= Y274,3 <= 1
 0 <= Y274,4 <= 1
 0 <= Y274,5 <= 1
 0 <= Y274,6 <= 1
 0 <= Y275,0 <= 1
 0 <= Y275,1 <= 1
 0 <= Y275,2 <= 1
 0 <= Y275,3 <= 1
 0 <= Y275,4 <= 1
 0 <= Y275,5 <= 1
 0 <= Y275,6 <= 1
 0 <= Y276,0 <= 1
 0 <= Y276,1 <= 1
 0 <= Y276,2 <= 1
 0 <= Y276,3 <= 1
 0 <= Y276,4 <= 1
 0 <= Y276,5 <= 1
 0 <= Y276,6 <= 1
 0 <= Y277,0 <= 1
 0 <= Y277,1 <= 1
 0 <= Y277,2 <= 1
 0 <= Y277,3 <= 1
 0 <= Y277,4 <= 1
 0 <= Y277,5 <= 1
 0 <= Y277,6 <= 1
 0 <= Y278,0 <= 1
 0 <= Y278,1 <= 1
 0 <= Y278,2 <= 1
 0 <= Y278,3 <= 1
 0 <= Y278,4 <= 1
 0 <= Y278,5 <= 1
 0 <= Y278,6 <= 1
 0 <= Y279,0 <= 1
 0 <= Y279,1 <= 1
 0 <= Y279,2 <= 1
 0 <= Y279,3 <= 1
 0 <= Y279,4 <= 1
 0 <= Y279,5 <= 1
 0 <= Y279,6 <= 1
 0 <= Y280,0 <= 1
 0 <= Y280,1 <= 1
 0 <= Y280,2 <= 1
 0 <= Y280,3 <= 1
 0 <= Y280,4 <= 1
 0 <= Y280,5 <= 1
 0 <= Y280,6 <= 1
 0 <= Y281,0 <= 1
 0 <= Y281,1 <= 1
 0 <= Y281,2 <= 1
 0 <= Y281,3 <= 1
 0 <= Y281,4 <= 1
 0 <= Y281,5 <= 1
 0 <= Y281,6 <= 1
 0 <= Y282,0 <= 1
 0 <= Y282,1 <= 1
 0 <= Y282,2 <= 1
 0 <= Y282,3 <= 1
 0 <= Y282,4 <= 1
 0 <= Y282,5 <= 1
 0 <= Y282,6 <= 1
 0 <= Y283,0 <= 1
 0 <= Y283,1 <= 1
 0 <= Y283,2 <= 1
 0 <= Y283,3 <= 1
 0 <= Y283,4 <= 1
 0 <= Y283,5 <= 1
 0 <= Y283,6 <= 1
 0 <= Y284,0 <= 1
 0 <= Y284,1 <= 1
 0 <= Y284,2 <= 1
 0 <= Y284,3 <= 1
 0 <= Y284,4 <= 1
 0 <= Y284,5 <= 1
 0 <= Y284,6 <= 1
 0 <= Y285,0 <= 1
 0 <= Y285,1 <= 1
 0 <= Y285,2 <= 1
 0 <= Y285,3 <= 1
 0 <= Y285,4 <= 1
 0 <= Y285,5 <= 1
 0 <= Y285,6 <= 1
 0 <= Y286,0 <= 1
 0 <= Y286,1 <= 1
 0 <= Y286,2 <= 1
 0 <= Y286,3 <= 1
 0 <= Y286,4 <= 1
 0 <= Y286,5 <= 1
 0 <= Y286,6 <= 1
 0 <= Y287,0 <= 1
 0 <= Y287,1 <= 1
 0 <= Y287,2 <= 1
 0 <= Y287,3 <= 1
 0 <= Y287,4 <= 1
 0 <= Y287,5 <= 1
 0 <= Y287,6 <= 1
 0 <= Y288,0 <= 1
 0 <= Y288,1 <= 1
 0 <= Y288,2 <= 1
 0 <= Y288,3 <= 1
 0 <= Y288,4 <= 1
 0 <= Y288,5 <= 1
 0 <= Y288,6 <= 1
 0 <= Y289,0 <= 1
 0 <= Y289,1 <= 1
 0 <= Y289,2 <= 1
 0 <= Y289,3 <= 1
 0 <= Y289,4 <= 1
 0 <= Y289,5 <= 1
 0 <= Y289,6 <= 1
 0 <= Y290,0 <= 1
 0 <= Y290,1 <= 1
 0 <= Y290,2 <= 1
 0 <= Y290,3 <= 1
 0 <= Y290,4 <= 1
 0 <= Y290,5 <= 1
 0 <= Y290,6 <= 1
 0 <= Y291,0 <= 1
 0 <= Y291,1 <= 1
 0 <= Y291,2 <= 1
 0 <= Y291,3 <= 1
 0 <= Y291,4 <= 1
 0 <= Y291,5 <= 1
 0 <= Y291,6 <= 1
 0 <= Y292,0 <= 1
 0 <= Y292,1 <= 1
 0 <= Y292,2 <= 1
 0 <= Y292,3 <= 1
 0 <= Y292,4 <= 1
 0 <= Y292,5 <= 1
 0 <= Y292,6 <= 1
 0 <= Y293,0 <= 1
 0 <= Y293,1 <= 1
 0 <= Y293,2 <= 1
 0 <= Y293,3 <= 1
 0 <= Y293,4 <= 1
 0 <= Y293,5 <= 1
 0 <= Y293,6 <= 1
 0 <= Y294,0 <= 1
 0 <= Y294,1 <= 1
 0 <= Y294,2 <= 1
 0 <= Y294,3 <= 1
 0 <= Y294,4 <= 1
 0 <= Y294,5 <= 1
 0 <= Y294,6 <= 1
 0 <= Y295,0 <= 1
 0 <= Y295,1 <= 1
 0 <= Y295,2 <= 1
 0 <= Y295,3 <= 1
 0 <= Y295,4 <= 1
 0 <= Y295,5 <= 1
 0 <= Y295,6 <= 1
 0 <= Y296,0 <= 1
 0 <= Y296,1 <= 1
 0 <= Y296,2 <= 1
 0 <= Y296,3 <= 1
 0 <= Y296,4 <= 1
 0 <= Y296,5 <= 1
 0 <= Y296,6 <= 1
 0 <= Y297,0 <= 1
 0 <= Y297,1 <= 1
 0 <= Y297,2 <= 1
 0 <= Y297,3 <= 1
 0 <= Y297,4 <= 1
 0 <= Y297,5 <= 1
 0 <= Y297,6 <= 1
 0 <= Y298,0 <= 1
 0 <= Y298,1 <= 1
 0 <= Y298,2 <= 1
 0 <= Y298,3 <= 1
 0 <= Y298,4 <= 1
 0 <= Y298,5 <= 1
 0 <= Y298,6 <= 1
 0 <= Y299,0 <= 1
 0 <= Y299,1 <= 1
 0 <= Y299,2 <= 1
 0 <= Y299,3 <= 1
 0 <= Y299,4 <= 1
 0 <= Y299,5 <= 1
 0 <= Y299,6 <= 1
 0 <= Y300,0 <= 1
 0 <= Y300,1 <= 1
 0 <= Y300,2 <= 1
 0 <= Y300,3 <= 1
 0 <= Y300,4 <= 1
 0 <= Y300,5 <= 1
 0 <= Y300,6 <= 1
 0 <= Y301,0 <= 1
 0 <= Y301,1 <= 1
 0 <= Y301,2 <= 1
 0 <= Y301,3 <= 1
 0 <= Y301,4 <= 1
 0 <= Y301,5 <= 1
 0 <= Y301,6 <= 1
 0 <= Y302,0 <= 1
 0 <= Y302,1 <= 1
 0 <= Y302,2 <= 1
 0 <= Y302,3 <= 1
 0 <= Y302,4 <= 1
 0 <= Y302,5 <= 1
 0 <= Y302,6 <= 1
 0 <= Y303,0 <= 1
 0 <= Y303,1 <= 1
 0 <= Y303,2 <= 1
 0 <= Y303,3 <= 1
 0 <= Y303,4 <= 1
 0 <= Y303,5 <= 1
 0 <= Y303,6 <= 1
 0 <= Y304,0 <= 1
 0 <= Y304,1 <= 1
 0 <= Y304,2 <= 1
 0 <= Y304,3 <= 1
 0 <= Y304,4 <= 1
 0 <= Y304,5 <= 1
 0 <= Y304,6 <= 1
 0 <= Y305,0 <= 1
 0 <= Y305,1 <= 1
 0 <= Y305,2 <= 1
 0 <= Y305,3 <= 1
 0 <= Y305,4 <= 1
 0 <= Y305,5 <= 1
 0 <= Y305,6 <= 1
 0 <= Y306,0 <= 1
 0 <= Y306,1 <= 1
 0 <= Y306,2 <= 1
 0 <= Y306,3 <= 1
 0 <= Y306,4 <= 1
 0 <= Y306,5 <= 1
 0 <= Y306,6 <= 1
 0 <= Y307,0 <= 1
 0 <= Y307,1 <= 1
 0 <= Y307,2 <= 1
 0 <= Y307,3 <= 1
 0 <= Y307,4 <= 1
 0 <= Y307,5 <= 1
 0 <= Y307,6 <= 1
 0 <= Y308,0 <= 1
 0 <= Y308,1 <= 1
 0 <= Y308,2 <= 1
 0 <= Y308,3 <= 1
 0 <= Y308,4 <= 1
 0 <= Y308,5 <= 1
 0 <= Y308,6 <= 1
 0 <= Y309,0 <= 1
 0 <= Y309,1 <= 1
 0 <= Y309,2 <= 1
 0 <= Y309,3 <= 1
 0 <= Y309,4 <= 1
 0 <= Y309,5 <= 1
 0 <= Y309,6 <= 1
 0 <= Y310,0 <= 1
 0 <= Y310,1 <= 1
 0 <= Y310,2 <= 1
 0 <= Y310,3 <= 1
 0 <= Y310,4 <= 1
 0 <= Y310,5 <= 1
 0 <= Y310,6 <= 1
 0 <= Y311,0 <= 1
 0 <= Y311,1 <= 1
 0 <= Y311,2 <= 1
 0 <= Y311,3 <= 1
 0 <= Y311,4 <= 1
 0 <= Y311,5 <= 1
 0 <= Y311,6 <= 1
 0 <= Y312,0 <= 1
 0 <= Y312,1 <= 1
 0 <= Y312,2 <= 1
 0 <= Y312,3 <= 1
 0 <= Y312,4 <= 1
 0 <= Y312,5 <= 1
 0 <= Y312,6 <= 1
 0 <= Y313,0 <= 1
 0 <= Y313,1 <= 1
 0 <= Y313,2 <= 1
 0 <= Y313,3 <= 1
 0 <= Y313,4 <= 1
 0 <= Y313,5 <= 1
 0 <= Y313,6 <= 1
 0 <= Y314,0 <= 1
 0 <= Y314,1 <= 1
 0 <= Y314,2 <= 1
 0 <= Y314,3 <= 1
 0 <= Y314,4 <= 1
 0 <= Y314,5 <= 1
 0 <= Y314,6 <= 1
 0 <= Y315,0 <= 1
 0 <= Y315,1 <= 1
 0 <= Y315,2 <= 1
 0 <= Y315,3 <= 1
 0 <= Y315,4 <= 1
 0 <= Y315,5 <= 1
 0 <= Y315,6 <= 1
 0 <= Y316,0 <= 1
 0 <= Y316,1 <= 1
 0 <= Y316,2 <= 1
 0 <= Y316,3 <= 1
 0 <= Y316,4 <= 1
 0 <= Y316,5 <= 1
 0 <= Y316,6 <= 1
 0 <= Y317,0 <= 1
 0 <= Y317,1 <= 1
 0 <= Y317,2 <= 1
 0 <= Y317,3 <= 1
 0 <= Y317,4 <= 1
 0 <= Y317,5 <= 1
 0 <= Y317,6 <= 1
 0 <= Y318,0 <= 1
 0 <= Y318,1 <= 1
 0 <= Y318,2 <= 1
 0 <= Y318,3 <= 1
 0 <= Y318,4 <= 1
 0 <= Y318,5 <= 1
 0 <= Y318,6 <= 1
 0 <= Y319,0 <= 1
 0 <= Y319,1 <= 1
 0 <= Y319,2 <= 1
 0 <= Y319,3 <= 1
 0 <= Y319,4 <= 1
 0 <= Y319,5 <= 1
 0 <= Y319,6 <= 1
 0 <= Y320,0 <= 1
 0 <= Y320,1 <= 1
 0 <= Y320,2 <= 1
 0 <= Y320,3 <= 1
 0 <= Y320,4 <= 1
 0 <= Y320,5 <= 1
 0 <= Y320,6 <= 1
 0 <= Y321,0 <= 1
 0 <= Y321,1 <= 1
 0 <= Y321,2 <= 1
 0 <= Y321,3 <= 1
 0 <= Y321,4 <= 1
 0 <= Y321,5 <= 1
 0 <= Y321,6 <= 1
 0 <= Y322,0 <= 1
 0 <= Y322,1 <= 1
 0 <= Y322,2 <= 1
 0 <= Y322,3 <= 1
 0 <= Y322,4 <= 1
 0 <= Y322,5 <= 1
 0 <= Y322,6 <= 1
 0 <= Y323,0 <= 1
 0 <= Y323,1 <= 1
 0 <= Y323,2 <= 1
 0 <= Y323,3 <= 1
 0 <= Y323,4 <= 1
 0 <= Y323,5 <= 1
 0 <= Y323,6 <= 1
 0 <= Y324,0 <= 1
 0 <= Y324,1 <= 1
 0 <= Y324,2 <= 1
 0 <= Y324,3 <= 1
 0 <= Y324,4 <= 1
 0 <= Y324,5 <= 1
 0 <= Y324,6 <= 1
 0 <= Y325,0 <= 1
 0 <= Y325,1 <= 1
 0 <= Y325,2 <= 1
 0 <= Y325,3 <= 1
 0 <= Y325,4 <= 1
 0 <= Y325,5 <= 1
 0 <= Y325,6 <= 1
 0 <= Y326,0 <= 1
 0 <= Y326,1 <= 1
 0 <= Y326,2 <= 1
 0 <= Y326,3 <= 1
 0 <= Y326,4 <= 1
 0 <= Y326,5 <= 1
 0 <= Y326,6 <= 1
 0 <= Y327,0 <= 1
 0 <= Y327,1 <= 1
 0 <= Y327,2 <= 1
 0 <= Y327,3 <= 1
 0 <= Y327,4 <= 1
 0 <= Y327,5 <= 1
 0 <= Y327,6 <= 1
 0 <= Y328,0 <= 1
 0 <= Y328,1 <= 1
 0 <= Y328,2 <= 1
 0 <= Y328,3 <= 1
 0 <= Y328,4 <= 1
 0 <= Y328,5 <= 1
 0 <= Y328,6 <= 1
 0 <= Y329,0 <= 1
 0 <= Y329,1 <= 1
 0 <= Y329,2 <= 1
 0 <= Y329,3 <= 1
 0 <= Y329,4 <= 1
 0 <= Y329,5 <= 1
 0 <= Y329,6 <= 1
 0 <= Y330,0 <= 1
 0 <= Y330,1 <= 1
 0 <= Y330,2 <= 1
 0 <= Y330,3 <= 1
 0 <= Y330,4 <= 1
 0 <= Y330,5 <= 1
 0 <= Y330,6 <= 1
 0 <= Y331,0 <= 1
 0 <= Y331,1 <= 1
 0 <= Y331,2 <= 1
 0 <= Y331,3 <= 1
 0 <= Y331,4 <= 1
 0 <= Y331,5 <= 1
 0 <= Y331,6 <= 1
 0 <= Y332,0 <= 1
 0 <= Y332,1 <= 1
 0 <= Y332,2 <= 1
 0 <= Y332,3 <= 1
 0 <= Y332,4 <= 1
 0 <= Y332,5 <= 1
 0 <= Y332,6 <= 1
 0 <= Y333,0 <= 1
 0 <= Y333,1 <= 1
 0 <= Y333,2 <= 1
 0 <= Y333,3 <= 1
 0 <= Y333,4 <= 1
 0 <= Y333,5 <= 1
 0 <= Y333,6 <= 1
 0 <= Y334,0 <= 1
 0 <= Y334,1 <= 1
 0 <= Y334,2 <= 1
 0 <= Y334,3 <= 1
 0 <= Y334,4 <= 1
 0 <= Y334,5 <= 1
 0 <= Y334,6 <= 1
 0 <= Y335,0 <= 1
 0 <= Y335,1 <= 1
 0 <= Y335,2 <= 1
 0 <= Y335,3 <= 1
 0 <= Y335,4 <= 1
 0 <= Y335,5 <= 1
 0 <= Y335,6 <= 1
 0 <= Y336,0 <= 1
 0 <= Y336,1 <= 1
 0 <= Y336,2 <= 1
 0 <= Y336,3 <= 1
 0 <= Y336,4 <= 1
 0 <= Y336,5 <= 1
 0 <= Y336,6 <= 1
 0 <= Y337,0 <= 1
 0 <= Y337,1 <= 1
 0 <= Y337,2 <= 1
 0 <= Y337,3 <= 1
 0 <= Y337,4 <= 1
 0 <= Y337,5 <= 1
 0 <= Y337,6 <= 1
 0 <= Y338,0 <= 1
 0 <= Y338,1 <= 1
 0 <= Y338,2 <= 1
 0 <= Y338,3 <= 1
 0 <= Y338,4 <= 1
 0 <= Y338,5 <= 1
 0 <= Y338,6 <= 1
 0 <= Y339,0 <= 1
 0 <= Y339,1 <= 1
 0 <= Y339,2 <= 1
 0 <= Y339,3 <= 1
 0 <= Y339,4 <= 1
 0 <= Y339,5 <= 1
 0 <= Y339,6 <= 1
 0 <= Y340,0 <= 1
 0 <= Y340,1 <= 1
 0 <= Y340,2 <= 1
 0 <= Y340,3 <= 1
 0 <= Y340,4 <= 1
 0 <= Y340,5 <= 1
 0 <= Y340,6 <= 1
 0 <= Y341,0 <= 1
 0 <= Y341,1 <= 1
 0 <= Y341,2 <= 1
 0 <= Y341,3 <= 1
 0 <= Y341,4 <= 1
 0 <= Y341,5 <= 1
 0 <= Y341,6 <= 1
 0 <= Y342,0 <= 1
 0 <= Y342,1 <= 1
 0 <= Y342,2 <= 1
 0 <= Y342,3 <= 1
 0 <= Y342,4 <= 1
 0 <= Y342,5 <= 1
 0 <= Y342,6 <= 1
 0 <= Y343,0 <= 1
 0 <= Y343,1 <= 1
 0 <= Y343,2 <= 1
 0 <= Y343,3 <= 1
 0 <= Y343,4 <= 1
 0 <= Y343,5 <= 1
 0 <= Y343,6 <= 1
 0 <= Y344,0 <= 1
 0 <= Y344,1 <= 1
 0 <= Y344,2 <= 1
 0 <= Y344,3 <= 1
 0 <= Y344,4 <= 1
 0 <= Y344,5 <= 1
 0 <= Y344,6 <= 1
 0 <= Y345,0 <= 1
 0 <= Y345,1 <= 1
 0 <= Y345,2 <= 1
 0 <= Y345,3 <= 1
 0 <= Y345,4 <= 1
 0 <= Y345,5 <= 1
 0 <= Y345,6 <= 1
 0 <= Y346,0 <= 1
 0 <= Y346,1 <= 1
 0 <= Y346,2 <= 1
 0 <= Y346,3 <= 1
 0 <= Y346,4 <= 1
 0 <= Y346,5 <= 1
 0 <= Y346,6 <= 1
 0 <= Y347,0 <= 1
 0 <= Y347,1 <= 1
 0 <= Y347,2 <= 1
 0 <= Y347,3 <= 1
 0 <= Y347,4 <= 1
 0 <= Y347,5 <= 1
 0 <= Y347,6 <= 1
 0 <= Y348,0 <= 1
 0 <= Y348,1 <= 1
 0 <= Y348,2 <= 1
 0 <= Y348,3 <= 1
 0 <= Y348,4 <= 1
 0 <= Y348,5 <= 1
 0 <= Y348,6 <= 1
 0 <= Y349,0 <= 1
 0 <= Y349,1 <= 1
 0 <= Y349,2 <= 1
 0 <= Y349,3 <= 1
 0 <= Y349,4 <= 1
 0 <= Y349,5 <= 1
 0 <= Y349,6 <= 1
 0 <= Y350,0 <= 1
 0 <= Y350,1 <= 1
 0 <= Y350,2 <= 1
 0 <= Y350,3 <= 1
 0 <= Y350,4 <= 1
 0 <= Y350,5 <= 1
 0 <= Y350,6 <= 1
 0 <= Y351,0 <= 1
 0 <= Y351,1 <= 1
 0 <= Y351,2 <= 1
 0 <= Y351,3 <= 1
 0 <= Y351,4 <= 1
 0 <= Y351,5 <= 1
 0 <= Y351,6 <= 1
 0 <= Y352,0 <= 1
 0 <= Y352,1 <= 1
 0 <= Y352,2 <= 1
 0 <= Y352,3 <= 1
 0 <= Y352,4 <= 1
 0 <= Y352,5 <= 1
 0 <= Y352,6 <= 1
 0 <= Y353,0 <= 1
 0 <= Y353,1 <= 1
 0 <= Y353,2 <= 1
 0 <= Y353,3 <= 1
 0 <= Y353,4 <= 1
 0 <= Y353,5 <= 1
 0 <= Y353,6 <= 1
 0 <= Y354,0 <= 1
 0 <= Y354,1 <= 1
 0 <= Y354,2 <= 1
 0 <= Y354,3 <= 1
 0 <= Y354,4 <= 1
 0 <= Y354,5 <= 1
 0 <= Y354,6 <= 1
 0 <= Y355,0 <= 1
 0 <= Y355,1 <= 1
 0 <= Y355,2 <= 1
 0 <= Y355,3 <= 1
 0 <= Y355,4 <= 1
 0 <= Y355,5 <= 1
 0 <= Y355,6 <= 1
 0 <= Y356,0 <= 1
 0 <= Y356,1 <= 1
 0 <= Y356,2 <= 1
 0 <= Y356,3 <= 1
 0 <= Y356,4 <= 1
 0 <= Y356,5 <= 1
 0 <= Y356,6 <= 1
 0 <= Y357,0 <= 1
 0 <= Y357,1 <= 1
 0 <= Y357,2 <= 1
 0 <= Y357,3 <= 1
 0 <= Y357,4 <= 1
 0 <= Y357,5 <= 1
 0 <= Y357,6 <= 1
 0 <= Y358,0 <= 1
 0 <= Y358,1 <= 1
 0 <= Y358,2 <= 1
 0 <= Y358,3 <= 1
 0 <= Y358,4 <= 1
 0 <= Y358,5 <= 1
 0 <= Y358,6 <= 1
 0 <= Y359,0 <= 1
 0 <= Y359,1 <= 1
 0 <= Y359,2 <= 1
 0 <= Y359,3 <= 1
 0 <= Y359,4 <= 1
 0 <= Y359,5 <= 1
 0 <= Y359,6 <= 1
 0 <= Y360,0 <= 1
 0 <= Y360,1 <= 1
 0 <= Y360,2 <= 1
 0 <= Y360,3 <= 1
 0 <= Y360,4 <= 1
 0 <= Y360,5 <= 1
 0 <= Y360,6 <= 1
 0 <= Y361,0 <= 1
 0 <= Y361,1 <= 1
 0 <= Y361,2 <= 1
 0 <= Y361,3 <= 1
 0 <= Y361,4 <= 1
 0 <= Y361,5 <= 1
 0 <= Y361,6 <= 1
 0 <= Y362,0 <= 1
 0 <= Y362,1 <= 1
 0 <= Y362,2 <= 1
 0 <= Y362,3 <= 1
 0 <= Y362,4 <= 1
 0 <= Y362,5 <= 1
 0 <= Y362,6 <= 1
 0 <= Y363,0 <= 1
 0 <= Y363,1 <= 1
 0 <= Y363,2 <= 1
 0 <= Y363,3 <= 1
 0 <= Y363,4 <= 1
 0 <= Y363,5 <= 1
 0 <= Y363,6 <= 1
 0 <= Y364,0 <= 1
 0 <= Y364,1 <= 1
 0 <= Y364,2 <= 1
 0 <= Y364,3 <= 1
 0 <= Y364,4 <= 1
 0 <= Y364,5 <= 1
 0 <= Y364,6 <= 1
 0 <= Y365,0 <= 1
 0 <= Y365,1 <= 1
 0 <= Y365,2 <= 1
 0 <= Y365,3 <= 1
 0 <= Y365,4 <= 1
 0 <= Y365,5 <= 1
 0 <= Y365,6 <= 1
 0 <= Y366,0 <= 1
 0 <= Y366,1 <= 1
 0 <= Y366,2 <= 1
 0 <= Y366,3 <= 1
 0 <= Y366,4 <= 1
 0 <= Y366,5 <= 1
 0 <= Y366,6 <= 1
 0 <= Y367,0 <= 1
 0 <= Y367,1 <= 1
 0 <= Y367,2 <= 1
 0 <= Y367,3 <= 1
 0 <= Y367,4 <= 1
 0 <= Y367,5 <= 1
 0 <= Y367,6 <= 1
 0 <= Y368,0 <= 1
 0 <= Y368,1 <= 1
 0 <= Y368,2 <= 1
 0 <= Y368,3 <= 1
 0 <= Y368,4 <= 1
 0 <= Y368,5 <= 1
 0 <= Y368,6 <= 1
 0 <= Y369,0 <= 1
 0 <= Y369,1 <= 1
 0 <= Y369,2 <= 1
 0 <= Y369,3 <= 1
 0 <= Y369,4 <= 1
 0 <= Y369,5 <= 1
 0 <= Y369,6 <= 1
 0 <= Y370,0 <= 1
 0 <= Y370,1 <= 1
 0 <= Y370,2 <= 1
 0 <= Y370,3 <= 1
 0 <= Y370,4 <= 1
 0 <= Y370,5 <= 1
 0 <= Y370,6 <= 1
 0 <= Y371,0 <= 1
 0 <= Y371,1 <= 1
 0 <= Y371,2 <= 1
 0 <= Y371,3 <= 1
 0 <= Y371,4 <= 1
 0 <= Y371,5 <= 1
 0 <= Y371,6 <= 1
 0 <= Y372,0 <= 1
 0 <= Y372,1 <= 1
 0 <= Y372,2 <= 1
 0 <= Y372,3 <= 1
 0 <= Y372,4 <= 1
 0 <= Y372,5 <= 1
 0 <= Y372,6 <= 1
 0 <= Y373,0 <= 1
 0 <= Y373,1 <= 1
 0 <= Y373,2 <= 1
 0 <= Y373,3 <= 1
 0 <= Y373,4 <= 1
 0 <= Y373,5 <= 1
 0 <= Y373,6 <= 1
 0 <= Y374,0 <= 1
 0 <= Y374,1 <= 1
 0 <= Y374,2 <= 1
 0 <= Y374,3 <= 1
 0 <= Y374,4 <= 1
 0 <= Y374,5 <= 1
 0 <= Y374,6 <= 1
 0 <= Y375,0 <= 1
 0 <= Y375,1 <= 1
 0 <= Y375,2 <= 1
 0 <= Y375,3 <= 1
 0 <= Y375,4 <= 1
 0 <= Y375,5 <= 1
 0 <= Y375,6 <= 1
 0 <= Y376,0 <= 1
 0 <= Y376,1 <= 1
 0 <= Y376,2 <= 1
 0 <= Y376,3 <= 1
 0 <= Y376,4 <= 1
 0 <= Y376,5 <= 1
 0 <= Y376,6 <= 1
 0 <= Y377,0 <= 1
 0 <= Y377,1 <= 1
 0 <= Y377,2 <= 1
 0 <= Y377,3 <= 1
 0 <= Y377,4 <= 1
 0 <= Y377,5 <= 1
 0 <= Y377,6 <= 1
 0 <= Y378,0 <= 1
 0 <= Y378,1 <= 1
 0 <= Y378,2 <= 1
 0 <= Y378,3 <= 1
 0 <= Y378,4 <= 1
 0 <= Y378,5 <= 1
 0 <= Y378,6 <= 1
 0 <= Y379,0 <= 1
 0 <= Y379,1 <= 1
 0 <= Y379,2 <= 1
 0 <= Y379,3 <= 1
 0 <= Y379,4 <= 1
 0 <= Y379,5 <= 1
 0 <= Y379,6 <= 1
 0 <= Y380,0 <= 1
 0 <= Y380,1 <= 1
 0 <= Y380,2 <= 1
 0 <= Y380,3 <= 1
 0 <= Y380,4 <= 1
 0 <= Y380,5 <= 1
 0 <= Y380,6 <= 1
 0 <= Y381,0 <= 1
 0 <= Y381,1 <= 1
 0 <= Y381,2 <= 1
 0 <= Y381,3 <= 1
 0 <= Y381,4 <= 1
 0 <= Y381,5 <= 1
 0 <= Y381,6 <= 1
 0 <= Y382,0 <= 1
 0 <= Y382,1 <= 1
 0 <= Y382,2 <= 1
 0 <= Y382,3 <= 1
 0 <= Y382,4 <= 1
 0 <= Y382,5 <= 1
 0 <= Y382,6 <= 1
 0 <= Y383,0 <= 1
 0 <= Y383,1 <= 1
 0 <= Y383,2 <= 1
 0 <= Y383,3 <= 1
 0 <= Y383,4 <= 1
 0 <= Y383,5 <= 1
 0 <= Y383,6 <= 1
 0 <= Y384,0 <= 1
 0 <= Y384,1 <= 1
 0 <= Y384,2 <= 1
 0 <= Y384,3 <= 1
 0 <= Y384,4 <= 1
 0 <= Y384,5 <= 1
 0 <= Y384,6 <= 1
 0 <= Y385,0 <= 1
 0 <= Y385,1 <= 1
 0 <= Y385,2 <= 1
 0 <= Y385,3 <= 1
 0 <= Y385,4 <= 1
 0 <= Y385,5 <= 1
 0 <= Y385,6 <= 1
 0 <= Y386,0 <= 1
 0 <= Y386,1 <= 1
 0 <= Y386,2 <= 1
 0 <= Y386,3 <= 1
 0 <= Y386,4 <= 1
 0 <= Y386,5 <= 1
 0 <= Y386,6 <= 1
 0 <= Y387,0 <= 1
 0 <= Y387,1 <= 1
 0 <= Y387,2 <= 1
 0 <= Y387,3 <= 1
 0 <= Y387,4 <= 1
 0 <= Y387,5 <= 1
 0 <= Y387,6 <= 1
 0 <= Y388,0 <= 1
 0 <= Y388,1 <= 1
 0 <= Y388,2 <= 1
 0 <= Y388,3 <= 1
 0 <= Y388,4 <= 1
 0 <= Y388,5 <= 1
 0 <= Y388,6 <= 1
 0 <= Y389,0 <= 1
 0 <= Y389,1 <= 1
 0 <= Y389,2 <= 1
 0 <= Y389,3 <= 1
 0 <= Y389,4 <= 1
 0 <= Y389,5 <= 1
 0 <= Y389,6 <= 1
 0 <= Y390,0 <= 1
 0 <= Y390,1 <= 1
 0 <= Y390,2 <= 1
 0 <= Y390,3 <= 1
 0 <= Y390,4 <= 1
 0 <= Y390,5 <= 1
 0 <= Y390,6 <= 1
 0 <= Y391,0 <= 1
 0 <= Y391,1 <= 1
 0 <= Y391,2 <= 1
 0 <= Y391,3 <= 1
 0 <= Y391,4 <= 1
 0 <= Y391,5 <= 1
 0 <= Y391,6 <= 1
 0 <= Y392,0 <= 1
 0 <= Y392,1 <= 1
 0 <= Y392,2 <= 1
 0 <= Y392,3 <= 1
 0 <= Y392,4 <= 1
 0 <= Y392,5 <= 1
 0 <= Y392,6 <= 1
 0 <= Y393,0 <= 1
 0 <= Y393,1 <= 1
 0 <= Y393,2 <= 1
 0 <= Y393,3 <= 1
 0 <= Y393,4 <= 1
 0 <= Y393,5 <= 1
 0 <= Y393,6 <= 1
 0 <= Y394,0 <= 1
 0 <= Y394,1 <= 1
 0 <= Y394,2 <= 1
 0 <= Y394,3 <= 1
 0 <= Y394,4 <= 1
 0 <= Y394,5 <= 1
 0 <= Y394,6 <= 1
 0 <= Y395,0 <= 1
 0 <= Y395,1 <= 1
 0 <= Y395,2 <= 1
 0 <= Y395,3 <= 1
 0 <= Y395,4 <= 1
 0 <= Y395,5 <= 1
 0 <= Y395,6 <= 1
 0 <= Y396,0 <= 1
 0 <= Y396,1 <= 1
 0 <= Y396,2 <= 1
 0 <= Y396,3 <= 1
 0 <= Y396,4 <= 1
 0 <= Y396,5 <= 1
 0 <= Y396,6 <= 1
 0 <= Y397,0 <= 1
 0 <= Y397,1 <= 1
 0 <= Y397,2 <= 1
 0 <= Y397,3 <= 1
 0 <= Y397,4 <= 1
 0 <= Y397,5 <= 1
 0 <= Y397,6 <= 1
 0 <= Y398,0 <= 1
 0 <= Y398,1 <= 1
 0 <= Y398,2 <= 1
 0 <= Y398,3 <= 1
 0 <= Y398,4 <= 1
 0 <= Y398,5 <= 1
 0 <= Y398,6 <= 1
 0 <= Y399,0 <= 1
 0 <= Y399,1 <= 1
 0 <= Y399,2 <= 1
 0 <= Y399,3 <= 1
 0 <= Y399,4 <= 1
 0 <= Y399,5 <= 1
 0 <= Y399,6 <= 1
 0 <= Y400,0 <= 1
 0 <= Y400,1 <= 1
 0 <= Y400,2 <= 1
 0 <= Y400,3 <= 1
 0 <= Y400,4 <= 1
 0 <= Y400,5 <= 1
 0 <= Y400,6 <= 1
 0 <= Y401,0 <= 1
 0 <= Y401,1 <= 1
 0 <= Y401,2 <= 1
 0 <= Y401,3 <= 1
 0 <= Y401,4 <= 1
 0 <= Y401,5 <= 1
 0 <= Y401,6 <= 1
 0 <= Y402,0 <= 1
 0 <= Y402,1 <= 1
 0 <= Y402,2 <= 1
 0 <= Y402,3 <= 1
 0 <= Y402,4 <= 1
 0 <= Y402,5 <= 1
 0 <= Y402,6 <= 1
 0 <= Y403,0 <= 1
 0 <= Y403,1 <= 1
 0 <= Y403,2 <= 1
 0 <= Y403,3 <= 1
 0 <= Y403,4 <= 1
 0 <= Y403,5 <= 1
 0 <= Y403,6 <= 1
 0 <= Y404,0 <= 1
 0 <= Y404,1 <= 1
 0 <= Y404,2 <= 1
 0 <= Y404,3 <= 1
 0 <= Y404,4 <= 1
 0 <= Y404,5 <= 1
 0 <= Y404,6 <= 1
 0 <= Y405,0 <= 1
 0 <= Y405,1 <= 1
 0 <= Y405,2 <= 1
 0 <= Y405,3 <= 1
 0 <= Y405,4 <= 1
 0 <= Y405,5 <= 1
 0 <= Y405,6 <= 1
 0 <= Y406,0 <= 1
 0 <= Y406,1 <= 1
 0 <= Y406,2 <= 1
 0 <= Y406,3 <= 1
 0 <= Y406,4 <= 1
 0 <= Y406,5 <= 1
 0 <= Y406,6 <= 1
 0 <= Y407,0 <= 1
 0 <= Y407,1 <= 1
 0 <= Y407,2 <= 1
 0 <= Y407,3 <= 1
 0 <= Y407,4 <= 1
 0 <= Y407,5 <= 1
 0 <= Y407,6 <= 1
 0 <= Y408,0 <= 1
 0 <= Y408,1 <= 1
 0 <= Y408,2 <= 1
 0 <= Y408,3 <= 1
 0 <= Y408,4 <= 1
 0 <= Y408,5 <= 1
 0 <= Y408,6 <= 1
 0 <= Y409,0 <= 1
 0 <= Y409,1 <= 1
 0 <= Y409,2 <= 1
 0 <= Y409,3 <= 1
 0 <= Y409,4 <= 1
 0 <= Y409,5 <= 1
 0 <= Y409,6 <= 1
 0 <= Y410,0 <= 1
 0 <= Y410,1 <= 1
 0 <= Y410,2 <= 1
 0 <= Y410,3 <= 1
 0 <= Y410,4 <= 1
 0 <= Y410,5 <= 1
 0 <= Y410,6 <= 1
 0 <= Y411,0 <= 1
 0 <= Y411,1 <= 1
 0 <= Y411,2 <= 1
 0 <= Y411,3 <= 1
 0 <= Y411,4 <= 1
 0 <= Y411,5 <= 1
 0 <= Y411,6 <= 1
 0 <= Y412,0 <= 1
 0 <= Y412,1 <= 1
 0 <= Y412,2 <= 1
 0 <= Y412,3 <= 1
 0 <= Y412,4 <= 1
 0 <= Y412,5 <= 1
 0 <= Y412,6 <= 1
 0 <= Y413,0 <= 1
 0 <= Y413,1 <= 1
 0 <= Y413,2 <= 1
 0 <= Y413,3 <= 1
 0 <= Y413,4 <= 1
 0 <= Y413,5 <= 1
 0 <= Y413,6 <= 1
 0 <= Y414,0 <= 1
 0 <= Y414,1 <= 1
 0 <= Y414,2 <= 1
 0 <= Y414,3 <= 1
 0 <= Y414,4 <= 1
 0 <= Y414,5 <= 1
 0 <= Y414,6 <= 1
 0 <= Y415,0 <= 1
 0 <= Y415,1 <= 1
 0 <= Y415,2 <= 1
 0 <= Y415,3 <= 1
 0 <= Y415,4 <= 1
 0 <= Y415,5 <= 1
 0 <= Y415,6 <= 1
 0 <= Y416,0 <= 1
 0 <= Y416,1 <= 1
 0 <= Y416,2 <= 1
 0 <= Y416,3 <= 1
 0 <= Y416,4 <= 1
 0 <= Y416,5 <= 1
 0 <= Y416,6 <= 1
 0 <= Y417,0 <= 1
 0 <= Y417,1 <= 1
 0 <= Y417,2 <= 1
 0 <= Y417,3 <= 1
 0 <= Y417,4 <= 1
 0 <= Y417,5 <= 1
 0 <= Y417,6 <= 1
 0 <= Y418,0 <= 1
 0 <= Y418,1 <= 1
 0 <= Y418,2 <= 1
 0 <= Y418,3 <= 1
 0 <= Y418,4 <= 1
 0 <= Y418,5 <= 1
 0 <= Y418,6 <= 1
 0 <= Y419,0 <= 1
 0 <= Y419,1 <= 1
 0 <= Y419,2 <= 1
 0 <= Y419,3 <= 1
 0 <= Y419,4 <= 1
 0 <= Y419,5 <= 1
 0 <= Y419,6 <= 1
 0 <= Y420,0 <= 1
 0 <= Y420,1 <= 1
 0 <= Y420,2 <= 1
 0 <= Y420,3 <= 1
 0 <= Y420,4 <= 1
 0 <= Y420,5 <= 1
 0 <= Y420,6 <= 1
 0 <= Y421,0 <= 1
 0 <= Y421,1 <= 1
 0 <= Y421,2 <= 1
 0 <= Y421,3 <= 1
 0 <= Y421,4 <= 1
 0 <= Y421,5 <= 1
 0 <= Y421,6 <= 1
 0 <= Y422,0 <= 1
 0 <= Y422,1 <= 1
 0 <= Y422,2 <= 1
 0 <= Y422,3 <= 1
 0 <= Y422,4 <= 1
 0 <= Y422,5 <= 1
 0 <= Y422,6 <= 1
 0 <= Y423,0 <= 1
 0 <= Y423,1 <= 1
 0 <= Y423,2 <= 1
 0 <= Y423,3 <= 1
 0 <= Y423,4 <= 1
 0 <= Y423,5 <= 1
 0 <= Y423,6 <= 1
 0 <= Y424,0 <= 1
 0 <= Y424,1 <= 1
 0 <= Y424,2 <= 1
 0 <= Y424,3 <= 1
 0 <= Y424,4 <= 1
 0 <= Y424,5 <= 1
 0 <= Y424,6 <= 1
 0 <= Y425,0 <= 1
 0 <= Y425,1 <= 1
 0 <= Y425,2 <= 1
 0 <= Y425,3 <= 1
 0 <= Y425,4 <= 1
 0 <= Y425,5 <= 1
 0 <= Y425,6 <= 1
 0 <= Y426,0 <= 1
 0 <= Y426,1 <= 1
 0 <= Y426,2 <= 1
 0 <= Y426,3 <= 1
 0 <= Y426,4 <= 1
 0 <= Y426,5 <= 1
 0 <= Y426,6 <= 1
 0 <= Y427,0 <= 1
 0 <= Y427,1 <= 1
 0 <= Y427,2 <= 1
 0 <= Y427,3 <= 1
 0 <= Y427,4 <= 1
 0 <= Y427,5 <= 1
 0 <= Y427,6 <= 1
 0 <= Y428,0 <= 1
 0 <= Y428,1 <= 1
 0 <= Y428,2 <= 1
 0 <= Y428,3 <= 1
 0 <= Y428,4 <= 1
 0 <= Y428,5 <= 1
 0 <= Y428,6 <= 1
 0 <= Y429,0 <= 1
 0 <= Y429,1 <= 1
 0 <= Y429,2 <= 1
 0 <= Y429,3 <= 1
 0 <= Y429,4 <= 1
 0 <= Y429,5 <= 1
 0 <= Y429,6 <= 1
 0 <= Y430,0 <= 1
 0 <= Y430,1 <= 1
 0 <= Y430,2 <= 1
 0 <= Y430,3 <= 1
 0 <= Y430,4 <= 1
 0 <= Y430,5 <= 1
 0 <= Y430,6 <= 1
 0 <= Y431,0 <= 1
 0 <= Y431,1 <= 1
 0 <= Y431,2 <= 1
 0 <= Y431,3 <= 1
 0 <= Y431,4 <= 1
 0 <= Y431,5 <= 1
 0 <= Y431,6 <= 1
 0 <= Y432,0 <= 1
 0 <= Y432,1 <= 1
 0 <= Y432,2 <= 1
 0 <= Y432,3 <= 1
 0 <= Y432,4 <= 1
 0 <= Y432,5 <= 1
 0 <= Y432,6 <= 1
 0 <= Y433,0 <= 1
 0 <= Y433,1 <= 1
 0 <= Y433,2 <= 1
 0 <= Y433,3 <= 1
 0 <= Y433,4 <= 1
 0 <= Y433,5 <= 1
 0 <= Y433,6 <= 1
 0 <= Y434,0 <= 1
 0 <= Y434,1 <= 1
 0 <= Y434,2 <= 1
 0 <= Y434,3 <= 1
 0 <= Y434,4 <= 1
 0 <= Y434,5 <= 1
 0 <= Y434,6 <= 1
 0 <= Y435,0 <= 1
 0 <= Y435,1 <= 1
 0 <= Y435,2 <= 1
 0 <= Y435,3 <= 1
 0 <= Y435,4 <= 1
 0 <= Y435,5 <= 1
 0 <= Y435,6 <= 1
 0 <= Y436,0 <= 1
 0 <= Y436,1 <= 1
 0 <= Y436,2 <= 1
 0 <= Y436,3 <= 1
 0 <= Y436,4 <= 1
 0 <= Y436,5 <= 1
 0 <= Y436,6 <= 1
 0 <= Y437,0 <= 1
 0 <= Y437,1 <= 1
 0 <= Y437,2 <= 1
 0 <= Y437,3 <= 1
 0 <= Y437,4 <= 1
 0 <= Y437,5 <= 1
 0 <= Y437,6 <= 1
 0 <= Y438,0 <= 1
 0 <= Y438,1 <= 1
 0 <= Y438,2 <= 1
 0 <= Y438,3 <= 1
 0 <= Y438,4 <= 1
 0 <= Y438,5 <= 1
 0 <= Y438,6 <= 1
 0 <= Y439,0 <= 1
 0 <= Y439,1 <= 1
 0 <= Y439,2 <= 1
 0 <= Y439,3 <= 1
 0 <= Y439,4 <= 1
 0 <= Y439,5 <= 1
 0 <= Y439,6 <= 1
 0 <= Y440,0 <= 1
 0 <= Y440,1 <= 1
 0 <= Y440,2 <= 1
 0 <= Y440,3 <= 1
 0 <= Y440,4 <= 1
 0 <= Y440,5 <= 1
 0 <= Y440,6 <= 1
 0 <= Y441,0 <= 1
 0 <= Y441,1 <= 1
 0 <= Y441,2 <= 1
 0 <= Y441,3 <= 1
 0 <= Y441,4 <= 1
 0 <= Y441,5 <= 1
 0 <= Y441,6 <= 1
 0 <= Y442,0 <= 1
 0 <= Y442,1 <= 1
 0 <= Y442,2 <= 1
 0 <= Y442,3 <= 1
 0 <= Y442,4 <= 1
 0 <= Y442,5 <= 1
 0 <= Y442,6 <= 1
 0 <= Y443,0 <= 1
 0 <= Y443,1 <= 1
 0 <= Y443,2 <= 1
 0 <= Y443,3 <= 1
 0 <= Y443,4 <= 1
 0 <= Y443,5 <= 1
 0 <= Y443,6 <= 1
 0 <= Y444,0 <= 1
 0 <= Y444,1 <= 1
 0 <= Y444,2 <= 1
 0 <= Y444,3 <= 1
 0 <= Y444,4 <= 1
 0 <= Y444,5 <= 1
 0 <= Y444,6 <= 1
 0 <= Y445,0 <= 1
 0 <= Y445,1 <= 1
 0 <= Y445,2 <= 1
 0 <= Y445,3 <= 1
 0 <= Y445,4 <= 1
 0 <= Y445,5 <= 1
 0 <= Y445,6 <= 1
 0 <= Y446,0 <= 1
 0 <= Y446,1 <= 1
 0 <= Y446,2 <= 1
 0 <= Y446,3 <= 1
 0 <= Y446,4 <= 1
 0 <= Y446,5 <= 1
 0 <= Y446,6 <= 1
 0 <= Y447,0 <= 1
 0 <= Y447,1 <= 1
 0 <= Y447,2 <= 1
 0 <= Y447,3 <= 1
 0 <= Y447,4 <= 1
 0 <= Y447,5 <= 1
 0 <= Y447,6 <= 1
 0 <= Y448,0 <= 1
 0 <= Y448,1 <= 1
 0 <= Y448,2 <= 1
 0 <= Y448,3 <= 1
 0 <= Y448,4 <= 1
 0 <= Y448,5 <= 1
 0 <= Y448,6 <= 1
 0 <= Y449,0 <= 1
 0 <= Y449,1 <= 1
 0 <= Y449,2 <= 1
 0 <= Y449,3 <= 1
 0 <= Y449,4 <= 1
 0 <= Y449,5 <= 1
 0 <= Y449,6 <= 1
 0 <= Y450,0 <= 1
 0 <= Y450,1 <= 1
 0 <= Y450,2 <= 1
 0 <= Y450,3 <= 1
 0 <= Y450,4 <= 1
 0 <= Y450,5 <= 1
 0 <= Y450,6 <= 1
 0 <= Y451,0 <= 1
 0 <= Y451,1 <= 1
 0 <= Y451,2 <= 1
 0 <= Y451,3 <= 1
 0 <= Y451,4 <= 1
 0 <= Y451,5 <= 1
 0 <= Y451,6 <= 1
 0 <= Y452,0 <= 1
 0 <= Y452,1 <= 1
 0 <= Y452,2 <= 1
 0 <= Y452,3 <= 1
 0 <= Y452,4 <= 1
 0 <= Y452,5 <= 1
 0 <= Y452,6 <= 1
 0 <= Y453,0 <= 1
 0 <= Y453,1 <= 1
 0 <= Y453,2 <= 1
 0 <= Y453,3 <= 1
 0 <= Y453,4 <= 1
 0 <= Y453,5 <= 1
 0 <= Y453,6 <= 1
 0 <= Y454,0 <= 1
 0 <= Y454,1 <= 1
 0 <= Y454,2 <= 1
 0 <= Y454,3 <= 1
 0 <= Y454,4 <= 1
 0 <= Y454,5 <= 1
 0 <= Y454,6 <= 1
 0 <= Y455,0 <= 1
 0 <= Y455,1 <= 1
 0 <= Y455,2 <= 1
 0 <= Y455,3 <= 1
 0 <= Y455,4 <= 1
 0 <= Y455,5 <= 1
 0 <= Y455,6 <= 1
 0 <= Y456,0 <= 1
 0 <= Y456,1 <= 1
 0 <= Y456,2 <= 1
 0 <= Y456,3 <= 1
 0 <= Y456,4 <= 1
 0 <= Y456,5 <= 1
 0 <= Y456,6 <= 1
 0 <= Y457,0 <= 1
 0 <= Y457,1 <= 1
 0 <= Y457,2 <= 1
 0 <= Y457,3 <= 1
 0 <= Y457,4 <= 1
 0 <= Y457,5 <= 1
 0 <= Y457,6 <= 1
 0 <= Y458,0 <= 1
 0 <= Y458,1 <= 1
 0 <= Y458,2 <= 1
 0 <= Y458,3 <= 1
 0 <= Y458,4 <= 1
 0 <= Y458,5 <= 1
 0 <= Y458,6 <= 1
 0 <= Y459,0 <= 1
 0 <= Y459,1 <= 1
 0 <= Y459,2 <= 1
 0 <= Y459,3 <= 1
 0 <= Y459,4 <= 1
 0 <= Y459,5 <= 1
 0 <= Y459,6 <= 1
 0 <= Y460,0 <= 1
 0 <= Y460,1 <= 1
 0 <= Y460,2 <= 1
 0 <= Y460,3 <= 1
 0 <= Y460,4 <= 1
 0 <= Y460,5 <= 1
 0 <= Y460,6 <= 1
 0 <= Y461,0 <= 1
 0 <= Y461,1 <= 1
 0 <= Y461,2 <= 1
 0 <= Y461,3 <= 1
 0 <= Y461,4 <= 1
 0 <= Y461,5 <= 1
 0 <= Y461,6 <= 1
 0 <= Y462,0 <= 1
 0 <= Y462,1 <= 1
 0 <= Y462,2 <= 1
 0 <= Y462,3 <= 1
 0 <= Y462,4 <= 1
 0 <= Y462,5 <= 1
 0 <= Y462,6 <= 1
 0 <= Y463,0 <= 1
 0 <= Y463,1 <= 1
 0 <= Y463,2 <= 1
 0 <= Y463,3 <= 1
 0 <= Y463,4 <= 1
 0 <= Y463,5 <= 1
 0 <= Y463,6 <= 1
 0 <= Y464,0 <= 1
 0 <= Y464,1 <= 1
 0 <= Y464,2 <= 1
 0 <= Y464,3 <= 1
 0 <= Y464,4 <= 1
 0 <= Y464,5 <= 1
 0 <= Y464,6 <= 1
 0 <= Y465,0 <= 1
 0 <= Y465,1 <= 1
 0 <= Y465,2 <= 1
 0 <= Y465,3 <= 1
 0 <= Y465,4 <= 1
 0 <= Y465,5 <= 1
 0 <= Y465,6 <= 1
 0 <= Y466,0 <= 1
 0 <= Y466,1 <= 1
 0 <= Y466,2 <= 1
 0 <= Y466,3 <= 1
 0 <= Y466,4 <= 1
 0 <= Y466,5 <= 1
 0 <= Y466,6 <= 1
 0 <= Y467,0 <= 1
 0 <= Y467,1 <= 1
 0 <= Y467,2 <= 1
 0 <= Y467,3 <= 1
 0 <= Y467,4 <= 1
 0 <= Y467,5 <= 1
 0 <= Y467,6 <= 1
 0 <= Y468,0 <= 1
 0 <= Y468,1 <= 1
 0 <= Y468,2 <= 1
 0 <= Y468,3 <= 1
 0 <= Y468,4 <= 1
 0 <= Y468,5 <= 1
 0 <= Y468,6 <= 1
 0 <= Y469,0 <= 1
 0 <= Y469,1 <= 1
 0 <= Y469,2 <= 1
 0 <= Y469,3 <= 1
 0 <= Y469,4 <= 1
 0 <= Y469,5 <= 1
 0 <= Y469,6 <= 1
 0 <= Y470,0 <= 1
 0 <= Y470,1 <= 1
 0 <= Y470,2 <= 1
 0 <= Y470,3 <= 1
 0 <= Y470,4 <= 1
 0 <= Y470,5 <= 1
 0 <= Y470,6 <= 1
 0 <= Y471,0 <= 1
 0 <= Y471,1 <= 1
 0 <= Y471,2 <= 1
 0 <= Y471,3 <= 1
 0 <= Y471,4 <= 1
 0 <= Y471,5 <= 1
 0 <= Y471,6 <= 1
 0 <= Y472,0 <= 1
 0 <= Y472,1 <= 1
 0 <= Y472,2 <= 1
 0 <= Y472,3 <= 1
 0 <= Y472,4 <= 1
 0 <= Y472,5 <= 1
 0 <= Y472,6 <= 1
 0 <= Y473,0 <= 1
 0 <= Y473,1 <= 1
 0 <= Y473,2 <= 1
 0 <= Y473,3 <= 1
 0 <= Y473,4 <= 1
 0 <= Y473,5 <= 1
 0 <= Y473,6 <= 1
 0 <= Y474,0 <= 1
 0 <= Y474,1 <= 1
 0 <= Y474,2 <= 1
 0 <= Y474,3 <= 1
 0 <= Y474,4 <= 1
 0 <= Y474,5 <= 1
 0 <= Y474,6 <= 1
 0 <= Y475,0 <= 1
 0 <= Y475,1 <= 1
 0 <= Y475,2 <= 1
 0 <= Y475,3 <= 1
 0 <= Y475,4 <= 1
 0 <= Y475,5 <= 1
 0 <= Y475,6 <= 1
 0 <= Y476,0 <= 1
 0 <= Y476,1 <= 1
 0 <= Y476,2 <= 1
 0 <= Y476,3 <= 1
 0 <= Y476,4 <= 1
 0 <= Y476,5 <= 1
 0 <= Y476,6 <= 1
 0 <= Y477,0 <= 1
 0 <= Y477,1 <= 1
 0 <= Y477,2 <= 1
 0 <= Y477,3 <= 1
 0 <= Y477,4 <= 1
 0 <= Y477,5 <= 1
 0 <= Y477,6 <= 1
 0 <= Y478,0 <= 1
 0 <= Y478,1 <= 1
 0 <= Y478,2 <= 1
 0 <= Y478,3 <= 1
 0 <= Y478,4 <= 1
 0 <= Y478,5 <= 1
 0 <= Y478,6 <= 1
 0 <= Y479,0 <= 1
 0 <= Y479,1 <= 1
 0 <= Y479,2 <= 1
 0 <= Y479,3 <= 1
 0 <= Y479,4 <= 1
 0 <= Y479,5 <= 1
 0 <= Y479,6 <= 1
 0 <= Y480,0 <= 1
 0 <= Y480,1 <= 1
 0 <= Y480,2 <= 1
 0 <= Y480,3 <= 1
 0 <= Y480,4 <= 1
 0 <= Y480,5 <= 1
 0 <= Y480,6 <= 1
 0 <= Y481,0 <= 1
 0 <= Y481,1 <= 1
 0 <= Y481,2 <= 1
 0 <= Y481,3 <= 1
 0 <= Y481,4 <= 1
 0 <= Y481,5 <= 1
 0 <= Y481,6 <= 1
 0 <= Y482,0 <= 1
 0 <= Y482,1 <= 1
 0 <= Y482,2 <= 1
 0 <= Y482,3 <= 1
 0 <= Y482,4 <= 1
 0 <= Y482,5 <= 1
 0 <= Y482,6 <= 1
 0 <= Y483,0 <= 1
 0 <= Y483,1 <= 1
 0 <= Y483,2 <= 1
 0 <= Y483,3 <= 1
 0 <= Y483,4 <= 1
 0 <= Y483,5 <= 1
 0 <= Y483,6 <= 1
 0 <= Y484,0 <= 1
 0 <= Y484,1 <= 1
 0 <= Y484,2 <= 1
 0 <= Y484,3 <= 1
 0 <= Y484,4 <= 1
 0 <= Y484,5 <= 1
 0 <= Y484,6 <= 1
 0 <= Y485,0 <= 1
 0 <= Y485,1 <= 1
 0 <= Y485,2 <= 1
 0 <= Y485,3 <= 1
 0 <= Y485,4 <= 1
 0 <= Y485,5 <= 1
 0 <= Y485,6 <= 1
 0 <= Y486,0 <= 1
 0 <= Y486,1 <= 1
 0 <= Y486,2 <= 1
 0 <= Y486,3 <= 1
 0 <= Y486,4 <= 1
 0 <= Y486,5 <= 1
 0 <= Y486,6 <= 1
 0 <= Y487,0 <= 1
 0 <= Y487,1 <= 1
 0 <= Y487,2 <= 1
 0 <= Y487,3 <= 1
 0 <= Y487,4 <= 1
 0 <= Y487,5 <= 1
 0 <= Y487,6 <= 1
 0 <= Y488,0 <= 1
 0 <= Y488,1 <= 1
 0 <= Y488,2 <= 1
 0 <= Y488,3 <= 1
 0 <= Y488,4 <= 1
 0 <= Y488,5 <= 1
 0 <= Y488,6 <= 1
 0 <= Y489,0 <= 1
 0 <= Y489,1 <= 1
 0 <= Y489,2 <= 1
 0 <= Y489,3 <= 1
 0 <= Y489,4 <= 1
 0 <= Y489,5 <= 1
 0 <= Y489,6 <= 1
 0 <= Y490,0 <= 1
 0 <= Y490,1 <= 1
 0 <= Y490,2 <= 1
 0 <= Y490,3 <= 1
 0 <= Y490,4 <= 1
 0 <= Y490,5 <= 1
 0 <= Y490,6 <= 1
 0 <= Y491,0 <= 1
 0 <= Y491,1 <= 1
 0 <= Y491,2 <= 1
 0 <= Y491,3 <= 1
 0 <= Y491,4 <= 1
 0 <= Y491,5 <= 1
 0 <= Y491,6 <= 1
 0 <= Y492,0 <= 1
 0 <= Y492,1 <= 1
 0 <= Y492,2 <= 1
 0 <= Y492,3 <= 1
 0 <= Y492,4 <= 1
 0 <= Y492,5 <= 1
 0 <= Y492,6 <= 1
 0 <= Y493,0 <= 1
 0 <= Y493,1 <= 1
 0 <= Y493,2 <= 1
 0 <= Y493,3 <= 1
 0 <= Y493,4 <= 1
 0 <= Y493,5 <= 1
 0 <= Y493,6 <= 1
 0 <= Y494,0 <= 1
 0 <= Y494,1 <= 1
 0 <= Y494,2 <= 1
 0 <= Y494,3 <= 1
 0 <= Y494,4 <= 1
 0 <= Y494,5 <= 1
 0 <= Y494,6 <= 1
 0 <= Y495,0 <= 1
 0 <= Y495,1 <= 1
 0 <= Y495,2 <= 1
 0 <= Y495,3 <= 1
 0 <= Y495,4 <= 1
 0 <= Y495,5 <= 1
 0 <= Y495,6 <= 1
 0 <= Y496,0 <= 1
 0 <= Y496,1 <= 1
 0 <= Y496,2 <= 1
 0 <= Y496,3 <= 1
 0 <= Y496,4 <= 1
 0 <= Y496,5 <= 1
 0 <= Y496,6 <= 1
 0 <= Y497,0 <= 1
 0 <= Y497,1 <= 1
 0 <= Y497,2 <= 1
 0 <= Y497,3 <= 1
 0 <= Y497,4 <= 1
 0 <= Y497,5 <= 1
 0 <= Y497,6 <= 1
 0 <= Y498,0 <= 1
 0 <= Y498,1 <= 1
 0 <= Y498,2 <= 1
 0 <= Y498,3 <= 1
 0 <= Y498,4 <= 1
 0 <= Y498,5 <= 1
 0 <= Y498,6 <= 1
 0 <= Y499,0 <= 1
 0 <= Y499,1 <= 1
 0 <= Y499,2 <= 1
 0 <= Y499,3 <= 1
 0 <= Y499,4 <= 1
 0 <= Y499,5 <= 1
 0 <= Y499,6 <= 1
 0 <= Y500,0 <= 1
 0 <= Y500,1 <= 1
 0 <= Y500,2 <= 1
 0 <= Y500,3 <= 1
 0 <= Y500,4 <= 1
 0 <= Y500,5 <= 1
 0 <= Y500,6 <= 1
 0 <= Y501,0 <= 1
 0 <= Y501,1 <= 1
 0 <= Y501,2 <= 1
 0 <= Y501,3 <= 1
 0 <= Y501,4 <= 1
 0 <= Y501,5 <= 1
 0 <= Y501,6 <= 1
 0 <= Y502,0 <= 1
 0 <= Y502,1 <= 1
 0 <= Y502,2 <= 1
 0 <= Y502,3 <= 1
 0 <= Y502,4 <= 1
 0 <= Y502,5 <= 1
 0 <= Y502,6 <= 1
 0 <= Y503,0 <= 1
 0 <= Y503,1 <= 1
 0 <= Y503,2 <= 1
 0 <= Y503,3 <= 1
 0 <= Y503,4 <= 1
 0 <= Y503,5 <= 1
 0 <= Y503,6 <= 1
 0 <= Y504,0 <= 1
 0 <= Y504,1 <= 1
 0 <= Y504,2 <= 1
 0 <= Y504,3 <= 1
 0 <= Y504,4 <= 1
 0 <= Y504,5 <= 1
 0 <= Y504,6 <= 1
 0 <= Y505,0 <= 1
 0 <= Y505,1 <= 1
 0 <= Y505,2 <= 1
 0 <= Y505,3 <= 1
 0 <= Y505,4 <= 1
 0 <= Y505,5 <= 1
 0 <= Y505,6 <= 1
 0 <= Y506,0 <= 1
 0 <= Y506,1 <= 1
 0 <= Y506,2 <= 1
 0 <= Y506,3 <= 1
 0 <= Y506,4 <= 1
 0 <= Y506,5 <= 1
 0 <= Y506,6 <= 1
 0 <= Y507,0 <= 1
 0 <= Y507,1 <= 1
 0 <= Y507,2 <= 1
 0 <= Y507,3 <= 1
 0 <= Y507,4 <= 1
 0 <= Y507,5 <= 1
 0 <= Y507,6 <= 1
 0 <= Y508,0 <= 1
 0 <= Y508,1 <= 1
 0 <= Y508,2 <= 1
 0 <= Y508,3 <= 1
 0 <= Y508,4 <= 1
 0 <= Y508,5 <= 1
 0 <= Y508,6 <= 1
 0 <= Y509,0 <= 1
 0 <= Y509,1 <= 1
 0 <= Y509,2 <= 1
 0 <= Y509,3 <= 1
 0 <= Y509,4 <= 1
 0 <= Y509,5 <= 1
 0 <= Y509,6 <= 1
 0 <= Y510,0 <= 1
 0 <= Y510,1 <= 1
 0 <= Y510,2 <= 1
 0 <= Y510,3 <= 1
 0 <= Y510,4 <= 1
 0 <= Y510,5 <= 1
 0 <= Y510,6 <= 1
 0 <= Y511,0 <= 1
 0 <= Y511,1 <= 1
 0 <= Y511,2 <= 1
 0 <= Y511,3 <= 1
 0 <= Y511,4 <= 1
 0 <= Y511,5 <= 1
 0 <= Y511,6 <= 1
 0 <= Y512,0 <= 1
 0 <= Y512,1 <= 1
 0 <= Y512,2 <= 1
 0 <= Y512,3 <= 1
 0 <= Y512,4 <= 1
 0 <= Y512,5 <= 1
 0 <= Y512,6 <= 1
 0 <= Y513,0 <= 1
 0 <= Y513,1 <= 1
 0 <= Y513,2 <= 1
 0 <= Y513,3 <= 1
 0 <= Y513,4 <= 1
 0 <= Y513,5 <= 1
 0 <= Y513,6 <= 1
 0 <= Y514,0 <= 1
 0 <= Y514,1 <= 1
 0 <= Y514,2 <= 1
 0 <= Y514,3 <= 1
 0 <= Y514,4 <= 1
 0 <= Y514,5 <= 1
 0 <= Y514,6 <= 1
 0 <= Y515,0 <= 1
 0 <= Y515,1 <= 1
 0 <= Y515,2 <= 1
 0 <= Y515,3 <= 1
 0 <= Y515,4 <= 1
 0 <= Y515,5 <= 1
 0 <= Y515,6 <= 1
 0 <= Y516,0 <= 1
 0 <= Y516,1 <= 1
 0 <= Y516,2 <= 1
 0 <= Y516,3 <= 1
 0 <= Y516,4 <= 1
 0 <= Y516,5 <= 1
 0 <= Y516,6 <= 1
 0 <= Y517,0 <= 1
 0 <= Y517,1 <= 1
 0 <= Y517,2 <= 1
 0 <= Y517,3 <= 1
 0 <= Y517,4 <= 1
 0 <= Y517,5 <= 1
 0 <= Y517,6 <= 1
 0 <= Y518,0 <= 1
 0 <= Y518,1 <= 1
 0 <= Y518,2 <= 1
 0 <= Y518,3 <= 1
 0 <= Y518,4 <= 1
 0 <= Y518,5 <= 1
 0 <= Y518,6 <= 1
 0 <= Y519,0 <= 1
 0 <= Y519,1 <= 1
 0 <= Y519,2 <= 1
 0 <= Y519,3 <= 1
 0 <= Y519,4 <= 1
 0 <= Y519,5 <= 1
 0 <= Y519,6 <= 1
 0 <= Y520,0 <= 1
 0 <= Y520,1 <= 1
 0 <= Y520,2 <= 1
 0 <= Y520,3 <= 1
 0 <= Y520,4 <= 1
 0 <= Y520,5 <= 1
 0 <= Y520,6 <= 1
 0 <= Y521,0 <= 1
 0 <= Y521,1 <= 1
 0 <= Y521,2 <= 1
 0 <= Y521,3 <= 1
 0 <= Y521,4 <= 1
 0 <= Y521,5 <= 1
 0 <= Y521,6 <= 1
 0 <= Y522,0 <= 1
 0 <= Y522,1 <= 1
 0 <= Y522,2 <= 1
 0 <= Y522,3 <= 1
 0 <= Y522,4 <= 1
 0 <= Y522,5 <= 1
 0 <= Y522,6 <= 1
 0 <= Y523,0 <= 1
 0 <= Y523,1 <= 1
 0 <= Y523,2 <= 1
 0 <= Y523,3 <= 1
 0 <= Y523,4 <= 1
 0 <= Y523,5 <= 1
 0 <= Y523,6 <= 1
 0 <= Y524,0 <= 1
 0 <= Y524,1 <= 1
 0 <= Y524,2 <= 1
 0 <= Y524,3 <= 1
 0 <= Y524,4 <= 1
 0 <= Y524,5 <= 1
 0 <= Y524,6 <= 1
 0 <= Y525,0 <= 1
 0 <= Y525,1 <= 1
 0 <= Y525,2 <= 1
 0 <= Y525,3 <= 1
 0 <= Y525,4 <= 1
 0 <= Y525,5 <= 1
 0 <= Y525,6 <= 1
 0 <= Y526,0 <= 1
 0 <= Y526,1 <= 1
 0 <= Y526,2 <= 1
 0 <= Y526,3 <= 1
 0 <= Y526,4 <= 1
 0 <= Y526,5 <= 1
 0 <= Y526,6 <= 1
 0 <= Y527,0 <= 1
 0 <= Y527,1 <= 1
 0 <= Y527,2 <= 1
 0 <= Y527,3 <= 1
 0 <= Y527,4 <= 1
 0 <= Y527,5 <= 1
 0 <= Y527,6 <= 1
 0 <= Y528,0 <= 1
 0 <= Y528,1 <= 1
 0 <= Y528,2 <= 1
 0 <= Y528,3 <= 1
 0 <= Y528,4 <= 1
 0 <= Y528,5 <= 1
 0 <= Y528,6 <= 1
 0 <= Y529,0 <= 1
 0 <= Y529,1 <= 1
 0 <= Y529,2 <= 1
 0 <= Y529,3 <= 1
 0 <= Y529,4 <= 1
 0 <= Y529,5 <= 1
 0 <= Y529,6 <= 1
 0 <= Y530,0 <= 1
 0 <= Y530,1 <= 1
 0 <= Y530,2 <= 1
 0 <= Y530,3 <= 1
 0 <= Y530,4 <= 1
 0 <= Y530,5 <= 1
 0 <= Y530,6 <= 1
 0 <= Y531,0 <= 1
 0 <= Y531,1 <= 1
 0 <= Y531,2 <= 1
 0 <= Y531,3 <= 1
 0 <= Y531,4 <= 1
 0 <= Y531,5 <= 1
 0 <= Y531,6 <= 1
 0 <= Y532,0 <= 1
 0 <= Y532,1 <= 1
 0 <= Y532,2 <= 1
 0 <= Y532,3 <= 1
 0 <= Y532,4 <= 1
 0 <= Y532,5 <= 1
 0 <= Y532,6 <= 1
 0 <= Y533,0 <= 1
 0 <= Y533,1 <= 1
 0 <= Y533,2 <= 1
 0 <= Y533,3 <= 1
 0 <= Y533,4 <= 1
 0 <= Y533,5 <= 1
 0 <= Y533,6 <= 1
 0 <= Y534,0 <= 1
 0 <= Y534,1 <= 1
 0 <= Y534,2 <= 1
 0 <= Y534,3 <= 1
 0 <= Y534,4 <= 1
 0 <= Y534,5 <= 1
 0 <= Y534,6 <= 1
 0 <= Y535,0 <= 1
 0 <= Y535,1 <= 1
 0 <= Y535,2 <= 1
 0 <= Y535,3 <= 1
 0 <= Y535,4 <= 1
 0 <= Y535,5 <= 1
 0 <= Y535,6 <= 1
 0 <= Y536,0 <= 1
 0 <= Y536,1 <= 1
 0 <= Y536,2 <= 1
 0 <= Y536,3 <= 1
 0 <= Y536,4 <= 1
 0 <= Y536,5 <= 1
 0 <= Y536,6 <= 1
 0 <= Y537,0 <= 1
 0 <= Y537,1 <= 1
 0 <= Y537,2 <= 1
 0 <= Y537,3 <= 1
 0 <= Y537,4 <= 1
 0 <= Y537,5 <= 1
 0 <= Y537,6 <= 1
 0 <= Y538,0 <= 1
 0 <= Y538,1 <= 1
 0 <= Y538,2 <= 1
 0 <= Y538,3 <= 1
 0 <= Y538,4 <= 1
 0 <= Y538,5 <= 1
 0 <= Y538,6 <= 1
 0 <= Y539,0 <= 1
 0 <= Y539,1 <= 1
 0 <= Y539,2 <= 1
 0 <= Y539,3 <= 1
 0 <= Y539,4 <= 1
 0 <= Y539,5 <= 1
 0 <= Y539,6 <= 1
 0 <= Y540,0 <= 1
 0 <= Y540,1 <= 1
 0 <= Y540,2 <= 1
 0 <= Y540,3 <= 1
 0 <= Y540,4 <= 1
 0 <= Y540,5 <= 1
 0 <= Y540,6 <= 1
 0 <= Y541,0 <= 1
 0 <= Y541,1 <= 1
 0 <= Y541,2 <= 1
 0 <= Y541,3 <= 1
 0 <= Y541,4 <= 1
 0 <= Y541,5 <= 1
 0 <= Y541,6 <= 1
 0 <= Y542,0 <= 1
 0 <= Y542,1 <= 1
 0 <= Y542,2 <= 1
 0 <= Y542,3 <= 1
 0 <= Y542,4 <= 1
 0 <= Y542,5 <= 1
 0 <= Y542,6 <= 1
 0 <= Y543,0 <= 1
 0 <= Y543,1 <= 1
 0 <= Y543,2 <= 1
 0 <= Y543,3 <= 1
 0 <= Y543,4 <= 1
 0 <= Y543,5 <= 1
 0 <= Y543,6 <= 1
 0 <= Y544,0 <= 1
 0 <= Y544,1 <= 1
 0 <= Y544,2 <= 1
 0 <= Y544,3 <= 1
 0 <= Y544,4 <= 1
 0 <= Y544,5 <= 1
 0 <= Y544,6 <= 1
 0 <= Y545,0 <= 1
 0 <= Y545,1 <= 1
 0 <= Y545,2 <= 1
 0 <= Y545,3 <= 1
 0 <= Y545,4 <= 1
 0 <= Y545,5 <= 1
 0 <= Y545,6 <= 1
 0 <= Y546,0 <= 1
 0 <= Y546,1 <= 1
 0 <= Y546,2 <= 1
 0 <= Y546,3 <= 1
 0 <= Y546,4 <= 1
 0 <= Y546,5 <= 1
 0 <= Y546,6 <= 1
 0 <= Y547,0 <= 1
 0 <= Y547,1 <= 1
 0 <= Y547,2 <= 1
 0 <= Y547,3 <= 1
 0 <= Y547,4 <= 1
 0 <= Y547,5 <= 1
 0 <= Y547,6 <= 1
 0 <= Y548,0 <= 1
 0 <= Y548,1 <= 1
 0 <= Y548,2 <= 1
 0 <= Y548,3 <= 1
 0 <= Y548,4 <= 1
 0 <= Y548,5 <= 1
 0 <= Y548,6 <= 1
 0 <= Y549,0 <= 1
 0 <= Y549,1 <= 1
 0 <= Y549,2 <= 1
 0 <= Y549,3 <= 1
 0 <= Y549,4 <= 1
 0 <= Y549,5 <= 1
 0 <= Y549,6 <= 1
 0 <= Y550,0 <= 1
 0 <= Y550,1 <= 1
 0 <= Y550,2 <= 1
 0 <= Y550,3 <= 1
 0 <= Y550,4 <= 1
 0 <= Y550,5 <= 1
 0 <= Y550,6 <= 1
 0 <= Y551,0 <= 1
 0 <= Y551,1 <= 1
 0 <= Y551,2 <= 1
 0 <= Y551,3 <= 1
 0 <= Y551,4 <= 1
 0 <= Y551,5 <= 1
 0 <= Y551,6 <= 1
 0 <= Y552,0 <= 1
 0 <= Y552,1 <= 1
 0 <= Y552,2 <= 1
 0 <= Y552,3 <= 1
 0 <= Y552,4 <= 1
 0 <= Y552,5 <= 1
 0 <= Y552,6 <= 1
 0 <= Y553,0 <= 1
 0 <= Y553,1 <= 1
 0 <= Y553,2 <= 1
 0 <= Y553,3 <= 1
 0 <= Y553,4 <= 1
 0 <= Y553,5 <= 1
 0 <= Y553,6 <= 1
 0 <= Y554,0 <= 1
 0 <= Y554,1 <= 1
 0 <= Y554,2 <= 1
 0 <= Y554,3 <= 1
 0 <= Y554,4 <= 1
 0 <= Y554,5 <= 1
 0 <= Y554,6 <= 1
 0 <= Y555,0 <= 1
 0 <= Y555,1 <= 1
 0 <= Y555,2 <= 1
 0 <= Y555,3 <= 1
 0 <= Y555,4 <= 1
 0 <= Y555,5 <= 1
 0 <= Y555,6 <= 1
 0 <= Y556,0 <= 1
 0 <= Y556,1 <= 1
 0 <= Y556,2 <= 1
 0 <= Y556,3 <= 1
 0 <= Y556,4 <= 1
 0 <= Y556,5 <= 1
 0 <= Y556,6 <= 1
 0 <= Y557,0 <= 1
 0 <= Y557,1 <= 1
 0 <= Y557,2 <= 1
 0 <= Y557,3 <= 1
 0 <= Y557,4 <= 1
 0 <= Y557,5 <= 1
 0 <= Y557,6 <= 1
 0 <= Y558,0 <= 1
 0 <= Y558,1 <= 1
 0 <= Y558,2 <= 1
 0 <= Y558,3 <= 1
 0 <= Y558,4 <= 1
 0 <= Y558,5 <= 1
 0 <= Y558,6 <= 1
 0 <= Y559,0 <= 1
 0 <= Y559,1 <= 1
 0 <= Y559,2 <= 1
 0 <= Y559,3 <= 1
 0 <= Y559,4 <= 1
 0 <= Y559,5 <= 1
 0 <= Y559,6 <= 1
 0 <= Y560,0 <= 1
 0 <= Y560,1 <= 1
 0 <= Y560,2 <= 1
 0 <= Y560,3 <= 1
 0 <= Y560,4 <= 1
 0 <= Y560,5 <= 1
 0 <= Y560,6 <= 1
 0 <= Y561,0 <= 1
 0 <= Y561,1 <= 1
 0 <= Y561,2 <= 1
 0 <= Y561,3 <= 1
 0 <= Y561,4 <= 1
 0 <= Y561,5 <= 1
 0 <= Y561,6 <= 1
 0 <= Y562,0 <= 1
 0 <= Y562,1 <= 1
 0 <= Y562,2 <= 1
 0 <= Y562,3 <= 1
 0 <= Y562,4 <= 1
 0 <= Y562,5 <= 1
 0 <= Y562,6 <= 1
 0 <= Y563,0 <= 1
 0 <= Y563,1 <= 1
 0 <= Y563,2 <= 1
 0 <= Y563,3 <= 1
 0 <= Y563,4 <= 1
 0 <= Y563,5 <= 1
 0 <= Y563,6 <= 1
 0 <= Y564,0 <= 1
 0 <= Y564,1 <= 1
 0 <= Y564,2 <= 1
 0 <= Y564,3 <= 1
 0 <= Y564,4 <= 1
 0 <= Y564,5 <= 1
 0 <= Y564,6 <= 1
 0 <= Y565,0 <= 1
 0 <= Y565,1 <= 1
 0 <= Y565,2 <= 1
 0 <= Y565,3 <= 1
 0 <= Y565,4 <= 1
 0 <= Y565,5 <= 1
 0 <= Y565,6 <= 1
 0 <= Y566,0 <= 1
 0 <= Y566,1 <= 1
 0 <= Y566,2 <= 1
 0 <= Y566,3 <= 1
 0 <= Y566,4 <= 1
 0 <= Y566,5 <= 1
 0 <= Y566,6 <= 1
 0 <= Y567,0 <= 1
 0 <= Y567,1 <= 1
 0 <= Y567,2 <= 1
 0 <= Y567,3 <= 1
 0 <= Y567,4 <= 1
 0 <= Y567,5 <= 1
 0 <= Y567,6 <= 1
 0 <= Y568,0 <= 1
 0 <= Y568,1 <= 1
 0 <= Y568,2 <= 1
 0 <= Y568,3 <= 1
 0 <= Y568,4 <= 1
 0 <= Y568,5 <= 1
 0 <= Y568,6 <= 1
 0 <= Y569,0 <= 1
 0 <= Y569,1 <= 1
 0 <= Y569,2 <= 1
 0 <= Y569,3 <= 1
 0 <= Y569,4 <= 1
 0 <= Y569,5 <= 1
 0 <= Y569,6 <= 1
 0 <= Y570,0 <= 1
 0 <= Y570,1 <= 1
 0 <= Y570,2 <= 1
 0 <= Y570,3 <= 1
 0 <= Y570,4 <= 1
 0 <= Y570,5 <= 1
 0 <= Y570,6 <= 1
 0 <= Y571,0 <= 1
 0 <= Y571,1 <= 1
 0 <= Y571,2 <= 1
 0 <= Y571,3 <= 1
 0 <= Y571,4 <= 1
 0 <= Y571,5 <= 1
 0 <= Y571,6 <= 1
 0 <= Y572,0 <= 1
 0 <= Y572,1 <= 1
 0 <= Y572,2 <= 1
 0 <= Y572,3 <= 1
 0 <= Y572,4 <= 1
 0 <= Y572,5 <= 1
 0 <= Y572,6 <= 1
 0 <= Y573,0 <= 1
 0 <= Y573,1 <= 1
 0 <= Y573,2 <= 1
 0 <= Y573,3 <= 1
 0 <= Y573,4 <= 1
 0 <= Y573,5 <= 1
 0 <= Y573,6 <= 1
 0 <= Y574,0 <= 1
 0 <= Y574,1 <= 1
 0 <= Y574,2 <= 1
 0 <= Y574,3 <= 1
 0 <= Y574,4 <= 1
 0 <= Y574,5 <= 1
 0 <= Y574,6 <= 1
 0 <= Y575,0 <= 1
 0 <= Y575,1 <= 1
 0 <= Y575,2 <= 1
 0 <= Y575,3 <= 1
 0 <= Y575,4 <= 1
 0 <= Y575,5 <= 1
 0 <= Y575,6 <= 1
 0 <= Y576,0 <= 1
 0 <= Y576,1 <= 1
 0 <= Y576,2 <= 1
 0 <= Y576,3 <= 1
 0 <= Y576,4 <= 1
 0 <= Y576,5 <= 1
 0 <= Y576,6 <= 1
 0 <= Y577,0 <= 1
 0 <= Y577,1 <= 1
 0 <= Y577,2 <= 1
 0 <= Y577,3 <= 1
 0 <= Y577,4 <= 1
 0 <= Y577,5 <= 1
 0 <= Y577,6 <= 1
 0 <= Y578,0 <= 1
 0 <= Y578,1 <= 1
 0 <= Y578,2 <= 1
 0 <= Y578,3 <= 1
 0 <= Y578,4 <= 1
 0 <= Y578,5 <= 1
 0 <= Y578,6 <= 1
 0 <= Y579,0 <= 1
 0 <= Y579,1 <= 1
 0 <= Y579,2 <= 1
 0 <= Y579,3 <= 1
 0 <= Y579,4 <= 1
 0 <= Y579,5 <= 1
 0 <= Y579,6 <= 1
 0 <= Y580,0 <= 1
 0 <= Y580,1 <= 1
 0 <= Y580,2 <= 1
 0 <= Y580,3 <= 1
 0 <= Y580,4 <= 1
 0 <= Y580,5 <= 1
 0 <= Y580,6 <= 1
 0 <= Y581,0 <= 1
 0 <= Y581,1 <= 1
 0 <= Y581,2 <= 1
 0 <= Y581,3 <= 1
 0 <= Y581,4 <= 1
 0 <= Y581,5 <= 1
 0 <= Y581,6 <= 1
 0 <= Y582,0 <= 1
 0 <= Y582,1 <= 1
 0 <= Y582,2 <= 1
 0 <= Y582,3 <= 1
 0 <= Y582,4 <= 1
 0 <= Y582,5 <= 1
 0 <= Y582,6 <= 1
 0 <= Y583,0 <= 1
 0 <= Y583,1 <= 1
 0 <= Y583,2 <= 1
 0 <= Y583,3 <= 1
 0 <= Y583,4 <= 1
 0 <= Y583,5 <= 1
 0 <= Y583,6 <= 1
 0 <= Y584,0 <= 1
 0 <= Y584,1 <= 1
 0 <= Y584,2 <= 1
 0 <= Y584,3 <= 1
 0 <= Y584,4 <= 1
 0 <= Y584,5 <= 1
 0 <= Y584,6 <= 1
 0 <= Y585,0 <= 1
 0 <= Y585,1 <= 1
 0 <= Y585,2 <= 1
 0 <= Y585,3 <= 1
 0 <= Y585,4 <= 1
 0 <= Y585,5 <= 1
 0 <= Y585,6 <= 1
 0 <= Y586,0 <= 1
 0 <= Y586,1 <= 1
 0 <= Y586,2 <= 1
 0 <= Y586,3 <= 1
 0 <= Y586,4 <= 1
 0 <= Y586,5 <= 1
 0 <= Y586,6 <= 1
 0 <= Y587,0 <= 1
 0 <= Y587,1 <= 1
 0 <= Y587,2 <= 1
 0 <= Y587,3 <= 1
 0 <= Y587,4 <= 1
 0 <= Y587,5 <= 1
 0 <= Y587,6 <= 1
 0 <= Y588,0 <= 1
 0 <= Y588,1 <= 1
 0 <= Y588,2 <= 1
 0 <= Y588,3 <= 1
 0 <= Y588,4 <= 1
 0 <= Y588,5 <= 1
 0 <= Y588,6 <= 1
 0 <= Y589,0 <= 1
 0 <= Y589,1 <= 1
 0 <= Y589,2 <= 1
 0 <= Y589,3 <= 1
 0 <= Y589,4 <= 1
 0 <= Y589,5 <= 1
 0 <= Y589,6 <= 1
 0 <= Y590,0 <= 1
 0 <= Y590,1 <= 1
 0 <= Y590,2 <= 1
 0 <= Y590,3 <= 1
 0 <= Y590,4 <= 1
 0 <= Y590,5 <= 1
 0 <= Y590,6 <= 1
 0 <= Y591,0 <= 1
 0 <= Y591,1 <= 1
 0 <= Y591,2 <= 1
 0 <= Y591,3 <= 1
 0 <= Y591,4 <= 1
 0 <= Y591,5 <= 1
 0 <= Y591,6 <= 1
 0 <= Y592,0 <= 1
 0 <= Y592,1 <= 1
 0 <= Y592,2 <= 1
 0 <= Y592,3 <= 1
 0 <= Y592,4 <= 1
 0 <= Y592,5 <= 1
 0 <= Y592,6 <= 1
 0 <= Y593,0 <= 1
 0 <= Y593,1 <= 1
 0 <= Y593,2 <= 1
 0 <= Y593,3 <= 1
 0 <= Y593,4 <= 1
 0 <= Y593,5 <= 1
 0 <= Y593,6 <= 1
 0 <= Y594,0 <= 1
 0 <= Y594,1 <= 1
 0 <= Y594,2 <= 1
 0 <= Y594,3 <= 1
 0 <= Y594,4 <= 1
 0 <= Y594,5 <= 1
 0 <= Y594,6 <= 1
 0 <= Y595,0 <= 1
 0 <= Y595,1 <= 1
 0 <= Y595,2 <= 1
 0 <= Y595,3 <= 1
 0 <= Y595,4 <= 1
 0 <= Y595,5 <= 1
 0 <= Y595,6 <= 1
 0 <= Y596,0 <= 1
 0 <= Y596,1 <= 1
 0 <= Y596,2 <= 1
 0 <= Y596,3 <= 1
 0 <= Y596,4 <= 1
 0 <= Y596,5 <= 1
 0 <= Y596,6 <= 1
 0 <= Y597,0 <= 1
 0 <= Y597,1 <= 1
 0 <= Y597,2 <= 1
 0 <= Y597,3 <= 1
 0 <= Y597,4 <= 1
 0 <= Y597,5 <= 1
 0 <= Y597,6 <= 1
 0 <= Y598,0 <= 1
 0 <= Y598,1 <= 1
 0 <= Y598,2 <= 1
 0 <= Y598,3 <= 1
 0 <= Y598,4 <= 1
 0 <= Y598,5 <= 1
 0 <= Y598,6 <= 1
 0 <= Y599,0 <= 1
 0 <= Y599,1 <= 1
 0 <= Y599,2 <= 1
 0 <= Y599,3 <= 1
 0 <= Y599,4 <= 1
 0 <= Y599,5 <= 1
 0 <= Y599,6 <= 1
 0 <= Y600,0 <= 1
 0 <= Y600,1 <= 1
 0 <= Y600,2 <= 1
 0 <= Y600,3 <= 1
 0 <= Y600,4 <= 1
 0 <= Y600,5 <= 1
 0 <= Y600,6 <= 1
 0 <= Y601,0 <= 1
 0 <= Y601,1 <= 1
 0 <= Y601,2 <= 1
 0 <= Y601,3 <= 1
 0 <= Y601,4 <= 1
 0 <= Y601,5 <= 1
 0 <= Y601,6 <= 1
 0 <= Y602,0 <= 1
 0 <= Y602,1 <= 1
 0 <= Y602,2 <= 1
 0 <= Y602,3 <= 1
 0 <= Y602,4 <= 1
 0 <= Y602,5 <= 1
 0 <= Y602,6 <= 1
 0 <= Y603,0 <= 1
 0 <= Y603,1 <= 1
 0 <= Y603,2 <= 1
 0 <= Y603,3 <= 1
 0 <= Y603,4 <= 1
 0 <= Y603,5 <= 1
 0 <= Y603,6 <= 1
 0 <= Y604,0 <= 1
 0 <= Y604,1 <= 1
 0 <= Y604,2 <= 1
 0 <= Y604,3 <= 1
 0 <= Y604,4 <= 1
 0 <= Y604,5 <= 1
 0 <= Y604,6 <= 1
 0 <= Y605,0 <= 1
 0 <= Y605,1 <= 1
 0 <= Y605,2 <= 1
 0 <= Y605,3 <= 1
 0 <= Y605,4 <= 1
 0 <= Y605,5 <= 1
 0 <= Y605,6 <= 1
 0 <= Y606,0 <= 1
 0 <= Y606,1 <= 1
 0 <= Y606,2 <= 1
 0 <= Y606,3 <= 1
 0 <= Y606,4 <= 1
 0 <= Y606,5 <= 1
 0 <= Y606,6 <= 1
 0 <= Y607,0 <= 1
 0 <= Y607,1 <= 1
 0 <= Y607,2 <= 1
 0 <= Y607,3 <= 1
 0 <= Y607,4 <= 1
 0 <= Y607,5 <= 1
 0 <= Y607,6 <= 1
 0 <= Y608,0 <= 1
 0 <= Y608,1 <= 1
 0 <= Y608,2 <= 1
 0 <= Y608,3 <= 1
 0 <= Y608,4 <= 1
 0 <= Y608,5 <= 1
 0 <= Y608,6 <= 1
 0 <= Y609,0 <= 1
 0 <= Y609,1 <= 1
 0 <= Y609,2 <= 1
 0 <= Y609,3 <= 1
 0 <= Y609,4 <= 1
 0 <= Y609,5 <= 1
 0 <= Y609,6 <= 1
 0 <= Y610,0 <= 1
 0 <= Y610,1 <= 1
 0 <= Y610,2 <= 1
 0 <= Y610,3 <= 1
 0 <= Y610,4 <= 1
 0 <= Y610,5 <= 1
 0 <= Y610,6 <= 1
 0 <= Y611,0 <= 1
 0 <= Y611,1 <= 1
 0 <= Y611,2 <= 1
 0 <= Y611,3 <= 1
 0 <= Y611,4 <= 1
 0 <= Y611,5 <= 1
 0 <= Y611,6 <= 1
 0 <= Y612,0 <= 1
 0 <= Y612,1 <= 1
 0 <= Y612,2 <= 1
 0 <= Y612,3 <= 1
 0 <= Y612,4 <= 1
 0 <= Y612,5 <= 1
 0 <= Y612,6 <= 1
 0 <= Y613,0 <= 1
 0 <= Y613,1 <= 1
 0 <= Y613,2 <= 1
 0 <= Y613,3 <= 1
 0 <= Y613,4 <= 1
 0 <= Y613,5 <= 1
 0 <= Y613,6 <= 1
 0 <= Y614,0 <= 1
 0 <= Y614,1 <= 1
 0 <= Y614,2 <= 1
 0 <= Y614,3 <= 1
 0 <= Y614,4 <= 1
 0 <= Y614,5 <= 1
 0 <= Y614,6 <= 1
 0 <= Y615,0 <= 1
 0 <= Y615,1 <= 1
 0 <= Y615,2 <= 1
 0 <= Y615,3 <= 1
 0 <= Y615,4 <= 1
 0 <= Y615,5 <= 1
 0 <= Y615,6 <= 1
 0 <= Y616,0 <= 1
 0 <= Y616,1 <= 1
 0 <= Y616,2 <= 1
 0 <= Y616,3 <= 1
 0 <= Y616,4 <= 1
 0 <= Y616,5 <= 1
 0 <= Y616,6 <= 1
 0 <= Y617,0 <= 1
 0 <= Y617,1 <= 1
 0 <= Y617,2 <= 1
 0 <= Y617,3 <= 1
 0 <= Y617,4 <= 1
 0 <= Y617,5 <= 1
 0 <= Y617,6 <= 1
 0 <= Y618,0 <= 1
 0 <= Y618,1 <= 1
 0 <= Y618,2 <= 1
 0 <= Y618,3 <= 1
 0 <= Y618,4 <= 1
 0 <= Y618,5 <= 1
 0 <= Y618,6 <= 1
 0 <= Y619,0 <= 1
 0 <= Y619,1 <= 1
 0 <= Y619,2 <= 1
 0 <= Y619,3 <= 1
 0 <= Y619,4 <= 1
 0 <= Y619,5 <= 1
 0 <= Y619,6 <= 1
 0 <= Y620,0 <= 1
 0 <= Y620,1 <= 1
 0 <= Y620,2 <= 1
 0 <= Y620,3 <= 1
 0 <= Y620,4 <= 1
 0 <= Y620,5 <= 1
 0 <= Y620,6 <= 1
 0 <= Y621,0 <= 1
 0 <= Y621,1 <= 1
 0 <= Y621,2 <= 1
 0 <= Y621,3 <= 1
 0 <= Y621,4 <= 1
 0 <= Y621,5 <= 1
 0 <= Y621,6 <= 1
 0 <= Y622,0 <= 1
 0 <= Y622,1 <= 1
 0 <= Y622,2 <= 1
 0 <= Y622,3 <= 1
 0 <= Y622,4 <= 1
 0 <= Y622,5 <= 1
 0 <= Y622,6 <= 1
 0 <= Y623,0 <= 1
 0 <= Y623,1 <= 1
 0 <= Y623,2 <= 1
 0 <= Y623,3 <= 1
 0 <= Y623,4 <= 1
 0 <= Y623,5 <= 1
 0 <= Y623,6 <= 1
 0 <= Y624,0 <= 1
 0 <= Y624,1 <= 1
 0 <= Y624,2 <= 1
 0 <= Y624,3 <= 1
 0 <= Y624,4 <= 1
 0 <= Y624,5 <= 1
 0 <= Y624,6 <= 1
 0 <= Y625,0 <= 1
 0 <= Y625,1 <= 1
 0 <= Y625,2 <= 1
 0 <= Y625,3 <= 1
 0 <= Y625,4 <= 1
 0 <= Y625,5 <= 1
 0 <= Y625,6 <= 1
 0 <= Y626,0 <= 1
 0 <= Y626,1 <= 1
 0 <= Y626,2 <= 1
 0 <= Y626,3 <= 1
 0 <= Y626,4 <= 1
 0 <= Y626,5 <= 1
 0 <= Y626,6 <= 1
 0 <= Y627,0 <= 1
 0 <= Y627,1 <= 1
 0 <= Y627,2 <= 1
 0 <= Y627,3 <= 1
 0 <= Y627,4 <= 1
 0 <= Y627,5 <= 1
 0 <= Y627,6 <= 1
 0 <= Y628,0 <= 1
 0 <= Y628,1 <= 1
 0 <= Y628,2 <= 1
 0 <= Y628,3 <= 1
 0 <= Y628,4 <= 1
 0 <= Y628,5 <= 1
 0 <= Y628,6 <= 1
 0 <= Y629,0 <= 1
 0 <= Y629,1 <= 1
 0 <= Y629,2 <= 1
 0 <= Y629,3 <= 1
 0 <= Y629,4 <= 1
 0 <= Y629,5 <= 1
 0 <= Y629,6 <= 1
 0 <= Y630,0 <= 1
 0 <= Y630,1 <= 1
 0 <= Y630,2 <= 1
 0 <= Y630,3 <= 1
 0 <= Y630,4 <= 1
 0 <= Y630,5 <= 1
 0 <= Y630,6 <= 1
 0 <= Y631,0 <= 1
 0 <= Y631,1 <= 1
 0 <= Y631,2 <= 1
 0 <= Y631,3 <= 1
 0 <= Y631,4 <= 1
 0 <= Y631,5 <= 1
 0 <= Y631,6 <= 1
 0 <= Y632,0 <= 1
 0 <= Y632,1 <= 1
 0 <= Y632,2 <= 1
 0 <= Y632,3 <= 1
 0 <= Y632,4 <= 1
 0 <= Y632,5 <= 1
 0 <= Y632,6 <= 1
 0 <= Y633,0 <= 1
 0 <= Y633,1 <= 1
 0 <= Y633,2 <= 1
 0 <= Y633,3 <= 1
 0 <= Y633,4 <= 1
 0 <= Y633,5 <= 1
 0 <= Y633,6 <= 1
 0 <= Y634,0 <= 1
 0 <= Y634,1 <= 1
 0 <= Y634,2 <= 1
 0 <= Y634,3 <= 1
 0 <= Y634,4 <= 1
 0 <= Y634,5 <= 1
 0 <= Y634,6 <= 1
 0 <= Y635,0 <= 1
 0 <= Y635,1 <= 1
 0 <= Y635,2 <= 1
 0 <= Y635,3 <= 1
 0 <= Y635,4 <= 1
 0 <= Y635,5 <= 1
 0 <= Y635,6 <= 1
 0 <= Y636,0 <= 1
 0 <= Y636,1 <= 1
 0 <= Y636,2 <= 1
 0 <= Y636,3 <= 1
 0 <= Y636,4 <= 1
 0 <= Y636,5 <= 1
 0 <= Y636,6 <= 1
 0 <= Y637,0 <= 1
 0 <= Y637,1 <= 1
 0 <= Y637,2 <= 1
 0 <= Y637,3 <= 1
 0 <= Y637,4 <= 1
 0 <= Y637,5 <= 1
 0 <= Y637,6 <= 1
 0 <= Y638,0 <= 1
 0 <= Y638,1 <= 1
 0 <= Y638,2 <= 1
 0 <= Y638,3 <= 1
 0 <= Y638,4 <= 1
 0 <= Y638,5 <= 1
 0 <= Y638,6 <= 1
 0 <= Y639,0 <= 1
 0 <= Y639,1 <= 1
 0 <= Y639,2 <= 1
 0 <= Y639,3 <= 1
 0 <= Y639,4 <= 1
 0 <= Y639,5 <= 1
 0 <= Y639,6 <= 1
 0 <= Y640,0 <= 1
 0 <= Y640,1 <= 1
 0 <= Y640,2 <= 1
 0 <= Y640,3 <= 1
 0 <= Y640,4 <= 1
 0 <= Y640,5 <= 1
 0 <= Y640,6 <= 1
 0 <= Y641,0 <= 1
 0 <= Y641,1 <= 1
 0 <= Y641,2 <= 1
 0 <= Y641,3 <= 1
 0 <= Y641,4 <= 1
 0 <= Y641,5 <= 1
 0 <= Y641,6 <= 1
 0 <= Y642,0 <= 1
 0 <= Y642,1 <= 1
 0 <= Y642,2 <= 1
 0 <= Y642,3 <= 1
 0 <= Y642,4 <= 1
 0 <= Y642,5 <= 1
 0 <= Y642,6 <= 1
 0 <= Y643,0 <= 1
 0 <= Y643,1 <= 1
 0 <= Y643,2 <= 1
 0 <= Y643,3 <= 1
 0 <= Y643,4 <= 1
 0 <= Y643,5 <= 1
 0 <= Y643,6 <= 1
 0 <= Y644,0 <= 1
 0 <= Y644,1 <= 1
 0 <= Y644,2 <= 1
 0 <= Y644,3 <= 1
 0 <= Y644,4 <= 1
 0 <= Y644,5 <= 1
 0 <= Y644,6 <= 1
 0 <= Y645,0 <= 1
 0 <= Y645,1 <= 1
 0 <= Y645,2 <= 1
 0 <= Y645,3 <= 1
 0 <= Y645,4 <= 1
 0 <= Y645,5 <= 1
 0 <= Y645,6 <= 1
 0 <= Y646,0 <= 1
 0 <= Y646,1 <= 1
 0 <= Y646,2 <= 1
 0 <= Y646,3 <= 1
 0 <= Y646,4 <= 1
 0 <= Y646,5 <= 1
 0 <= Y646,6 <= 1
 0 <= Y647,0 <= 1
 0 <= Y647,1 <= 1
 0 <= Y647,2 <= 1
 0 <= Y647,3 <= 1
 0 <= Y647,4 <= 1
 0 <= Y647,5 <= 1
 0 <= Y647,6 <= 1
 0 <= Y648,0 <= 1
 0 <= Y648,1 <= 1
 0 <= Y648,2 <= 1
 0 <= Y648,3 <= 1
 0 <= Y648,4 <= 1
 0 <= Y648,5 <= 1
 0 <= Y648,6 <= 1
 0 <= Y649,0 <= 1
 0 <= Y649,1 <= 1
 0 <= Y649,2 <= 1
 0 <= Y649,3 <= 1
 0 <= Y649,4 <= 1
 0 <= Y649,5 <= 1
 0 <= Y649,6 <= 1
 0 <= Y650,0 <= 1
 0 <= Y650,1 <= 1
 0 <= Y650,2 <= 1
 0 <= Y650,3 <= 1
 0 <= Y650,4 <= 1
 0 <= Y650,5 <= 1
 0 <= Y650,6 <= 1
 0 <= Y651,0 <= 1
 0 <= Y651,1 <= 1
 0 <= Y651,2 <= 1
 0 <= Y651,3 <= 1
 0 <= Y651,4 <= 1
 0 <= Y651,5 <= 1
 0 <= Y651,6 <= 1
 0 <= Y652,0 <= 1
 0 <= Y652,1 <= 1
 0 <= Y652,2 <= 1
 0 <= Y652,3 <= 1
 0 <= Y652,4 <= 1
 0 <= Y652,5 <= 1
 0 <= Y652,6 <= 1
 0 <= Y653,0 <= 1
 0 <= Y653,1 <= 1
 0 <= Y653,2 <= 1
 0 <= Y653,3 <= 1
 0 <= Y653,4 <= 1
 0 <= Y653,5 <= 1
 0 <= Y653,6 <= 1
 0 <= Y654,0 <= 1
 0 <= Y654,1 <= 1
 0 <= Y654,2 <= 1
 0 <= Y654,3 <= 1
 0 <= Y654,4 <= 1
 0 <= Y654,5 <= 1
 0 <= Y654,6 <= 1
 0 <= Y655,0 <= 1
 0 <= Y655,1 <= 1
 0 <= Y655,2 <= 1
 0 <= Y655,3 <= 1
 0 <= Y655,4 <= 1
 0 <= Y655,5 <= 1
 0 <= Y655,6 <= 1
 0 <= Y656,0 <= 1
 0 <= Y656,1 <= 1
 0 <= Y656,2 <= 1
 0 <= Y656,3 <= 1
 0 <= Y656,4 <= 1
 0 <= Y656,5 <= 1
 0 <= Y656,6 <= 1
 0 <= Y657,0 <= 1
 0 <= Y657,1 <= 1
 0 <= Y657,2 <= 1
 0 <= Y657,3 <= 1
 0 <= Y657,4 <= 1
 0 <= Y657,5 <= 1
 0 <= Y657,6 <= 1
 0 <= Y658,0 <= 1
 0 <= Y658,1 <= 1
 0 <= Y658,2 <= 1
 0 <= Y658,3 <= 1
 0 <= Y658,4 <= 1
 0 <= Y658,5 <= 1
 0 <= Y658,6 <= 1
 0 <= Y659,0 <= 1
 0 <= Y659,1 <= 1
 0 <= Y659,2 <= 1
 0 <= Y659,3 <= 1
 0 <= Y659,4 <= 1
 0 <= Y659,5 <= 1
 0 <= Y659,6 <= 1
 0 <= Y660,0 <= 1
 0 <= Y660,1 <= 1
 0 <= Y660,2 <= 1
 0 <= Y660,3 <= 1
 0 <= Y660,4 <= 1
 0 <= Y660,5 <= 1
 0 <= Y660,6 <= 1
 0 <= Y661,0 <= 1
 0 <= Y661,1 <= 1
 0 <= Y661,2 <= 1
 0 <= Y661,3 <= 1
 0 <= Y661,4 <= 1
 0 <= Y661,5 <= 1
 0 <= Y661,6 <= 1
 0 <= Y662,0 <= 1
 0 <= Y662,1 <= 1
 0 <= Y662,2 <= 1
 0 <= Y662,3 <= 1
 0 <= Y662,4 <= 1
 0 <= Y662,5 <= 1
 0 <= Y662,6 <= 1
 0 <= Y663,0 <= 1
 0 <= Y663,1 <= 1
 0 <= Y663,2 <= 1
 0 <= Y663,3 <= 1
 0 <= Y663,4 <= 1
 0 <= Y663,5 <= 1
 0 <= Y663,6 <= 1
 0 <= Y664,0 <= 1
 0 <= Y664,1 <= 1
 0 <= Y664,2 <= 1
 0 <= Y664,3 <= 1
 0 <= Y664,4 <= 1
 0 <= Y664,5 <= 1
 0 <= Y664,6 <= 1
 0 <= Y665,0 <= 1
 0 <= Y665,1 <= 1
 0 <= Y665,2 <= 1
 0 <= Y665,3 <= 1
 0 <= Y665,4 <= 1
 0 <= Y665,5 <= 1
 0 <= Y665,6 <= 1
 0 <= Y666,0 <= 1
 0 <= Y666,1 <= 1
 0 <= Y666,2 <= 1
 0 <= Y666,3 <= 1
 0 <= Y666,4 <= 1
 0 <= Y666,5 <= 1
 0 <= Y666,6 <= 1
 0 <= Y667,0 <= 1
 0 <= Y667,1 <= 1
 0 <= Y667,2 <= 1
 0 <= Y667,3 <= 1
 0 <= Y667,4 <= 1
 0 <= Y667,5 <= 1
 0 <= Y667,6 <= 1
 0 <= Y668,0 <= 1
 0 <= Y668,1 <= 1
 0 <= Y668,2 <= 1
 0 <= Y668,3 <= 1
 0 <= Y668,4 <= 1
 0 <= Y668,5 <= 1
 0 <= Y668,6 <= 1
 0 <= Y669,0 <= 1
 0 <= Y669,1 <= 1
 0 <= Y669,2 <= 1
 0 <= Y669,3 <= 1
 0 <= Y669,4 <= 1
 0 <= Y669,5 <= 1
 0 <= Y669,6 <= 1
 0 <= Y670,0 <= 1
 0 <= Y670,1 <= 1
 0 <= Y670,2 <= 1
 0 <= Y670,3 <= 1
 0 <= Y670,4 <= 1
 0 <= Y670,5 <= 1
 0 <= Y670,6 <= 1
 0 <= Y671,0 <= 1
 0 <= Y671,1 <= 1
 0 <= Y671,2 <= 1
 0 <= Y671,3 <= 1
 0 <= Y671,4 <= 1
 0 <= Y671,5 <= 1
 0 <= Y671,6 <= 1
 0 <= Y672,0 <= 1
 0 <= Y672,1 <= 1
 0 <= Y672,2 <= 1
 0 <= Y672,3 <= 1
 0 <= Y672,4 <= 1
 0 <= Y672,5 <= 1
 0 <= Y672,6 <= 1
 0 <= Y673,0 <= 1
 0 <= Y673,1 <= 1
 0 <= Y673,2 <= 1
 0 <= Y673,3 <= 1
 0 <= Y673,4 <= 1
 0 <= Y673,5 <= 1
 0 <= Y673,6 <= 1
 0 <= Y674,0 <= 1
 0 <= Y674,1 <= 1
 0 <= Y674,2 <= 1
 0 <= Y674,3 <= 1
 0 <= Y674,4 <= 1
 0 <= Y674,5 <= 1
 0 <= Y674,6 <= 1
 0 <= Y675,0 <= 1
 0 <= Y675,1 <= 1
 0 <= Y675,2 <= 1
 0 <= Y675,3 <= 1
 0 <= Y675,4 <= 1
 0 <= Y675,5 <= 1
 0 <= Y675,6 <= 1
 0 <= Y676,0 <= 1
 0 <= Y676,1 <= 1
 0 <= Y676,2 <= 1
 0 <= Y676,3 <= 1
 0 <= Y676,4 <= 1
 0 <= Y676,5 <= 1
 0 <= Y676,6 <= 1
 0 <= Y677,0 <= 1
 0 <= Y677,1 <= 1
 0 <= Y677,2 <= 1
 0 <= Y677,3 <= 1
 0 <= Y677,4 <= 1
 0 <= Y677,5 <= 1
 0 <= Y677,6 <= 1
 0 <= Y678,0 <= 1
 0 <= Y678,1 <= 1
 0 <= Y678,2 <= 1
 0 <= Y678,3 <= 1
 0 <= Y678,4 <= 1
 0 <= Y678,5 <= 1
 0 <= Y678,6 <= 1
 0 <= Y679,0 <= 1
 0 <= Y679,1 <= 1
 0 <= Y679,2 <= 1
 0 <= Y679,3 <= 1
 0 <= Y679,4 <= 1
 0 <= Y679,5 <= 1
 0 <= Y679,6 <= 1
 0 <= Y680,0 <= 1
 0 <= Y680,1 <= 1
 0 <= Y680,2 <= 1
 0 <= Y680,3 <= 1
 0 <= Y680,4 <= 1
 0 <= Y680,5 <= 1
 0 <= Y680,6 <= 1
 0 <= Y681,0 <= 1
 0 <= Y681,1 <= 1
 0 <= Y681,2 <= 1
 0 <= Y681,3 <= 1
 0 <= Y681,4 <= 1
 0 <= Y681,5 <= 1
 0 <= Y681,6 <= 1
 0 <= Y682,0 <= 1
 0 <= Y682,1 <= 1
 0 <= Y682,2 <= 1
 0 <= Y682,3 <= 1
 0 <= Y682,4 <= 1
 0 <= Y682,5 <= 1
 0 <= Y682,6 <= 1
 0 <= Y683,0 <= 1
 0 <= Y683,1 <= 1
 0 <= Y683,2 <= 1
 0 <= Y683,3 <= 1
 0 <= Y683,4 <= 1
 0 <= Y683,5 <= 1
 0 <= Y683,6 <= 1
 0 <= Y684,0 <= 1
 0 <= Y684,1 <= 1
 0 <= Y684,2 <= 1
 0 <= Y684,3 <= 1
 0 <= Y684,4 <= 1
 0 <= Y684,5 <= 1
 0 <= Y684,6 <= 1
 0 <= Y685,0 <= 1
 0 <= Y685,1 <= 1
 0 <= Y685,2 <= 1
 0 <= Y685,3 <= 1
 0 <= Y685,4 <= 1
 0 <= Y685,5 <= 1
 0 <= Y685,6 <= 1
 0 <= Y686,0 <= 1
 0 <= Y686,1 <= 1
 0 <= Y686,2 <= 1
 0 <= Y686,3 <= 1
 0 <= Y686,4 <= 1
 0 <= Y686,5 <= 1
 0 <= Y686,6 <= 1
 0 <= Y687,0 <= 1
 0 <= Y687,1 <= 1
 0 <= Y687,2 <= 1
 0 <= Y687,3 <= 1
 0 <= Y687,4 <= 1
 0 <= Y687,5 <= 1
 0 <= Y687,6 <= 1
 0 <= Y688,0 <= 1
 0 <= Y688,1 <= 1
 0 <= Y688,2 <= 1
 0 <= Y688,3 <= 1
 0 <= Y688,4 <= 1
 0 <= Y688,5 <= 1
 0 <= Y688,6 <= 1
 0 <= Y689,0 <= 1
 0 <= Y689,1 <= 1
 0 <= Y689,2 <= 1
 0 <= Y689,3 <= 1
 0 <= Y689,4 <= 1
 0 <= Y689,5 <= 1
 0 <= Y689,6 <= 1
 0 <= Y690,0 <= 1
 0 <= Y690,1 <= 1
 0 <= Y690,2 <= 1
 0 <= Y690,3 <= 1
 0 <= Y690,4 <= 1
 0 <= Y690,5 <= 1
 0 <= Y690,6 <= 1
 0 <= Y691,0 <= 1
 0 <= Y691,1 <= 1
 0 <= Y691,2 <= 1
 0 <= Y691,3 <= 1
 0 <= Y691,4 <= 1
 0 <= Y691,5 <= 1
 0 <= Y691,6 <= 1
 0 <= Y692,0 <= 1
 0 <= Y692,1 <= 1
 0 <= Y692,2 <= 1
 0 <= Y692,3 <= 1
 0 <= Y692,4 <= 1
 0 <= Y692,5 <= 1
 0 <= Y692,6 <= 1
 0 <= Y693,0 <= 1
 0 <= Y693,1 <= 1
 0 <= Y693,2 <= 1
 0 <= Y693,3 <= 1
 0 <= Y693,4 <= 1
 0 <= Y693,5 <= 1
 0 <= Y693,6 <= 1
 0 <= Y694,0 <= 1
 0 <= Y694,1 <= 1
 0 <= Y694,2 <= 1
 0 <= Y694,3 <= 1
 0 <= Y694,4 <= 1
 0 <= Y694,5 <= 1
 0 <= Y694,6 <= 1
 0 <= Y695,0 <= 1
 0 <= Y695,1 <= 1
 0 <= Y695,2 <= 1
 0 <= Y695,3 <= 1
 0 <= Y695,4 <= 1
 0 <= Y695,5 <= 1
 0 <= Y695,6 <= 1
 0 <= Y696,0 <= 1
 0 <= Y696,1 <= 1
 0 <= Y696,2 <= 1
 0 <= Y696,3 <= 1
 0 <= Y696,4 <= 1
 0 <= Y696,5 <= 1
 0 <= Y696,6 <= 1
 0 <= Y697,0 <= 1
 0 <= Y697,1 <= 1
 0 <= Y697,2 <= 1
 0 <= Y697,3 <= 1
 0 <= Y697,4 <= 1
 0 <= Y697,5 <= 1
 0 <= Y697,6 <= 1
 0 <= Y698,0 <= 1
 0 <= Y698,1 <= 1
 0 <= Y698,2 <= 1
 0 <= Y698,3 <= 1
 0 <= Y698,4 <= 1
 0 <= Y698,5 <= 1
 0 <= Y698,6 <= 1
 0 <= Y699,0 <= 1
 0 <= Y699,1 <= 1
 0 <= Y699,2 <= 1
 0 <= Y699,3 <= 1
 0 <= Y699,4 <= 1
 0 <= Y699,5 <= 1
 0 <= Y699,6 <= 1
 0 <= Y700,0 <= 1
 0 <= Y700,1 <= 1
 0 <= Y700,2 <= 1
 0 <= Y700,3 <= 1
 0 <= Y700,4 <= 1
 0 <= Y700,5 <= 1
 0 <= Y700,6 <= 1
 0 <= Y701,0 <= 1
 0 <= Y701,1 <= 1
 0 <= Y701,2 <= 1
 0 <= Y701,3 <= 1
 0 <= Y701,4 <= 1
 0 <= Y701,5 <= 1
 0 <= Y701,6 <= 1
 0 <= Y702,0 <= 1
 0 <= Y702,1 <= 1
 0 <= Y702,2 <= 1
 0 <= Y702,3 <= 1
 0 <= Y702,4 <= 1
 0 <= Y702,5 <= 1
 0 <= Y702,6 <= 1
 0 <= Y703,0 <= 1
 0 <= Y703,1 <= 1
 0 <= Y703,2 <= 1
 0 <= Y703,3 <= 1
 0 <= Y703,4 <= 1
 0 <= Y703,5 <= 1
 0 <= Y703,6 <= 1
 0 <= Y704,0 <= 1
 0 <= Y704,1 <= 1
 0 <= Y704,2 <= 1
 0 <= Y704,3 <= 1
 0 <= Y704,4 <= 1
 0 <= Y704,5 <= 1
 0 <= Y704,6 <= 1
 0 <= Y705,0 <= 1
 0 <= Y705,1 <= 1
 0 <= Y705,2 <= 1
 0 <= Y705,3 <= 1
 0 <= Y705,4 <= 1
 0 <= Y705,5 <= 1
 0 <= Y705,6 <= 1
 0 <= Y706,0 <= 1
 0 <= Y706,1 <= 1
 0 <= Y706,2 <= 1
 0 <= Y706,3 <= 1
 0 <= Y706,4 <= 1
 0 <= Y706,5 <= 1
 0 <= Y706,6 <= 1
 0 <= Y707,0 <= 1
 0 <= Y707,1 <= 1
 0 <= Y707,2 <= 1
 0 <= Y707,3 <= 1
 0 <= Y707,4 <= 1
 0 <= Y707,5 <= 1
 0 <= Y707,6 <= 1
 0 <= Y708,0 <= 1
 0 <= Y708,1 <= 1
 0 <= Y708,2 <= 1
 0 <= Y708,3 <= 1
 0 <= Y708,4 <= 1
 0 <= Y708,5 <= 1
 0 <= Y708,6 <= 1
 0 <= Y709,0 <= 1
 0 <= Y709,1 <= 1
 0 <= Y709,2 <= 1
 0 <= Y709,3 <= 1
 0 <= Y709,4 <= 1
 0 <= Y709,5 <= 1
 0 <= Y709,6 <= 1
 0 <= Y710,0 <= 1
 0 <= Y710,1 <= 1
 0 <= Y710,2 <= 1
 0 <= Y710,3 <= 1
 0 <= Y710,4 <= 1
 0 <= Y710,5 <= 1
 0 <= Y710,6 <= 1
 0 <= Y711,0 <= 1
 0 <= Y711,1 <= 1
 0 <= Y711,2 <= 1
 0 <= Y711,3 <= 1
 0 <= Y711,4 <= 1
 0 <= Y711,5 <= 1
 0 <= Y711,6 <= 1
 0 <= Y712,0 <= 1
 0 <= Y712,1 <= 1
 0 <= Y712,2 <= 1
 0 <= Y712,3 <= 1
 0 <= Y712,4 <= 1
 0 <= Y712,5 <= 1
 0 <= Y712,6 <= 1
 0 <= Y713,0 <= 1
 0 <= Y713,1 <= 1
 0 <= Y713,2 <= 1
 0 <= Y713,3 <= 1
 0 <= Y713,4 <= 1
 0 <= Y713,5 <= 1
 0 <= Y713,6 <= 1
 0 <= Y714,0 <= 1
 0 <= Y714,1 <= 1
 0 <= Y714,2 <= 1
 0 <= Y714,3 <= 1
 0 <= Y714,4 <= 1
 0 <= Y714,5 <= 1
 0 <= Y714,6 <= 1
 0 <= Y715,0 <= 1
 0 <= Y715,1 <= 1
 0 <= Y715,2 <= 1
 0 <= Y715,3 <= 1
 0 <= Y715,4 <= 1
 0 <= Y715,5 <= 1
 0 <= Y715,6 <= 1
 0 <= Y716,0 <= 1
 0 <= Y716,1 <= 1
 0 <= Y716,2 <= 1
 0 <= Y716,3 <= 1
 0 <= Y716,4 <= 1
 0 <= Y716,5 <= 1
 0 <= Y716,6 <= 1
 0 <= Y717,0 <= 1
 0 <= Y717,1 <= 1
 0 <= Y717,2 <= 1
 0 <= Y717,3 <= 1
 0 <= Y717,4 <= 1
 0 <= Y717,5 <= 1
 0 <= Y717,6 <= 1
 0 <= Y718,0 <= 1
 0 <= Y718,1 <= 1
 0 <= Y718,2 <= 1
 0 <= Y718,3 <= 1
 0 <= Y718,4 <= 1
 0 <= Y718,5 <= 1
 0 <= Y718,6 <= 1
 0 <= Y719,0 <= 1
 0 <= Y719,1 <= 1
 0 <= Y719,2 <= 1
 0 <= Y719,3 <= 1
 0 <= Y719,4 <= 1
 0 <= Y719,5 <= 1
 0 <= Y719,6 <= 1
 0 <= Y720,0 <= 1
 0 <= Y720,1 <= 1
 0 <= Y720,2 <= 1
 0 <= Y720,3 <= 1
 0 <= Y720,4 <= 1
 0 <= Y720,5 <= 1
 0 <= Y720,6 <= 1
 0 <= Y721,0 <= 1
 0 <= Y721,1 <= 1
 0 <= Y721,2 <= 1
 0 <= Y721,3 <= 1
 0 <= Y721,4 <= 1
 0 <= Y721,5 <= 1
 0 <= Y721,6 <= 1
 0 <= Y722,0 <= 1
 0 <= Y722,1 <= 1
 0 <= Y722,2 <= 1
 0 <= Y722,3 <= 1
 0 <= Y722,4 <= 1
 0 <= Y722,5 <= 1
 0 <= Y722,6 <= 1
 0 <= Y723,0 <= 1
 0 <= Y723,1 <= 1
 0 <= Y723,2 <= 1
 0 <= Y723,3 <= 1
 0 <= Y723,4 <= 1
 0 <= Y723,5 <= 1
 0 <= Y723,6 <= 1
 0 <= Y724,0 <= 1
 0 <= Y724,1 <= 1
 0 <= Y724,2 <= 1
 0 <= Y724,3 <= 1
 0 <= Y724,4 <= 1
 0 <= Y724,5 <= 1
 0 <= Y724,6 <= 1
 0 <= Y725,0 <= 1
 0 <= Y725,1 <= 1
 0 <= Y725,2 <= 1
 0 <= Y725,3 <= 1
 0 <= Y725,4 <= 1
 0 <= Y725,5 <= 1
 0 <= Y725,6 <= 1
 0 <= Y726,0 <= 1
 0 <= Y726,1 <= 1
 0 <= Y726,2 <= 1
 0 <= Y726,3 <= 1
 0 <= Y726,4 <= 1
 0 <= Y726,5 <= 1
 0 <= Y726,6 <= 1
 0 <= Y727,0 <= 1
 0 <= Y727,1 <= 1
 0 <= Y727,2 <= 1
 0 <= Y727,3 <= 1
 0 <= Y727,4 <= 1
 0 <= Y727,5 <= 1
 0 <= Y727,6 <= 1
 0 <= Y728,0 <= 1
 0 <= Y728,1 <= 1
 0 <= Y728,2 <= 1
 0 <= Y728,3 <= 1
 0 <= Y728,4 <= 1
 0 <= Y728,5 <= 1
 0 <= Y728,6 <= 1
 0 <= Y729,0 <= 1
 0 <= Y729,1 <= 1
 0 <= Y729,2 <= 1
 0 <= Y729,3 <= 1
 0 <= Y729,4 <= 1
 0 <= Y729,5 <= 1
 0 <= Y729,6 <= 1
 0 <= Y730,0 <= 1
 0 <= Y730,1 <= 1
 0 <= Y730,2 <= 1
 0 <= Y730,3 <= 1
 0 <= Y730,4 <= 1
 0 <= Y730,5 <= 1
 0 <= Y730,6 <= 1
 0 <= Y731,0 <= 1
 0 <= Y731,1 <= 1
 0 <= Y731,2 <= 1
 0 <= Y731,3 <= 1
 0 <= Y731,4 <= 1
 0 <= Y731,5 <= 1
 0 <= Y731,6 <= 1
 0 <= Y732,0 <= 1
 0 <= Y732,1 <= 1
 0 <= Y732,2 <= 1
 0 <= Y732,3 <= 1
 0 <= Y732,4 <= 1
 0 <= Y732,5 <= 1
 0 <= Y732,6 <= 1
 0 <= Y733,0 <= 1
 0 <= Y733,1 <= 1
 0 <= Y733,2 <= 1
 0 <= Y733,3 <= 1
 0 <= Y733,4 <= 1
 0 <= Y733,5 <= 1
 0 <= Y733,6 <= 1
 0 <= Y734,0 <= 1
 0 <= Y734,1 <= 1
 0 <= Y734,2 <= 1
 0 <= Y734,3 <= 1
 0 <= Y734,4 <= 1
 0 <= Y734,5 <= 1
 0 <= Y734,6 <= 1
 0 <= Y735,0 <= 1
 0 <= Y735,1 <= 1
 0 <= Y735,2 <= 1
 0 <= Y735,3 <= 1
 0 <= Y735,4 <= 1
 0 <= Y735,5 <= 1
 0 <= Y735,6 <= 1
 0 <= Y736,0 <= 1
 0 <= Y736,1 <= 1
 0 <= Y736,2 <= 1
 0 <= Y736,3 <= 1
 0 <= Y736,4 <= 1
 0 <= Y736,5 <= 1
 0 <= Y736,6 <= 1
 0 <= Y737,0 <= 1
 0 <= Y737,1 <= 1
 0 <= Y737,2 <= 1
 0 <= Y737,3 <= 1
 0 <= Y737,4 <= 1
 0 <= Y737,5 <= 1
 0 <= Y737,6 <= 1
 0 <= Y738,0 <= 1
 0 <= Y738,1 <= 1
 0 <= Y738,2 <= 1
 0 <= Y738,3 <= 1
 0 <= Y738,4 <= 1
 0 <= Y738,5 <= 1
 0 <= Y738,6 <= 1
 0 <= Y739,0 <= 1
 0 <= Y739,1 <= 1
 0 <= Y739,2 <= 1
 0 <= Y739,3 <= 1
 0 <= Y739,4 <= 1
 0 <= Y739,5 <= 1
 0 <= Y739,6 <= 1
 0 <= Y740,0 <= 1
 0 <= Y740,1 <= 1
 0 <= Y740,2 <= 1
 0 <= Y740,3 <= 1
 0 <= Y740,4 <= 1
 0 <= Y740,5 <= 1
 0 <= Y740,6 <= 1
 0 <= Y741,0 <= 1
 0 <= Y741,1 <= 1
 0 <= Y741,2 <= 1
 0 <= Y741,3 <= 1
 0 <= Y741,4 <= 1
 0 <= Y741,5 <= 1
 0 <= Y741,6 <= 1
 0 <= Y742,0 <= 1
 0 <= Y742,1 <= 1
 0 <= Y742,2 <= 1
 0 <= Y742,3 <= 1
 0 <= Y742,4 <= 1
 0 <= Y742,5 <= 1
 0 <= Y742,6 <= 1
 0 <= Y743,0 <= 1
 0 <= Y743,1 <= 1
 0 <= Y743,2 <= 1
 0 <= Y743,3 <= 1
 0 <= Y743,4 <= 1
 0 <= Y743,5 <= 1
 0 <= Y743,6 <= 1
 0 <= Y744,0 <= 1
 0 <= Y744,1 <= 1
 0 <= Y744,2 <= 1
 0 <= Y744,3 <= 1
 0 <= Y744,4 <= 1
 0 <= Y744,5 <= 1
 0 <= Y744,6 <= 1
 0 <= Y745,0 <= 1
 0 <= Y745,1 <= 1
 0 <= Y745,2 <= 1
 0 <= Y745,3 <= 1
 0 <= Y745,4 <= 1
 0 <= Y745,5 <= 1
 0 <= Y745,6 <= 1
 0 <= Y746,0 <= 1
 0 <= Y746,1 <= 1
 0 <= Y746,2 <= 1
 0 <= Y746,3 <= 1
 0 <= Y746,4 <= 1
 0 <= Y746,5 <= 1
 0 <= Y746,6 <= 1
 0 <= Y747,0 <= 1
 0 <= Y747,1 <= 1
 0 <= Y747,2 <= 1
 0 <= Y747,3 <= 1
 0 <= Y747,4 <= 1
 0 <= Y747,5 <= 1
 0 <= Y747,6 <= 1
 0 <= Y748,0 <= 1
 0 <= Y748,1 <= 1
 0 <= Y748,2 <= 1
 0 <= Y748,3 <= 1
 0 <= Y748,4 <= 1
 0 <= Y748,5 <= 1
 0 <= Y748,6 <= 1
 0 <= Y749,0 <= 1
 0 <= Y749,1 <= 1
 0 <= Y749,2 <= 1
 0 <= Y749,3 <= 1
 0 <= Y749,4 <= 1
 0 <= Y749,5 <= 1
 0 <= Y749,6 <= 1
 0 <= Y750,0 <= 1
 0 <= Y750,1 <= 1
 0 <= Y750,2 <= 1
 0 <= Y750,3 <= 1
 0 <= Y750,4 <= 1
 0 <= Y750,5 <= 1
 0 <= Y750,6 <= 1
 0 <= Y751,0 <= 1
 0 <= Y751,1 <= 1
 0 <= Y751,2 <= 1
 0 <= Y751,3 <= 1
 0 <= Y751,4 <= 1
 0 <= Y751,5 <= 1
 0 <= Y751,6 <= 1
 0 <= Y752,0 <= 1
 0 <= Y752,1 <= 1
 0 <= Y752,2 <= 1
 0 <= Y752,3 <= 1
 0 <= Y752,4 <= 1
 0 <= Y752,5 <= 1
 0 <= Y752,6 <= 1
 0 <= Y753,0 <= 1
 0 <= Y753,1 <= 1
 0 <= Y753,2 <= 1
 0 <= Y753,3 <= 1
 0 <= Y753,4 <= 1
 0 <= Y753,5 <= 1
 0 <= Y753,6 <= 1
 0 <= Y754,0 <= 1
 0 <= Y754,1 <= 1
 0 <= Y754,2 <= 1
 0 <= Y754,3 <= 1
 0 <= Y754,4 <= 1
 0 <= Y754,5 <= 1
 0 <= Y754,6 <= 1
 0 <= Y755,0 <= 1
 0 <= Y755,1 <= 1
 0 <= Y755,2 <= 1
 0 <= Y755,3 <= 1
 0 <= Y755,4 <= 1
 0 <= Y755,5 <= 1
 0 <= Y755,6 <= 1
 0 <= Y756,0 <= 1
 0 <= Y756,1 <= 1
 0 <= Y756,2 <= 1
 0 <= Y756,3 <= 1
 0 <= Y756,4 <= 1
 0 <= Y756,5 <= 1
 0 <= Y756,6 <= 1
 0 <= Y757,0 <= 1
 0 <= Y757,1 <= 1
 0 <= Y757,2 <= 1
 0 <= Y757,3 <= 1
 0 <= Y757,4 <= 1
 0 <= Y757,5 <= 1
 0 <= Y757,6 <= 1
 0 <= Y758,0 <= 1
 0 <= Y758,1 <= 1
 0 <= Y758,2 <= 1
 0 <= Y758,3 <= 1
 0 <= Y758,4 <= 1
 0 <= Y758,5 <= 1
 0 <= Y758,6 <= 1
 0 <= Y759,0 <= 1
 0 <= Y759,1 <= 1
 0 <= Y759,2 <= 1
 0 <= Y759,3 <= 1
 0 <= Y759,4 <= 1
 0 <= Y759,5 <= 1
 0 <= Y759,6 <= 1
 0 <= Y760,0 <= 1
 0 <= Y760,1 <= 1
 0 <= Y760,2 <= 1
 0 <= Y760,3 <= 1
 0 <= Y760,4 <= 1
 0 <= Y760,5 <= 1
 0 <= Y760,6 <= 1
 0 <= Y761,0 <= 1
 0 <= Y761,1 <= 1
 0 <= Y761,2 <= 1
 0 <= Y761,3 <= 1
 0 <= Y761,4 <= 1
 0 <= Y761,5 <= 1
 0 <= Y761,6 <= 1
 0 <= Y762,0 <= 1
 0 <= Y762,1 <= 1
 0 <= Y762,2 <= 1
 0 <= Y762,3 <= 1
 0 <= Y762,4 <= 1
 0 <= Y762,5 <= 1
 0 <= Y762,6 <= 1
 0 <= Y763,0 <= 1
 0 <= Y763,1 <= 1
 0 <= Y763,2 <= 1
 0 <= Y763,3 <= 1
 0 <= Y763,4 <= 1
 0 <= Y763,5 <= 1
 0 <= Y763,6 <= 1
 0 <= Y764,0 <= 1
 0 <= Y764,1 <= 1
 0 <= Y764,2 <= 1
 0 <= Y764,3 <= 1
 0 <= Y764,4 <= 1
 0 <= Y764,5 <= 1
 0 <= Y764,6 <= 1
 0 <= Y765,0 <= 1
 0 <= Y765,1 <= 1
 0 <= Y765,2 <= 1
 0 <= Y765,3 <= 1
 0 <= Y765,4 <= 1
 0 <= Y765,5 <= 1
 0 <= Y765,6 <= 1
 0 <= Y766,0 <= 1
 0 <= Y766,1 <= 1
 0 <= Y766,2 <= 1
 0 <= Y766,3 <= 1
 0 <= Y766,4 <= 1
 0 <= Y766,5 <= 1
 0 <= Y766,6 <= 1
 0 <= Y767,0 <= 1
 0 <= Y767,1 <= 1
 0 <= Y767,2 <= 1
 0 <= Y767,3 <= 1
 0 <= Y767,4 <= 1
 0 <= Y767,5 <= 1
 0 <= Y767,6 <= 1
 0 <= Y768,0 <= 1
 0 <= Y768,1 <= 1
 0 <= Y768,2 <= 1
 0 <= Y768,3 <= 1
 0 <= Y768,4 <= 1
 0 <= Y768,5 <= 1
 0 <= Y768,6 <= 1
 0 <= Y769,0 <= 1
 0 <= Y769,1 <= 1
 0 <= Y769,2 <= 1
 0 <= Y769,3 <= 1
 0 <= Y769,4 <= 1
 0 <= Y769,5 <= 1
 0 <= Y769,6 <= 1
 0 <= Y770,0 <= 1
 0 <= Y770,1 <= 1
 0 <= Y770,2 <= 1
 0 <= Y770,3 <= 1
 0 <= Y770,4 <= 1
 0 <= Y770,5 <= 1
 0 <= Y770,6 <= 1
 0 <= Y771,0 <= 1
 0 <= Y771,1 <= 1
 0 <= Y771,2 <= 1
 0 <= Y771,3 <= 1
 0 <= Y771,4 <= 1
 0 <= Y771,5 <= 1
 0 <= Y771,6 <= 1
 0 <= Y772,0 <= 1
 0 <= Y772,1 <= 1
 0 <= Y772,2 <= 1
 0 <= Y772,3 <= 1
 0 <= Y772,4 <= 1
 0 <= Y772,5 <= 1
 0 <= Y772,6 <= 1
 0 <= Y773,0 <= 1
 0 <= Y773,1 <= 1
 0 <= Y773,2 <= 1
 0 <= Y773,3 <= 1
 0 <= Y773,4 <= 1
 0 <= Y773,5 <= 1
 0 <= Y773,6 <= 1
 0 <= Y774,0 <= 1
 0 <= Y774,1 <= 1
 0 <= Y774,2 <= 1
 0 <= Y774,3 <= 1
 0 <= Y774,4 <= 1
 0 <= Y774,5 <= 1
 0 <= Y774,6 <= 1
 0 <= Y775,0 <= 1
 0 <= Y775,1 <= 1
 0 <= Y775,2 <= 1
 0 <= Y775,3 <= 1
 0 <= Y775,4 <= 1
 0 <= Y775,5 <= 1
 0 <= Y775,6 <= 1
 0 <= Y776,0 <= 1
 0 <= Y776,1 <= 1
 0 <= Y776,2 <= 1
 0 <= Y776,3 <= 1
 0 <= Y776,4 <= 1
 0 <= Y776,5 <= 1
 0 <= Y776,6 <= 1
 0 <= Y777,0 <= 1
 0 <= Y777,1 <= 1
 0 <= Y777,2 <= 1
 0 <= Y777,3 <= 1
 0 <= Y777,4 <= 1
 0 <= Y777,5 <= 1
 0 <= Y777,6 <= 1
 0 <= Y778,0 <= 1
 0 <= Y778,1 <= 1
 0 <= Y778,2 <= 1
 0 <= Y778,3 <= 1
 0 <= Y778,4 <= 1
 0 <= Y778,5 <= 1
 0 <= Y778,6 <= 1
 0 <= Y779,0 <= 1
 0 <= Y779,1 <= 1
 0 <= Y779,2 <= 1
 0 <= Y779,3 <= 1
 0 <= Y779,4 <= 1
 0 <= Y779,5 <= 1
 0 <= Y779,6 <= 1
 0 <= Y780,0 <= 1
 0 <= Y780,1 <= 1
 0 <= Y780,2 <= 1
 0 <= Y780,3 <= 1
 0 <= Y780,4 <= 1
 0 <= Y780,5 <= 1
 0 <= Y780,6 <= 1
 0 <= Y781,0 <= 1
 0 <= Y781,1 <= 1
 0 <= Y781,2 <= 1
 0 <= Y781,3 <= 1
 0 <= Y781,4 <= 1
 0 <= Y781,5 <= 1
 0 <= Y781,6 <= 1
 0 <= Y782,0 <= 1
 0 <= Y782,1 <= 1
 0 <= Y782,2 <= 1
 0 <= Y782,3 <= 1
 0 <= Y782,4 <= 1
 0 <= Y782,5 <= 1
 0 <= Y782,6 <= 1
 0 <= Y783,0 <= 1
 0 <= Y783,1 <= 1
 0 <= Y783,2 <= 1
 0 <= Y783,3 <= 1
 0 <= Y783,4 <= 1
 0 <= Y783,5 <= 1
 0 <= Y783,6 <= 1
 0 <= Y784,0 <= 1
 0 <= Y784,1 <= 1
 0 <= Y784,2 <= 1
 0 <= Y784,3 <= 1
 0 <= Y784,4 <= 1
 0 <= Y784,5 <= 1
 0 <= Y784,6 <= 1
 0 <= Y785,0 <= 1
 0 <= Y785,1 <= 1
 0 <= Y785,2 <= 1
 0 <= Y785,3 <= 1
 0 <= Y785,4 <= 1
 0 <= Y785,5 <= 1
 0 <= Y785,6 <= 1
 0 <= Y786,0 <= 1
 0 <= Y786,1 <= 1
 0 <= Y786,2 <= 1
 0 <= Y786,3 <= 1
 0 <= Y786,4 <= 1
 0 <= Y786,5 <= 1
 0 <= Y786,6 <= 1
 0 <= Y787,0 <= 1
 0 <= Y787,1 <= 1
 0 <= Y787,2 <= 1
 0 <= Y787,3 <= 1
 0 <= Y787,4 <= 1
 0 <= Y787,5 <= 1
 0 <= Y787,6 <= 1
 0 <= Y788,0 <= 1
 0 <= Y788,1 <= 1
 0 <= Y788,2 <= 1
 0 <= Y788,3 <= 1
 0 <= Y788,4 <= 1
 0 <= Y788,5 <= 1
 0 <= Y788,6 <= 1
 0 <= Y789,0 <= 1
 0 <= Y789,1 <= 1
 0 <= Y789,2 <= 1
 0 <= Y789,3 <= 1
 0 <= Y789,4 <= 1
 0 <= Y789,5 <= 1
 0 <= Y789,6 <= 1
 0 <= Y790,0 <= 1
 0 <= Y790,1 <= 1
 0 <= Y790,2 <= 1
 0 <= Y790,3 <= 1
 0 <= Y790,4 <= 1
 0 <= Y790,5 <= 1
 0 <= Y790,6 <= 1
 0 <= Y791,0 <= 1
 0 <= Y791,1 <= 1
 0 <= Y791,2 <= 1
 0 <= Y791,3 <= 1
 0 <= Y791,4 <= 1
 0 <= Y791,5 <= 1
 0 <= Y791,6 <= 1
 0 <= Y792,0 <= 1
 0 <= Y792,1 <= 1
 0 <= Y792,2 <= 1
 0 <= Y792,3 <= 1
 0 <= Y792,4 <= 1
 0 <= Y792,5 <= 1
 0 <= Y792,6 <= 1
 0 <= Y793,0 <= 1
 0 <= Y793,1 <= 1
 0 <= Y793,2 <= 1
 0 <= Y793,3 <= 1
 0 <= Y793,4 <= 1
 0 <= Y793,5 <= 1
 0 <= Y793,6 <= 1
 0 <= Y794,0 <= 1
 0 <= Y794,1 <= 1
 0 <= Y794,2 <= 1
 0 <= Y794,3 <= 1
 0 <= Y794,4 <= 1
 0 <= Y794,5 <= 1
 0 <= Y794,6 <= 1
 0 <= Y795,0 <= 1
 0 <= Y795,1 <= 1
 0 <= Y795,2 <= 1
 0 <= Y795,3 <= 1
 0 <= Y795,4 <= 1
 0 <= Y795,5 <= 1
 0 <= Y795,6 <= 1
 0 <= Y796,0 <= 1
 0 <= Y796,1 <= 1
 0 <= Y796,2 <= 1
 0 <= Y796,3 <= 1
 0 <= Y796,4 <= 1
 0 <= Y796,5 <= 1
 0 <= Y796,6 <= 1
 0 <= Y797,0 <= 1
 0 <= Y797,1 <= 1
 0 <= Y797,2 <= 1
 0 <= Y797,3 <= 1
 0 <= Y797,4 <= 1
 0 <= Y797,5 <= 1
 0 <= Y797,6 <= 1
 0 <= Y798,0 <= 1
 0 <= Y798,1 <= 1
 0 <= Y798,2 <= 1
 0 <= Y798,3 <= 1
 0 <= Y798,4 <= 1
 0 <= Y798,5 <= 1
 0 <= Y798,6 <= 1
 0 <= Y799,0 <= 1
 0 <= Y799,1 <= 1
 0 <= Y799,2 <= 1
 0 <= Y799,3 <= 1
 0 <= Y799,4 <= 1
 0 <= Y799,5 <= 1
 0 <= Y799,6 <= 1
 0 <= Y800,0 <= 1
 0 <= Y800,1 <= 1
 0 <= Y800,2 <= 1
 0 <= Y800,3 <= 1
 0 <= Y800,4 <= 1
 0 <= Y800,5 <= 1
 0 <= Y800,6 <= 1
 0 <= Y801,0 <= 1
 0 <= Y801,1 <= 1
 0 <= Y801,2 <= 1
 0 <= Y801,3 <= 1
 0 <= Y801,4 <= 1
 0 <= Y801,5 <= 1
 0 <= Y801,6 <= 1
 0 <= Y802,0 <= 1
 0 <= Y802,1 <= 1
 0 <= Y802,2 <= 1
 0 <= Y802,3 <= 1
 0 <= Y802,4 <= 1
 0 <= Y802,5 <= 1
 0 <= Y802,6 <= 1
 0 <= Y803,0 <= 1
 0 <= Y803,1 <= 1
 0 <= Y803,2 <= 1
 0 <= Y803,3 <= 1
 0 <= Y803,4 <= 1
 0 <= Y803,5 <= 1
 0 <= Y803,6 <= 1
 0 <= Y804,0 <= 1
 0 <= Y804,1 <= 1
 0 <= Y804,2 <= 1
 0 <= Y804,3 <= 1
 0 <= Y804,4 <= 1
 0 <= Y804,5 <= 1
 0 <= Y804,6 <= 1
 0 <= Y805,0 <= 1
 0 <= Y805,1 <= 1
 0 <= Y805,2 <= 1
 0 <= Y805,3 <= 1
 0 <= Y805,4 <= 1
 0 <= Y805,5 <= 1
 0 <= Y805,6 <= 1
 0 <= Y806,0 <= 1
 0 <= Y806,1 <= 1
 0 <= Y806,2 <= 1
 0 <= Y806,3 <= 1
 0 <= Y806,4 <= 1
 0 <= Y806,5 <= 1
 0 <= Y806,6 <= 1
 0 <= Y807,0 <= 1
 0 <= Y807,1 <= 1
 0 <= Y807,2 <= 1
 0 <= Y807,3 <= 1
 0 <= Y807,4 <= 1
 0 <= Y807,5 <= 1
 0 <= Y807,6 <= 1
 0 <= Y808,0 <= 1
 0 <= Y808,1 <= 1
 0 <= Y808,2 <= 1
 0 <= Y808,3 <= 1
 0 <= Y808,4 <= 1
 0 <= Y808,5 <= 1
 0 <= Y808,6 <= 1
 0 <= Y809,0 <= 1
 0 <= Y809,1 <= 1
 0 <= Y809,2 <= 1
 0 <= Y809,3 <= 1
 0 <= Y809,4 <= 1
 0 <= Y809,5 <= 1
 0 <= Y809,6 <= 1
 0 <= Y810,0 <= 1
 0 <= Y810,1 <= 1
 0 <= Y810,2 <= 1
 0 <= Y810,3 <= 1
 0 <= Y810,4 <= 1
 0 <= Y810,5 <= 1
 0 <= Y810,6 <= 1
 0 <= Y811,0 <= 1
 0 <= Y811,1 <= 1
 0 <= Y811,2 <= 1
 0 <= Y811,3 <= 1
 0 <= Y811,4 <= 1
 0 <= Y811,5 <= 1
 0 <= Y811,6 <= 1
 0 <= Y812,0 <= 1
 0 <= Y812,1 <= 1
 0 <= Y812,2 <= 1
 0 <= Y812,3 <= 1
 0 <= Y812,4 <= 1
 0 <= Y812,5 <= 1
 0 <= Y812,6 <= 1
 0 <= Y813,0 <= 1
 0 <= Y813,1 <= 1
 0 <= Y813,2 <= 1
 0 <= Y813,3 <= 1
 0 <= Y813,4 <= 1
 0 <= Y813,5 <= 1
 0 <= Y813,6 <= 1
 0 <= Y814,0 <= 1
 0 <= Y814,1 <= 1
 0 <= Y814,2 <= 1
 0 <= Y814,3 <= 1
 0 <= Y814,4 <= 1
 0 <= Y814,5 <= 1
 0 <= Y814,6 <= 1
 0 <= Y815,0 <= 1
 0 <= Y815,1 <= 1
 0 <= Y815,2 <= 1
 0 <= Y815,3 <= 1
 0 <= Y815,4 <= 1
 0 <= Y815,5 <= 1
 0 <= Y815,6 <= 1
 0 <= Y816,0 <= 1
 0 <= Y816,1 <= 1
 0 <= Y816,2 <= 1
 0 <= Y816,3 <= 1
 0 <= Y816,4 <= 1
 0 <= Y816,5 <= 1
 0 <= Y816,6 <= 1
 0 <= Y817,0 <= 1
 0 <= Y817,1 <= 1
 0 <= Y817,2 <= 1
 0 <= Y817,3 <= 1
 0 <= Y817,4 <= 1
 0 <= Y817,5 <= 1
 0 <= Y817,6 <= 1
 0 <= Y818,0 <= 1
 0 <= Y818,1 <= 1
 0 <= Y818,2 <= 1
 0 <= Y818,3 <= 1
 0 <= Y818,4 <= 1
 0 <= Y818,5 <= 1
 0 <= Y818,6 <= 1
 0 <= Y819,0 <= 1
 0 <= Y819,1 <= 1
 0 <= Y819,2 <= 1
 0 <= Y819,3 <= 1
 0 <= Y819,4 <= 1
 0 <= Y819,5 <= 1
 0 <= Y819,6 <= 1
 0 <= Y820,0 <= 1
 0 <= Y820,1 <= 1
 0 <= Y820,2 <= 1
 0 <= Y820,3 <= 1
 0 <= Y820,4 <= 1
 0 <= Y820,5 <= 1
 0 <= Y820,6 <= 1
 0 <= Y821,0 <= 1
 0 <= Y821,1 <= 1
 0 <= Y821,2 <= 1
 0 <= Y821,3 <= 1
 0 <= Y821,4 <= 1
 0 <= Y821,5 <= 1
 0 <= Y821,6 <= 1
 0 <= Y822,0 <= 1
 0 <= Y822,1 <= 1
 0 <= Y822,2 <= 1
 0 <= Y822,3 <= 1
 0 <= Y822,4 <= 1
 0 <= Y822,5 <= 1
 0 <= Y822,6 <= 1
 0 <= Y823,0 <= 1
 0 <= Y823,1 <= 1
 0 <= Y823,2 <= 1
 0 <= Y823,3 <= 1
 0 <= Y823,4 <= 1
 0 <= Y823,5 <= 1
 0 <= Y823,6 <= 1
 0 <= Y824,0 <= 1
 0 <= Y824,1 <= 1
 0 <= Y824,2 <= 1
 0 <= Y824,3 <= 1
 0 <= Y824,4 <= 1
 0 <= Y824,5 <= 1
 0 <= Y824,6 <= 1
 0 <= Y825,0 <= 1
 0 <= Y825,1 <= 1
 0 <= Y825,2 <= 1
 0 <= Y825,3 <= 1
 0 <= Y825,4 <= 1
 0 <= Y825,5 <= 1
 0 <= Y825,6 <= 1
 0 <= Y826,0 <= 1
 0 <= Y826,1 <= 1
 0 <= Y826,2 <= 1
 0 <= Y826,3 <= 1
 0 <= Y826,4 <= 1
 0 <= Y826,5 <= 1
 0 <= Y826,6 <= 1
 0 <= Y827,0 <= 1
 0 <= Y827,1 <= 1
 0 <= Y827,2 <= 1
 0 <= Y827,3 <= 1
 0 <= Y827,4 <= 1
 0 <= Y827,5 <= 1
 0 <= Y827,6 <= 1
 0 <= Y828,0 <= 1
 0 <= Y828,1 <= 1
 0 <= Y828,2 <= 1
 0 <= Y828,3 <= 1
 0 <= Y828,4 <= 1
 0 <= Y828,5 <= 1
 0 <= Y828,6 <= 1
 0 <= Y829,0 <= 1
 0 <= Y829,1 <= 1
 0 <= Y829,2 <= 1
 0 <= Y829,3 <= 1
 0 <= Y829,4 <= 1
 0 <= Y829,5 <= 1
 0 <= Y829,6 <= 1
 0 <= Y830,0 <= 1
 0 <= Y830,1 <= 1
 0 <= Y830,2 <= 1
 0 <= Y830,3 <= 1
 0 <= Y830,4 <= 1
 0 <= Y830,5 <= 1
 0 <= Y830,6 <= 1
 0 <= Y831,0 <= 1
 0 <= Y831,1 <= 1
 0 <= Y831,2 <= 1
 0 <= Y831,3 <= 1
 0 <= Y831,4 <= 1
 0 <= Y831,5 <= 1
 0 <= Y831,6 <= 1
 0 <= Y832,0 <= 1
 0 <= Y832,1 <= 1
 0 <= Y832,2 <= 1
 0 <= Y832,3 <= 1
 0 <= Y832,4 <= 1
 0 <= Y832,5 <= 1
 0 <= Y832,6 <= 1
 0 <= Y833,0 <= 1
 0 <= Y833,1 <= 1
 0 <= Y833,2 <= 1
 0 <= Y833,3 <= 1
 0 <= Y833,4 <= 1
 0 <= Y833,5 <= 1
 0 <= Y833,6 <= 1
 0 <= Y834,0 <= 1
 0 <= Y834,1 <= 1
 0 <= Y834,2 <= 1
 0 <= Y834,3 <= 1
 0 <= Y834,4 <= 1
 0 <= Y834,5 <= 1
 0 <= Y834,6 <= 1
 0 <= Y835,0 <= 1
 0 <= Y835,1 <= 1
 0 <= Y835,2 <= 1
 0 <= Y835,3 <= 1
 0 <= Y835,4 <= 1
 0 <= Y835,5 <= 1
 0 <= Y835,6 <= 1
 0 <= Y836,0 <= 1
 0 <= Y836,1 <= 1
 0 <= Y836,2 <= 1
 0 <= Y836,3 <= 1
 0 <= Y836,4 <= 1
 0 <= Y836,5 <= 1
 0 <= Y836,6 <= 1
 0 <= Y837,0 <= 1
 0 <= Y837,1 <= 1
 0 <= Y837,2 <= 1
 0 <= Y837,3 <= 1
 0 <= Y837,4 <= 1
 0 <= Y837,5 <= 1
 0 <= Y837,6 <= 1
 0 <= Y838,0 <= 1
 0 <= Y838,1 <= 1
 0 <= Y838,2 <= 1
 0 <= Y838,3 <= 1
 0 <= Y838,4 <= 1
 0 <= Y838,5 <= 1
 0 <= Y838,6 <= 1
 0 <= Y839,0 <= 1
 0 <= Y839,1 <= 1
 0 <= Y839,2 <= 1
 0 <= Y839,3 <= 1
 0 <= Y839,4 <= 1
 0 <= Y839,5 <= 1
 0 <= Y839,6 <= 1
 0 <= Y840,0 <= 1
 0 <= Y840,1 <= 1
 0 <= Y840,2 <= 1
 0 <= Y840,3 <= 1
 0 <= Y840,4 <= 1
 0 <= Y840,5 <= 1
 0 <= Y840,6 <= 1
 0 <= Y841,0 <= 1
 0 <= Y841,1 <= 1
 0 <= Y841,2 <= 1
 0 <= Y841,3 <= 1
 0 <= Y841,4 <= 1
 0 <= Y841,5 <= 1
 0 <= Y841,6 <= 1
 0 <= Y842,0 <= 1
 0 <= Y842,1 <= 1
 0 <= Y842,2 <= 1
 0 <= Y842,3 <= 1
 0 <= Y842,4 <= 1
 0 <= Y842,5 <= 1
 0 <= Y842,6 <= 1
 0 <= Y843,0 <= 1
 0 <= Y843,1 <= 1
 0 <= Y843,2 <= 1
 0 <= Y843,3 <= 1
 0 <= Y843,4 <= 1
 0 <= Y843,5 <= 1
 0 <= Y843,6 <= 1
 0 <= Y844,0 <= 1
 0 <= Y844,1 <= 1
 0 <= Y844,2 <= 1
 0 <= Y844,3 <= 1
 0 <= Y844,4 <= 1
 0 <= Y844,5 <= 1
 0 <= Y844,6 <= 1
 0 <= Y845,0 <= 1
 0 <= Y845,1 <= 1
 0 <= Y845,2 <= 1
 0 <= Y845,3 <= 1
 0 <= Y845,4 <= 1
 0 <= Y845,5 <= 1
 0 <= Y845,6 <= 1
 0 <= Y846,0 <= 1
 0 <= Y846,1 <= 1
 0 <= Y846,2 <= 1
 0 <= Y846,3 <= 1
 0 <= Y846,4 <= 1
 0 <= Y846,5 <= 1
 0 <= Y846,6 <= 1
 0 <= Y847,0 <= 1
 0 <= Y847,1 <= 1
 0 <= Y847,2 <= 1
 0 <= Y847,3 <= 1
 0 <= Y847,4 <= 1
 0 <= Y847,5 <= 1
 0 <= Y847,6 <= 1
 0 <= Y848,0 <= 1
 0 <= Y848,1 <= 1
 0 <= Y848,2 <= 1
 0 <= Y848,3 <= 1
 0 <= Y848,4 <= 1
 0 <= Y848,5 <= 1
 0 <= Y848,6 <= 1
 0 <= Y849,0 <= 1
 0 <= Y849,1 <= 1
 0 <= Y849,2 <= 1
 0 <= Y849,3 <= 1
 0 <= Y849,4 <= 1
 0 <= Y849,5 <= 1
 0 <= Y849,6 <= 1
 0 <= Y850,0 <= 1
 0 <= Y850,1 <= 1
 0 <= Y850,2 <= 1
 0 <= Y850,3 <= 1
 0 <= Y850,4 <= 1
 0 <= Y850,5 <= 1
 0 <= Y850,6 <= 1
 0 <= Y851,0 <= 1
 0 <= Y851,1 <= 1
 0 <= Y851,2 <= 1
 0 <= Y851,3 <= 1
 0 <= Y851,4 <= 1
 0 <= Y851,5 <= 1
 0 <= Y851,6 <= 1
 0 <= Y852,0 <= 1
 0 <= Y852,1 <= 1
 0 <= Y852,2 <= 1
 0 <= Y852,3 <= 1
 0 <= Y852,4 <= 1
 0 <= Y852,5 <= 1
 0 <= Y852,6 <= 1
 0 <= Y853,0 <= 1
 0 <= Y853,1 <= 1
 0 <= Y853,2 <= 1
 0 <= Y853,3 <= 1
 0 <= Y853,4 <= 1
 0 <= Y853,5 <= 1
 0 <= Y853,6 <= 1
 0 <= Y854,0 <= 1
 0 <= Y854,1 <= 1
 0 <= Y854,2 <= 1
 0 <= Y854,3 <= 1
 0 <= Y854,4 <= 1
 0 <= Y854,5 <= 1
 0 <= Y854,6 <= 1
 0 <= Y855,0 <= 1
 0 <= Y855,1 <= 1
 0 <= Y855,2 <= 1
 0 <= Y855,3 <= 1
 0 <= Y855,4 <= 1
 0 <= Y855,5 <= 1
 0 <= Y855,6 <= 1
 0 <= Y856,0 <= 1
 0 <= Y856,1 <= 1
 0 <= Y856,2 <= 1
 0 <= Y856,3 <= 1
 0 <= Y856,4 <= 1
 0 <= Y856,5 <= 1
 0 <= Y856,6 <= 1
 0 <= Y857,0 <= 1
 0 <= Y857,1 <= 1
 0 <= Y857,2 <= 1
 0 <= Y857,3 <= 1
 0 <= Y857,4 <= 1
 0 <= Y857,5 <= 1
 0 <= Y857,6 <= 1
 0 <= Y858,0 <= 1
 0 <= Y858,1 <= 1
 0 <= Y858,2 <= 1
 0 <= Y858,3 <= 1
 0 <= Y858,4 <= 1
 0 <= Y858,5 <= 1
 0 <= Y858,6 <= 1
 0 <= Y859,0 <= 1
 0 <= Y859,1 <= 1
 0 <= Y859,2 <= 1
 0 <= Y859,3 <= 1
 0 <= Y859,4 <= 1
 0 <= Y859,5 <= 1
 0 <= Y859,6 <= 1
 0 <= Y860,0 <= 1
 0 <= Y860,1 <= 1
 0 <= Y860,2 <= 1
 0 <= Y860,3 <= 1
 0 <= Y860,4 <= 1
 0 <= Y860,5 <= 1
 0 <= Y860,6 <= 1
 0 <= Y861,0 <= 1
 0 <= Y861,1 <= 1
 0 <= Y861,2 <= 1
 0 <= Y861,3 <= 1
 0 <= Y861,4 <= 1
 0 <= Y861,5 <= 1
 0 <= Y861,6 <= 1
 0 <= Y862,0 <= 1
 0 <= Y862,1 <= 1
 0 <= Y862,2 <= 1
 0 <= Y862,3 <= 1
 0 <= Y862,4 <= 1
 0 <= Y862,5 <= 1
 0 <= Y862,6 <= 1
 0 <= Y863,0 <= 1
 0 <= Y863,1 <= 1
 0 <= Y863,2 <= 1
 0 <= Y863,3 <= 1
 0 <= Y863,4 <= 1
 0 <= Y863,5 <= 1
 0 <= Y863,6 <= 1
 0 <= Y864,0 <= 1
 0 <= Y864,1 <= 1
 0 <= Y864,2 <= 1
 0 <= Y864,3 <= 1
 0 <= Y864,4 <= 1
 0 <= Y864,5 <= 1
 0 <= Y864,6 <= 1
 0 <= Y865,0 <= 1
 0 <= Y865,1 <= 1
 0 <= Y865,2 <= 1
 0 <= Y865,3 <= 1
 0 <= Y865,4 <= 1
 0 <= Y865,5 <= 1
 0 <= Y865,6 <= 1
 0 <= Y866,0 <= 1
 0 <= Y866,1 <= 1
 0 <= Y866,2 <= 1
 0 <= Y866,3 <= 1
 0 <= Y866,4 <= 1
 0 <= Y866,5 <= 1
 0 <= Y866,6 <= 1
 0 <= Y867,0 <= 1
 0 <= Y867,1 <= 1
 0 <= Y867,2 <= 1
 0 <= Y867,3 <= 1
 0 <= Y867,4 <= 1
 0 <= Y867,5 <= 1
 0 <= Y867,6 <= 1
 0 <= Y868,0 <= 1
 0 <= Y868,1 <= 1
 0 <= Y868,2 <= 1
 0 <= Y868,3 <= 1
 0 <= Y868,4 <= 1
 0 <= Y868,5 <= 1
 0 <= Y868,6 <= 1
 0 <= Y869,0 <= 1
 0 <= Y869,1 <= 1
 0 <= Y869,2 <= 1
 0 <= Y869,3 <= 1
 0 <= Y869,4 <= 1
 0 <= Y869,5 <= 1
 0 <= Y869,6 <= 1
 0 <= Y870,0 <= 1
 0 <= Y870,1 <= 1
 0 <= Y870,2 <= 1
 0 <= Y870,3 <= 1
 0 <= Y870,4 <= 1
 0 <= Y870,5 <= 1
 0 <= Y870,6 <= 1
 0 <= Y871,0 <= 1
 0 <= Y871,1 <= 1
 0 <= Y871,2 <= 1
 0 <= Y871,3 <= 1
 0 <= Y871,4 <= 1
 0 <= Y871,5 <= 1
 0 <= Y871,6 <= 1
 0 <= Y872,0 <= 1
 0 <= Y872,1 <= 1
 0 <= Y872,2 <= 1
 0 <= Y872,3 <= 1
 0 <= Y872,4 <= 1
 0 <= Y872,5 <= 1
 0 <= Y872,6 <= 1
 0 <= Y873,0 <= 1
 0 <= Y873,1 <= 1
 0 <= Y873,2 <= 1
 0 <= Y873,3 <= 1
 0 <= Y873,4 <= 1
 0 <= Y873,5 <= 1
 0 <= Y873,6 <= 1
 0 <= Y874,0 <= 1
 0 <= Y874,1 <= 1
 0 <= Y874,2 <= 1
 0 <= Y874,3 <= 1
 0 <= Y874,4 <= 1
 0 <= Y874,5 <= 1
 0 <= Y874,6 <= 1
 0 <= Y875,0 <= 1
 0 <= Y875,1 <= 1
 0 <= Y875,2 <= 1
 0 <= Y875,3 <= 1
 0 <= Y875,4 <= 1
 0 <= Y875,5 <= 1
 0 <= Y875,6 <= 1
 0 <= Y876,0 <= 1
 0 <= Y876,1 <= 1
 0 <= Y876,2 <= 1
 0 <= Y876,3 <= 1
 0 <= Y876,4 <= 1
 0 <= Y876,5 <= 1
 0 <= Y876,6 <= 1
 0 <= Y877,0 <= 1
 0 <= Y877,1 <= 1
 0 <= Y877,2 <= 1
 0 <= Y877,3 <= 1
 0 <= Y877,4 <= 1
 0 <= Y877,5 <= 1
 0 <= Y877,6 <= 1
 0 <= Y878,0 <= 1
 0 <= Y878,1 <= 1
 0 <= Y878,2 <= 1
 0 <= Y878,3 <= 1
 0 <= Y878,4 <= 1
 0 <= Y878,5 <= 1
 0 <= Y878,6 <= 1
 0 <= Y879,0 <= 1
 0 <= Y879,1 <= 1
 0 <= Y879,2 <= 1
 0 <= Y879,3 <= 1
 0 <= Y879,4 <= 1
 0 <= Y879,5 <= 1
 0 <= Y879,6 <= 1
 0 <= Y880,0 <= 1
 0 <= Y880,1 <= 1
 0 <= Y880,2 <= 1
 0 <= Y880,3 <= 1
 0 <= Y880,4 <= 1
 0 <= Y880,5 <= 1
 0 <= Y880,6 <= 1
 0 <= Y881,0 <= 1
 0 <= Y881,1 <= 1
 0 <= Y881,2 <= 1
 0 <= Y881,3 <= 1
 0 <= Y881,4 <= 1
 0 <= Y881,5 <= 1
 0 <= Y881,6 <= 1
 0 <= Y882,0 <= 1
 0 <= Y882,1 <= 1
 0 <= Y882,2 <= 1
 0 <= Y882,3 <= 1
 0 <= Y882,4 <= 1
 0 <= Y882,5 <= 1
 0 <= Y882,6 <= 1
 0 <= Y883,0 <= 1
 0 <= Y883,1 <= 1
 0 <= Y883,2 <= 1
 0 <= Y883,3 <= 1
 0 <= Y883,4 <= 1
 0 <= Y883,5 <= 1
 0 <= Y883,6 <= 1
 0 <= Y884,0 <= 1
 0 <= Y884,1 <= 1
 0 <= Y884,2 <= 1
 0 <= Y884,3 <= 1
 0 <= Y884,4 <= 1
 0 <= Y884,5 <= 1
 0 <= Y884,6 <= 1
 0 <= Y885,0 <= 1
 0 <= Y885,1 <= 1
 0 <= Y885,2 <= 1
 0 <= Y885,3 <= 1
 0 <= Y885,4 <= 1
 0 <= Y885,5 <= 1
 0 <= Y885,6 <= 1
 0 <= Y886,0 <= 1
 0 <= Y886,1 <= 1
 0 <= Y886,2 <= 1
 0 <= Y886,3 <= 1
 0 <= Y886,4 <= 1
 0 <= Y886,5 <= 1
 0 <= Y886,6 <= 1
 0 <= Y887,0 <= 1
 0 <= Y887,1 <= 1
 0 <= Y887,2 <= 1
 0 <= Y887,3 <= 1
 0 <= Y887,4 <= 1
 0 <= Y887,5 <= 1
 0 <= Y887,6 <= 1
 0 <= Y888,0 <= 1
 0 <= Y888,1 <= 1
 0 <= Y888,2 <= 1
 0 <= Y888,3 <= 1
 0 <= Y888,4 <= 1
 0 <= Y888,5 <= 1
 0 <= Y888,6 <= 1
Binaries
 Y0,0 Y0,1 Y0,2 Y0,3 Y0,4 Y0,5 Y0,6 Y1,0 Y1,1 Y1,2 Y1,3 Y1,4 Y1,5 Y1,6 Y2,0 Y2,1 Y2,2 Y2,3 Y2,4 Y2,5 Y2,6
 Y3,0 Y3,1 Y3,2 Y3,3 Y3,4 Y3,5 Y3,6 Y4,0 Y4,1 Y4,2 Y4,3 Y4,4 Y4,5 Y4,6 Y5,0 Y5,1 Y5,2 Y5,3 Y5,4 Y5,5 Y5,6
 Y6,0 Y6,1 Y6,2 Y6,3 Y6,4 Y6,5 Y6,6 Y7,0 Y7,1 Y7,2 Y7,3 Y7,4 Y7,5 Y7,6 Y8,0 Y8,1 Y8,2 Y8,3 Y8,4 Y8,5 Y8,6
 Y9,0 Y9,1 Y9,2 Y9,3 Y9,4 Y9,5 Y9,6 Y10,0 Y10,1 Y10,2 Y10,3 Y10,4 Y10,5 Y10,6 Y11,0 Y11,1 Y11,2 Y11,3
 Y11,4 Y11,5 Y11,6 Y12,0 Y12,1 Y12,2 Y12,3 Y12,4 Y12,5 Y12,6 Y13,0 Y13,1 Y13,2 Y13,3 Y13,4 Y13,5 Y13,6
 Y14,0 Y14,1 Y14,2 Y14,3 Y14,4 Y14,5 Y14,6 Y15,0 Y15,1 Y15,2 Y15,3 Y15,4 Y15,5 Y15,6 Y16,0 Y16,1 Y16,2
 Y16,3 Y16,4 Y16,5 Y16,6 Y17,0 Y17,1 Y17,2 Y17,3 Y17,4 Y17,5 Y17,6 Y18,0 Y18,1 Y18,2 Y18,3 Y18,4 Y18,5
 Y18,6 Y19,0 Y19,1 Y19,2 Y19,3 Y19,4 Y19,5 Y19,6 Y20,0 Y20,1 Y20,2 Y20,3 Y20,4 Y20,5 Y20,6 Y21,0 Y21,1
 Y21,2 Y21,3 Y21,4 Y21,5 Y21,6 Y22,0 Y22,1 Y22,2 Y22,3 Y22,4 Y22,5 Y22,6 Y23,0 Y23,1 Y23,2 Y23,3 Y23,4
 Y23,5 Y23,6 Y24,0 Y24,1 Y24,2 Y24,3 Y24,4 Y24,5 Y24,6 Y25,0 Y25,1 Y25,2 Y25,3 Y25,4 Y25,5 Y25,6 Y26,0
 Y26,1 Y26,2 Y26,3 Y26,4 Y26,5 Y26,6 Y27,0 Y27,1 Y27,2 Y27,3 Y27,4 Y27,5 Y27,6 Y28,0 Y28,1 Y28,2 Y28,3
 Y28,4 Y28,5 Y28,6 Y29,0 Y29,1 Y29,2 Y29,3 Y29,4 Y29,5 Y29,6 Y30,0 Y30,1 Y30,2 Y30,3 Y30,4 Y30,5 Y30,6
 Y31,0 Y31,1 Y31,2 Y31,3 Y31,4 Y31,5 Y31,6 Y32,0 Y32,1 Y32,2 Y32,3 Y32,4 Y32,5 Y32,6 Y33,0 Y33,1 Y33,2
 Y33,3 Y33,4 Y33,5 Y33,6 Y34,0 Y34,1 Y34,2 Y34,3 Y34,4 Y34,5 Y34,6 Y35,0 Y35,1 Y35,2 Y35,3 Y35,4 Y35,5
 Y35,6 Y36,0 Y36,1 Y36,2 Y36,3 Y36,4 Y36,5 Y36,6 Y37,0 Y37,1 Y37,2 Y37,3 Y37,4 Y37,5 Y37,6 Y38,0 Y38,1
 Y38,2 Y38,3 Y38,4 Y38,5 Y38,6 Y39,0 Y39,1 Y39,2 Y39,3 Y39,4 Y39,5 Y39,6 Y40,0 Y40,1 Y40,2 Y40,3 Y40,4
 Y40,5 Y40,6 Y41,0 Y41,1 Y41,2 Y41,3 Y41,4 Y41,5 Y41,6 Y42,0 Y42,1 Y42,2 Y42,3 Y42,4 Y42,5 Y42,6 Y43,0
 Y43,1 Y43,2 Y43,3 Y43,4 Y43,5 Y43,6 Y44,0 Y44,1 Y44,2 Y44,3 Y44,4 Y44,5 Y44,6 Y45,0 Y45,1 Y45,2 Y45,3
 Y45,4 Y45,5 Y45,6 Y46,0 Y46,1 Y46,2 Y46,3 Y46,4 Y46,5 Y46,6 Y47,0 Y47,1 Y47,2 Y47,3 Y47,4 Y47,5 Y47,6
 Y48,0 Y48,1 Y48,2 Y48,3 Y48,4 Y48,5 Y48,6 Y49,0 Y49,1 Y49,2 Y49,3 Y49,4 Y49,5 Y49,6 Y50,0 Y50,1 Y50,2
 Y50,3 Y50,4 Y50,5 Y50,6 Y51,0 Y51,1 Y51,2 Y51,3 Y51,4 Y51,5 Y51,6 Y52,0 Y52,1 Y52,2 Y52,3 Y52,4 Y52,5
 Y52,6 Y53,0 Y53,1 Y53,2 Y53,3 Y53,4 Y53,5 Y53,6 Y54,0 Y54,1 Y54,2 Y54,3 Y54,4 Y54,5 Y54,6 Y55,0 Y55,1
 Y55,2 Y55,3 Y55,4 Y55,5 Y55,6 Y56,0 Y56,1 Y56,2 Y56,3 Y56,4 Y56,5 Y56,6 Y57,0 Y57,1 Y57,2 Y57,3 Y57,4
 Y57,5 Y57,6 Y58,0 Y58,1 Y58,2 Y58,3 Y58,4 Y58,5 Y58,6 Y59,0 Y59,1 Y59,2 Y59,3 Y59,4 Y59,5 Y59,6 Y60,0
 Y60,1 Y60,2 Y60,3 Y60,4 Y60,5 Y60,6 Y61,0 Y61,1 Y61,2 Y61,3 Y61,4 Y61,5 Y61,6 Y62,0 Y62,1 Y62,2 Y62,3
 Y62,4 Y62,5 Y62,6 Y63,0 Y63,1 Y63,2 Y63,3 Y63,4 Y63,5 Y63,6 Y64,0 Y64,1 Y64,2 Y64,3 Y64,4 Y64,5 Y64,6
 Y65,0 Y65,1 Y65,2 Y65,3 Y65,4 Y65,5 Y65,6 Y66,0 Y66,1 Y66,2 Y66,3 Y66,4 Y66,5 Y66,6 Y67,0 Y67,1 Y67,2
 Y67,3 Y67,4 Y67,5 Y67,6 Y68,0 Y68,1 Y68,2 Y68,3 Y68,4 Y68,5 Y68,6 Y69,0 Y69,1 Y69,2 Y69,3 Y69,4 Y69,5
 Y69,6 Y70,0 Y70,1 Y70,2 Y70,3 Y70,4 Y70,5 Y70,6 Y71,0 Y71,1 Y71,2 Y71,3 Y71,4 Y71,5 Y71,6 Y72,0 Y72,1
 Y72,2 Y72,3 Y72,4 Y72,5 Y72,6 Y73,0 Y73,1 Y73,2 Y73,3 Y73,4 Y73,5 Y73,6 Y74,0 Y74,1 Y74,2 Y74,3 Y74,4
 Y74,5 Y74,6 Y75,0 Y75,1 Y75,2 Y75,3 Y75,4 Y75,5 Y75,6 Y76,0 Y76,1 Y76,2 Y76,3 Y76,4 Y76,5 Y76,6 Y77,0
 Y77,1 Y77,2 Y77,3 Y77,4 Y77,5 Y77,6 Y78,0 Y78,1 Y78,2 Y78,3 Y78,4 Y78,5 Y78,6 Y79,0 Y79,1 Y79,2 Y79,3
 Y79,4 Y79,5 Y79,6 Y80,0 Y80,1 Y80,2 Y80,3 Y80,4 Y80,5 Y80,6 Y81,0 Y81,1 Y81,2 Y81,3 Y81,4 Y81,5 Y81,6
 Y82,0 Y82,1 Y82,2 Y82,3 Y82,4 Y82,5 Y82,6 Y83,0 Y83,1 Y83,2 Y83,3 Y83,4 Y83,5 Y83,6 Y84,0 Y84,1 Y84,2
 Y84,3 Y84,4 Y84,5 Y84,6 Y85,0 Y85,1 Y85,2 Y85,3 Y85,4 Y85,5 Y85,6 Y86,0 Y86,1 Y86,2 Y86,3 Y86,4 Y86,5
 Y86,6 Y87,0 Y87,1 Y87,2 Y87,3 Y87,4 Y87,5 Y87,6 Y88,0 Y88,1 Y88,2 Y88,3 Y88,4 Y88,5 Y88,6 Y89,0 Y89,1
 Y89,2 Y89,3 Y89,4 Y89,5 Y89,6 Y90,0 Y90,1 Y90,2 Y90,3 Y90,4 Y90,5 Y90,6 Y91,0 Y91,1 Y91,2 Y91,3 Y91,4
 Y91,5 Y91,6 Y92,0 Y92,1 Y92,2 Y92,3 Y92,4 Y92,5 Y92,6 Y93,0 Y93,1 Y93,2 Y93,3 Y93,4 Y93,5 Y93,6 Y94,0
 Y94,1 Y94,2 Y94,3 Y94,4 Y94,5 Y94,6 Y95,0 Y95,1 Y95,2 Y95,3 Y95,4 Y95,5 Y95,6 Y96,0 Y96,1 Y96,2 Y96,3
 Y96,4 Y96,5 Y96,6 Y97,0 Y97,1 Y97,2 Y97,3 Y97,4 Y97,5 Y97,6 Y98,0 Y98,1 Y98,2 Y98,3 Y98,4 Y98,5 Y98,6
 Y99,0 Y99,1 Y99,2 Y99,3 Y99,4 Y99,5 Y99,6 Y100,0 Y100,1 Y100,2 Y100,3 Y100,4 Y100,5 Y100,6 Y101,0 Y101,1
 Y101,2 Y101,3 Y101,4 Y101,5 Y101,6 Y102,0 Y102,1 Y102,2 Y102,3 Y102,4 Y102,5 Y102,6 Y103,0 Y103,1 Y103,2
 Y103,3 Y103,4 Y103,5 Y103,6 Y104,0 Y104,1 Y104,2 Y104,3 Y104,4 Y104,5 Y104,6 Y105,0 Y105,1 Y105,2 Y105,3
 Y105,4 Y105,5 Y105,6 Y106,0 Y106,1 Y106,2 Y106,3 Y106,4 Y106,5 Y106,6 Y107,0 Y107,1 Y107,2 Y107,3 Y107,4
 Y107,5 Y107,6 Y108,0 Y108,1 Y108,2 Y108,3 Y108,4 Y108,5 Y108,6 Y109,0 Y109,1 Y109,2 Y109,3 Y109,4 Y109,5
 Y109,6 Y110,0 Y110,1 Y110,2 Y110,3 Y110,4 Y110,5 Y110,6 Y111,0 Y111,1 Y111,2 Y111,3 Y111,4 Y111,5 Y111,6
 Y112,0 Y112,1 Y112,2 Y112,3 Y112,4 Y112,5 Y112,6 Y113,0 Y113,1 Y113,2 Y113,3 Y113,4 Y113,5 Y113,6 Y114,0
 Y114,1 Y114,2 Y114,3 Y114,4 Y114,5 Y114,6 Y115,0 Y115,1 Y115,2 Y115,3 Y115,4 Y115,5 Y115,6 Y116,0 Y116,1
 Y116,2 Y116,3 Y116,4 Y116,5 Y116,6 Y117,0 Y117,1 Y117,2 Y117,3 Y117,4 Y117,5 Y117,6 Y118,0 Y118,1 Y118,2
 Y118,3 Y118,4 Y118,5 Y118,6 Y119,0 Y119,1 Y119,2 Y119,3 Y119,4 Y119,5 Y119,6 Y120,0 Y120,1 Y120,2 Y120,3
 Y120,4 Y120,5 Y120,6 Y121,0 Y121,1 Y121,2 Y121,3 Y121,4 Y121,5 Y121,6 Y122,0 Y122,1 Y122,2 Y122,3 Y122,4
 Y122,5 Y122,6 Y123,0 Y123,1 Y123,2 Y123,3 Y123,4 Y123,5 Y123,6 Y124,0 Y124,1 Y124,2 Y124,3 Y124,4 Y124,5
 Y124,6 Y125,0 Y125,1 Y125,2 Y125,3 Y125,4 Y125,5 Y125,6 Y126,0 Y126,1 Y126,2 Y126,3 Y126,4 Y126,5 Y126,6
 Y127,0 Y127,1 Y127,2 Y127,3 Y127,4 Y127,5 Y127,6 Y128,0 Y128,1 Y128,2 Y128,3 Y128,4 Y128,5 Y128,6 Y129,0
 Y129,1 Y129,2 Y129,3 Y129,4 Y129,5 Y129,6 Y130,0 Y130,1 Y130,2 Y130,3 Y130,4 Y130,5 Y130,6 Y131,0 Y131,1
 Y131,2 Y131,3 Y131,4 Y131,5 Y131,6 Y132,0 Y132,1 Y132,2 Y132,3 Y132,4 Y132,5 Y132,6 Y133,0 Y133,1 Y133,2
 Y133,3 Y133,4 Y133,5 Y133,6 Y134,0 Y134,1 Y134,2 Y134,3 Y134,4 Y134,5 Y134,6 Y135,0 Y135,1 Y135,2 Y135,3
 Y135,4 Y135,5 Y135,6 Y136,0 Y136,1 Y136,2 Y136,3 Y136,4 Y136,5 Y136,6 Y137,0 Y137,1 Y137,2 Y137,3 Y137,4
 Y137,5 Y137,6 Y138,0 Y138,1 Y138,2 Y138,3 Y138,4 Y138,5 Y138,6 Y139,0 Y139,1 Y139,2 Y139,3 Y139,4 Y139,5
 Y139,6 Y140,0 Y140,1 Y140,2 Y140,3 Y140,4 Y140,5 Y140,6 Y141,0 Y141,1 Y141,2 Y141,3 Y141,4 Y141,5 Y141,6
 Y142,0 Y142,1 Y142,2 Y142,3 Y142,4 Y142,5 Y142,6 Y143,0 Y143,1 Y143,2 Y143,3 Y143,4 Y143,5 Y143,6 Y144,0
 Y144,1 Y144,2 Y144,3 Y144,4 Y144,5 Y144,6 Y145,0 Y145,1 Y145,2 Y145,3 Y145,4 Y145,5 Y145,6 Y146,0 Y146,1
 Y146,2 Y146,3 Y146,4 Y146,5 Y146,6 Y147,0 Y147,1 Y147,2 Y147,3 Y147,4 Y147,5 Y147,6 Y148,0 Y148,1 Y148,2
 Y148,3 Y148,4 Y148,5 Y148,6 Y149,0 Y149,1 Y149,2 Y149,3 Y149,4 Y149,5 Y149,6 Y150,0 Y150,1 Y150,2 Y150,3
 Y150,4 Y150,5 Y150,6 Y151,0 Y151,1 Y151,2 Y151,3 Y151,4 Y151,5 Y151,6 Y152,0 Y152,1 Y152,2 Y152,3 Y152,4
 Y152,5 Y152,6 Y153,0 Y153,1 Y153,2 Y153,3 Y153,4 Y153,5 Y153,6 Y154,0 Y154,1 Y154,2 Y154,3 Y154,4 Y154,5
 Y154,6 Y155,0 Y155,1 Y155,2 Y155,3 Y155,4 Y155,5 Y155,6 Y156,0 Y156,1 Y156,2 Y156,3 Y156,4 Y156,5 Y156,6
 Y157,0 Y157,1 Y157,2 Y157,3 Y157,4 Y157,5 Y157,6 Y158,0 Y158,1 Y158,2 Y158,3 Y158,4 Y158,5 Y158,6 Y159,0
 Y159,1 Y159,2 Y159,3 Y159,4 Y159,5 Y159,6 Y160,0 Y160,1 Y160,2 Y160,3 Y160,4 Y160,5 Y160,6 Y161,0 Y161,1
 Y161,2 Y161,3 Y161,4 Y161,5 Y161,6 Y162,0 Y162,1 Y162,2 Y162,3 Y162,4 Y162,5 Y162,6 Y163,0 Y163,1 Y163,2
 Y163,3 Y163,4 Y163,5 Y163,6 Y164,0 Y164,1 Y164,2 Y164,3 Y164,4 Y164,5 Y164,6 Y165,0 Y165,1 Y165,2 Y165,3
 Y165,4 Y165,5 Y165,6 Y166,0 Y166,1 Y166,2 Y166,3 Y166,4 Y166,5 Y166,6 Y167,0 Y167,1 Y167,2 Y167,3 Y167,4
 Y167,5 Y167,6 Y168,0 Y168,1 Y168,2 Y168,3 Y168,4 Y168,5 Y168,6 Y169,0 Y169,1 Y169,2 Y169,3 Y169,4 Y169,5
 Y169,6 Y170,0 Y170,1 Y170,2 Y170,3 Y170,4 Y170,5 Y170,6 Y171,0 Y171,1 Y171,2 Y171,3 Y171,4 Y171,5 Y171,6
 Y172,0 Y172,1 Y172,2 Y172,3 Y172,4 Y172,5 Y172,6 Y173,0 Y173,1 Y173,2 Y173,3 Y173,4 Y173,5 Y173,6 Y174,0
 Y174,1 Y174,2 Y174,3 Y174,4 Y174,5 Y174,6 Y175,0 Y175,1 Y175,2 Y175,3 Y175,4 Y175,5 Y175,6 Y176,0 Y176,1
 Y176,2 Y176,3 Y176,4 Y176,5 Y176,6 Y177,0 Y177,1 Y177,2 Y177,3 Y177,4 Y177,5 Y177,6 Y178,0 Y178,1 Y178,2
 Y178,3 Y178,4 Y178,5 Y178,6 Y179,0 Y179,1 Y179,2 Y179,3 Y179,4 Y179,5 Y179,6 Y180,0 Y180,1 Y180,2 Y180,3
 Y180,4 Y180,5 Y180,6 Y181,0 Y181,1 Y181,2 Y181,3 Y181,4 Y181,5 Y181,6 Y182,0 Y182,1 Y182,2 Y182,3 Y182,4
 Y182,5 Y182,6 Y183,0 Y183,1 Y183,2 Y183,3 Y183,4 Y183,5 Y183,6 Y184,0 Y184,1 Y184,2 Y184,3 Y184,4 Y184,5
 Y184,6 Y185,0 Y185,1 Y185,2 Y185,3 Y185,4 Y185,5 Y185,6 Y186,0 Y186,1 Y186,2 Y186,3 Y186,4 Y186,5 Y186,6
 Y187,0 Y187,1 Y187,2 Y187,3 Y187,4 Y187,5 Y187,6 Y188,0 Y188,1 Y188,2 Y188,3 Y188,4 Y188,5 Y188,6 Y189,0
 Y189,1 Y189,2 Y189,3 Y189,4 Y189,5 Y189,6 Y190,0 Y190,1 Y190,2 Y190,3 Y190,4 Y190,5 Y190,6 Y191,0 Y191,1
 Y191,2 Y191,3 Y191,4 Y191,5 Y191,6 Y192,0 Y192,1 Y192,2 Y192,3 Y192,4 Y192,5 Y192,6 Y193,0 Y193,1 Y193,2
 Y193,3 Y193,4 Y193,5 Y193,6 Y194,0 Y194,1 Y194,2 Y194,3 Y194,4 Y194,5 Y194,6 Y195,0 Y195,1 Y195,2 Y195,3
 Y195,4 Y195,5 Y195,6 Y196,0 Y196,1 Y196,2 Y196,3 Y196,4 Y196,5 Y196,6 Y197,0 Y197,1 Y197,2 Y197,3 Y197,4
 Y197,5 Y197,6 Y198,0 Y198,1 Y198,2 Y198,3 Y198,4 Y198,5 Y198,6 Y199,0 Y199,1 Y199,2 Y199,3 Y199,4 Y199,5
 Y199,6 Y200,0 Y200,1 Y200,2 Y200,3 Y200,4 Y200,5 Y200,6 Y201,0 Y201,1 Y201,2 Y201,3 Y201,4 Y201,5 Y201,6
 Y202,0 Y202,1 Y202,2 Y202,3 Y202,4 Y202,5 Y202,6 Y203,0 Y203,1 Y203,2 Y203,3 Y203,4 Y203,5 Y203,6 Y204,0
 Y204,1 Y204,2 Y204,3 Y204,4 Y204,5 Y204,6 Y205,0 Y205,1 Y205,2 Y205,3 Y205,4 Y205,5 Y205,6 Y206,0 Y206,1
 Y206,2 Y206,3 Y206,4 Y206,5 Y206,6 Y207,0 Y207,1 Y207,2 Y207,3 Y207,4 Y207,5 Y207,6 Y208,0 Y208,1 Y208,2
 Y208,3 Y208,4 Y208,5 Y208,6 Y209,0 Y209,1 Y209,2 Y209,3 Y209,4 Y209,5 Y209,6 Y210,0 Y210,1 Y210,2 Y210,3
 Y210,4 Y210,5 Y210,6 Y211,0 Y211,1 Y211,2 Y211,3 Y211,4 Y211,5 Y211,6 Y212,0 Y212,1 Y212,2 Y212,3 Y212,4
 Y212,5 Y212,6 Y213,0 Y213,1 Y213,2 Y213,3 Y213,4 Y213,5 Y213,6 Y214,0 Y214,1 Y214,2 Y214,3 Y214,4 Y214,5
 Y214,6 Y215,0 Y215,1 Y215,2 Y215,3 Y215,4 Y215,5 Y215,6 Y216,0 Y216,1 Y216,2 Y216,3 Y216,4 Y216,5 Y216,6
 Y217,0 Y217,1 Y217,2 Y217,3 Y217,4 Y217,5 Y217,6 Y218,0 Y218,1 Y218,2 Y218,3 Y218,4 Y218,5 Y218,6 Y219,0
 Y219,1 Y219,2 Y219,3 Y219,4 Y219,5 Y219,6 Y220,0 Y220,1 Y220,2 Y220,3 Y220,4 Y220,5 Y220,6 Y221,0 Y221,1
 Y221,2 Y221,3 Y221,4 Y221,5 Y221,6 Y222,0 Y222,1 Y222,2 Y222,3 Y222,4 Y222,5 Y222,6 Y223,0 Y223,1 Y223,2
 Y223,3 Y223,4 Y223,5 Y223,6 Y224,0 Y224,1 Y224,2 Y224,3 Y224,4 Y224,5 Y224,6 Y225,0 Y225,1 Y225,2 Y225,3
 Y225,4 Y225,5 Y225,6 Y226,0 Y226,1 Y226,2 Y226,3 Y226,4 Y226,5 Y226,6 Y227,0 Y227,1 Y227,2 Y227,3 Y227,4
 Y227,5 Y227,6 Y228,0 Y228,1 Y228,2 Y228,3 Y228,4 Y228,5 Y228,6 Y229,0 Y229,1 Y229,2 Y229,3 Y229,4 Y229,5
 Y229,6 Y230,0 Y230,1 Y230,2 Y230,3 Y230,4 Y230,5 Y230,6 Y231,0 Y231,1 Y231,2 Y231,3 Y231,4 Y231,5 Y231,6
 Y232,0 Y232,1 Y232,2 Y232,3 Y232,4 Y232,5 Y232,6 Y233,0 Y233,1 Y233,2 Y233,3 Y233,4 Y233,5 Y233,6 Y234,0
 Y234,1 Y234,2 Y234,3 Y234,4 Y234,5 Y234,6 Y235,0 Y235,1 Y235,2 Y235,3 Y235,4 Y235,5 Y235,6 Y236,0 Y236,1
 Y236,2 Y236,3 Y236,4 Y236,5 Y236,6 Y237,0 Y237,1 Y237,2 Y237,3 Y237,4 Y237,5 Y237,6 Y238,0 Y238,1 Y238,2
 Y238,3 Y238,4 Y238,5 Y238,6 Y239,0 Y239,1 Y239,2 Y239,3 Y239,4 Y239,5 Y239,6 Y240,0 Y240,1 Y240,2 Y240,3
 Y240,4 Y240,5 Y240,6 Y241,0 Y241,1 Y241,2 Y241,3 Y241,4 Y241,5 Y241,6 Y242,0 Y242,1 Y242,2 Y242,3 Y242,4
 Y242,5 Y242,6 Y243,0 Y243,1 Y243,2 Y243,3 Y243,4 Y243,5 Y243,6 Y244,0 Y244,1 Y244,2 Y244,3 Y244,4 Y244,5
 Y244,6 Y245,0 Y245,1 Y245,2 Y245,3 Y245,4 Y245,5 Y245,6 Y246,0 Y246,1 Y246,2 Y246,3 Y246,4 Y246,5 Y246,6
 Y247,0 Y247,1 Y247,2 Y247,3 Y247,4 Y247,5 Y247,6 Y248,0 Y248,1 Y248,2 Y248,3 Y248,4 Y248,5 Y248,6 Y249,0
 Y249,1 Y249,2 Y249,3 Y249,4 Y249,5 Y249,6 Y250,0 Y250,1 Y250,2 Y250,3 Y250,4 Y250,5 Y250,6 Y251,0 Y251,1
 Y251,2 Y251,3 Y251,4 Y251,5 Y251,6 Y252,0 Y252,1 Y252,2 Y252,3 Y252,4 Y252,5 Y252,6 Y253,0 Y253,1 Y253,2
 Y253,3 Y253,4 Y253,5 Y253,6 Y254,0 Y254,1 Y254,2 Y254,3 Y254,4 Y254,5 Y254,6 Y255,0 Y255,1 Y255,2 Y255,3
 Y255,4 Y255,5 Y255,6 Y256,0 Y256,1 Y256,2 Y256,3 Y256,4 Y256,5 Y256,6 Y257,0 Y257,1 Y257,2 Y257,3 Y257,4
 Y257,5 Y257,6 Y258,0 Y258,1 Y258,2 Y258,3 Y258,4 Y258,5 Y258,6 Y259,0 Y259,1 Y259,2 Y259,3 Y259,4 Y259,5
 Y259,6 Y260,0 Y260,1 Y260,2 Y260,3 Y260,4 Y260,5 Y260,6 Y261,0 Y261,1 Y261,2 Y261,3 Y261,4 Y261,5 Y261,6
 Y262,0 Y262,1 Y262,2 Y262,3 Y262,4 Y262,5 Y262,6 Y263,0 Y263,1 Y263,2 Y263,3 Y263,4 Y263,5 Y263,6 Y264,0
 Y264,1 Y264,2 Y264,3 Y264,4 Y264,5 Y264,6 Y265,0 Y265,1 Y265,2 Y265,3 Y265,4 Y265,5 Y265,6 Y266,0 Y266,1
 Y266,2 Y266,3 Y266,4 Y266,5 Y266,6 Y267,0 Y267,1 Y267,2 Y267,3 Y267,4 Y267,5 Y267,6 Y268,0 Y268,1 Y268,2
 Y268,3 Y268,4 Y268,5 Y268,6 Y269,0 Y269,1 Y269,2 Y269,3 Y269,4 Y269,5 Y269,6 Y270,0 Y270,1 Y270,2 Y270,3
 Y270,4 Y270,5 Y270,6 Y271,0 Y271,1 Y271,2 Y271,3 Y271,4 Y271,5 Y271,6 Y272,0 Y272,1 Y272,2 Y272,3 Y272,4
 Y272,5 Y272,6 Y273,0 Y273,1 Y273,2 Y273,3 Y273,4 Y273,5 Y273,6 Y274,0 Y274,1 Y274,2 Y274,3 Y274,4 Y274,5
 Y274,6 Y275,0 Y275,1 Y275,2 Y275,3 Y275,4 Y275,5 Y275,6 Y276,0 Y276,1 Y276,2 Y276,3 Y276,4 Y276,5 Y276,6
 Y277,0 Y277,1 Y277,2 Y277,3 Y277,4 Y277,5 Y277,6 Y278,0 Y278,1 Y278,2 Y278,3 Y278,4 Y278,5 Y278,6 Y279,0
 Y279,1 Y279,2 Y279,3 Y279,4 Y279,5 Y279,6 Y280,0 Y280,1 Y280,2 Y280,3 Y280,4 Y280,5 Y280,6 Y281,0 Y281,1
 Y281,2 Y281,3 Y281,4 Y281,5 Y281,6 Y282,0 Y282,1 Y282,2 Y282,3 Y282,4 Y282,5 Y282,6 Y283,0 Y283,1 Y283,2
 Y283,3 Y283,4 Y283,5 Y283,6 Y284,0 Y284,1 Y284,2 Y284,3 Y284,4 Y284,5 Y284,6 Y285,0 Y285,1 Y285,2 Y285,3
 Y285,4 Y285,5 Y285,6 Y286,0 Y286,1 Y286,2 Y286,3 Y286,4 Y286,5 Y286,6 Y287,0 Y287,1 Y287,2 Y287,3 Y287,4
 Y287,5 Y287,6 Y288,0 Y288,1 Y288,2 Y288,3 Y288,4 Y288,5 Y288,6 Y289,0 Y289,1 Y289,2 Y289,3 Y289,4 Y289,5
 Y289,6 Y290,0 Y290,1 Y290,2 Y290,3 Y290,4 Y290,5 Y290,6 Y291,0 Y291,1 Y291,2 Y291,3 Y291,4 Y291,5 Y291,6
 Y292,0 Y292,1 Y292,2 Y292,3 Y292,4 Y292,5 Y292,6 Y293,0 Y293,1 Y293,2 Y293,3 Y293,4 Y293,5 Y293,6 Y294,0
 Y294,1 Y294,2 Y294,3 Y294,4 Y294,5 Y294,6 Y295,0 Y295,1 Y295,2 Y295,3 Y295,4 Y295,5 Y295,6 Y296,0 Y296,1
 Y296,2 Y296,3 Y296,4 Y296,5 Y296,6 Y297,0 Y297,1 Y297,2 Y297,3 Y297,4 Y297,5 Y297,6 Y298,0 Y298,1 Y298,2
 Y298,3 Y298,4 Y298,5 Y298,6 Y299,0 Y299,1 Y299,2 Y299,3 Y299,4 Y299,5 Y299,6 Y300,0 Y300,1 Y300,2 Y300,3
 Y300,4 Y300,5 Y300,6 Y301,0 Y301,1 Y301,2 Y301,3 Y301,4 Y301,5 Y301,6 Y302,0 Y302,1 Y302,2 Y302,3 Y302,4
 Y302,5 Y302,6 Y303,0 Y303,1 Y303,2 Y303,3 Y303,4 Y303,5 Y303,6 Y304,0 Y304,1 Y304,2 Y304,3 Y304,4 Y304,5
 Y304,6 Y305,0 Y305,1 Y305,2 Y305,3 Y305,4 Y305,5 Y305,6 Y306,0 Y306,1 Y306,2 Y306,3 Y306,4 Y306,5 Y306,6
 Y307,0 Y307,1 Y307,2 Y307,3 Y307,4 Y307,5 Y307,6 Y308,0 Y308,1 Y308,2 Y308,3 Y308,4 Y308,5 Y308,6 Y309,0
 Y309,1 Y309,2 Y309,3 Y309,4 Y309,5 Y309,6 Y310,0 Y310,1 Y310,2 Y310,3 Y310,4 Y310,5 Y310,6 Y311,0 Y311,1
 Y311,2 Y311,3 Y311,4 Y311,5 Y311,6 Y312,0 Y312,1 Y312,2 Y312,3 Y312,4 Y312,5 Y312,6 Y313,0 Y313,1 Y313,2
 Y313,3 Y313,4 Y313,5 Y313,6 Y314,0 Y314,1 Y314,2 Y314,3 Y314,4 Y314,5 Y314,6 Y315,0 Y315,1 Y315,2 Y315,3
 Y315,4 Y315,5 Y315,6 Y316,0 Y316,1 Y316,2 Y316,3 Y316,4 Y316,5 Y316,6 Y317,0 Y317,1 Y317,2 Y317,3 Y317,4
 Y317,5 Y317,6 Y318,0 Y318,1 Y318,2 Y318,3 Y318,4 Y318,5 Y318,6 Y319,0 Y319,1 Y319,2 Y319,3 Y319,4 Y319,5
 Y319,6 Y320,0 Y320,1 Y320,2 Y320,3 Y320,4 Y320,5 Y320,6 Y321,0 Y321,1 Y321,2 Y321,3 Y321,4 Y321,5 Y321,6
 Y322,0 Y322,1 Y322,2 Y322,3 Y322,4 Y322,5 Y322,6 Y323,0 Y323,1 Y323,2 Y323,3 Y323,4 Y323,5 Y323,6 Y324,0
 Y324,1 Y324,2 Y324,3 Y324,4 Y324,5 Y324,6 Y325,0 Y325,1 Y325,2 Y325,3 Y325,4 Y325,5 Y325,6 Y326,0 Y326,1
 Y326,2 Y326,3 Y326,4 Y326,5 Y326,6 Y327,0 Y327,1 Y327,2 Y327,3 Y327,4 Y327,5 Y327,6 Y328,0 Y328,1 Y328,2
 Y328,3 Y328,4 Y328,5 Y328,6 Y329,0 Y329,1 Y329,2 Y329,3 Y329,4 Y329,5 Y329,6 Y330,0 Y330,1 Y330,2 Y330,3
 Y330,4 Y330,5 Y330,6 Y331,0 Y331,1 Y331,2 Y331,3 Y331,4 Y331,5 Y331,6 Y332,0 Y332,1 Y332,2 Y332,3 Y332,4
 Y332,5 Y332,6 Y333,0 Y333,1 Y333,2 Y333,3 Y333,4 Y333,5 Y333,6 Y334,0 Y334,1 Y334,2 Y334,3 Y334,4 Y334,5
 Y334,6 Y335,0 Y335,1 Y335,2 Y335,3 Y335,4 Y335,5 Y335,6 Y336,0 Y336,1 Y336,2 Y336,3 Y336,4 Y336,5 Y336,6
 Y337,0 Y337,1 Y337,2 Y337,3 Y337,4 Y337,5 Y337,6 Y338,0 Y338,1 Y338,2 Y338,3 Y338,4 Y338,5 Y338,6 Y339,0
 Y339,1 Y339,2 Y339,3 Y339,4 Y339,5 Y339,6 Y340,0 Y340,1 Y340,2 Y340,3 Y340,4 Y340,5 Y340,6 Y341,0 Y341,1
 Y341,2 Y341,3 Y341,4 Y341,5 Y341,6 Y342,0 Y342,1 Y342,2 Y342,3 Y342,4 Y342,5 Y342,6 Y343,0 Y343,1 Y343,2
 Y343,3 Y343,4 Y343,5 Y343,6 Y344,0 Y344,1 Y344,2 Y344,3 Y344,4 Y344,5 Y344,6 Y345,0 Y345,1 Y345,2 Y345,3
 Y345,4 Y345,5 Y345,6 Y346,0 Y346,1 Y346,2 Y346,3 Y346,4 Y346,5 Y346,6 Y347,0 Y347,1 Y347,2 Y347,3 Y347,4
 Y347,5 Y347,6 Y348,0 Y348,1 Y348,2 Y348,3 Y348,4 Y348,5 Y348,6 Y349,0 Y349,1 Y349,2 Y349,3 Y349,4 Y349,5
 Y349,6 Y350,0 Y350,1 Y350,2 Y350,3 Y350,4 Y350,5 Y350,6 Y351,0 Y351,1 Y351,2 Y351,3 Y351,4 Y351,5 Y351,6
 Y352,0 Y352,1 Y352,2 Y352,3 Y352,4 Y352,5 Y352,6 Y353,0 Y353,1 Y353,2 Y353,3 Y353,4 Y353,5 Y353,6 Y354,0
 Y354,1 Y354,2 Y354,3 Y354,4 Y354,5 Y354,6 Y355,0 Y355,1 Y355,2 Y355,3 Y355,4 Y355,5 Y355,6 Y356,0 Y356,1
 Y356,2 Y356,3 Y356,4 Y356,5 Y356,6 Y357,0 Y357,1 Y357,2 Y357,3 Y357,4 Y357,5 Y357,6 Y358,0 Y358,1 Y358,2
 Y358,3 Y358,4 Y358,5 Y358,6 Y359,0 Y359,1 Y359,2 Y359,3 Y359,4 Y359,5 Y359,6 Y360,0 Y360,1 Y360,2 Y360,3
 Y360,4 Y360,5 Y360,6 Y361,0 Y361,1 Y361,2 Y361,3 Y361,4 Y361,5 Y361,6 Y362,0 Y362,1 Y362,2 Y362,3 Y362,4
 Y362,5 Y362,6 Y363,0 Y363,1 Y363,2 Y363,3 Y363,4 Y363,5 Y363,6 Y364,0 Y364,1 Y364,2 Y364,3 Y364,4 Y364,5
 Y364,6 Y365,0 Y365,1 Y365,2 Y365,3 Y365,4 Y365,5 Y365,6 Y366,0 Y366,1 Y366,2 Y366,3 Y366,4 Y366,5 Y366,6
 Y367,0 Y367,1 Y367,2 Y367,3 Y367,4 Y367,5 Y367,6 Y368,0 Y368,1 Y368,2 Y368,3 Y368,4 Y368,5 Y368,6 Y369,0
 Y369,1 Y369,2 Y369,3 Y369,4 Y369,5 Y369,6 Y370,0 Y370,1 Y370,2 Y370,3 Y370,4 Y370,5 Y370,6 Y371,0 Y371,1
 Y371,2 Y371,3 Y371,4 Y371,5 Y371,6 Y372,0 Y372,1 Y372,2 Y372,3 Y372,4 Y372,5 Y372,6 Y373,0 Y373,1 Y373,2
 Y373,3 Y373,4 Y373,5 Y373,6 Y374,0 Y374,1 Y374,2 Y374,3 Y374,4 Y374,5 Y374,6 Y375,0 Y375,1 Y375,2 Y375,3
 Y375,4 Y375,5 Y375,6 Y376,0 Y376,1 Y376,2 Y376,3 Y376,4 Y376,5 Y376,6 Y377,0 Y377,1 Y377,2 Y377,3 Y377,4
 Y377,5 Y377,6 Y378,0 Y378,1 Y378,2 Y378,3 Y378,4 Y378,5 Y378,6 Y379,0 Y379,1 Y379,2 Y379,3 Y379,4 Y379,5
 Y379,6 Y380,0 Y380,1 Y380,2 Y380,3 Y380,4 Y380,5 Y380,6 Y381,0 Y381,1 Y381,2 Y381,3 Y381,4 Y381,5 Y381,6
 Y382,0 Y382,1 Y382,2 Y382,3 Y382,4 Y382,5 Y382,6 Y383,0 Y383,1 Y383,2 Y383,3 Y383,4 Y383,5 Y383,6 Y384,0
 Y384,1 Y384,2 Y384,3 Y384,4 Y384,5 Y384,6 Y385,0 Y385,1 Y385,2 Y385,3 Y385,4 Y385,5 Y385,6 Y386,0 Y386,1
 Y386,2 Y386,3 Y386,4 Y386,5 Y386,6 Y387,0 Y387,1 Y387,2 Y387,3 Y387,4 Y387,5 Y387,6 Y388,0 Y388,1 Y388,2
 Y388,3 Y388,4 Y388,5 Y388,6 Y389,0 Y389,1 Y389,2 Y389,3 Y389,4 Y389,5 Y389,6 Y390,0 Y390,1 Y390,2 Y390,3
 Y390,4 Y390,5 Y390,6 Y391,0 Y391,1 Y391,2 Y391,3 Y391,4 Y391,5 Y391,6 Y392,0 Y392,1 Y392,2 Y392,3 Y392,4
 Y392,5 Y392,6 Y393,0 Y393,1 Y393,2 Y393,3 Y393,4 Y393,5 Y393,6 Y394,0 Y394,1 Y394,2 Y394,3 Y394,4 Y394,5
 Y394,6 Y395,0 Y395,1 Y395,2 Y395,3 Y395,4 Y395,5 Y395,6 Y396,0 Y396,1 Y396,2 Y396,3 Y396,4 Y396,5 Y396,6
 Y397,0 Y397,1 Y397,2 Y397,3 Y397,4 Y397,5 Y397,6 Y398,0 Y398,1 Y398,2 Y398,3 Y398,4 Y398,5 Y398,6 Y399,0
 Y399,1 Y399,2 Y399,3 Y399,4 Y399,5 Y399,6 Y400,0 Y400,1 Y400,2 Y400,3 Y400,4 Y400,5 Y400,6 Y401,0 Y401,1
 Y401,2 Y401,3 Y401,4 Y401,5 Y401,6 Y402,0 Y402,1 Y402,2 Y402,3 Y402,4 Y402,5 Y402,6 Y403,0 Y403,1 Y403,2
 Y403,3 Y403,4 Y403,5 Y403,6 Y404,0 Y404,1 Y404,2 Y404,3 Y404,4 Y404,5 Y404,6 Y405,0 Y405,1 Y405,2 Y405,3
 Y405,4 Y405,5 Y405,6 Y406,0 Y406,1 Y406,2 Y406,3 Y406,4 Y406,5 Y406,6 Y407,0 Y407,1 Y407,2 Y407,3 Y407,4
 Y407,5 Y407,6 Y408,0 Y408,1 Y408,2 Y408,3 Y408,4 Y408,5 Y408,6 Y409,0 Y409,1 Y409,2 Y409,3 Y409,4 Y409,5
 Y409,6 Y410,0 Y410,1 Y410,2 Y410,3 Y410,4 Y410,5 Y410,6 Y411,0 Y411,1 Y411,2 Y411,3 Y411,4 Y411,5 Y411,6
 Y412,0 Y412,1 Y412,2 Y412,3 Y412,4 Y412,5 Y412,6 Y413,0 Y413,1 Y413,2 Y413,3 Y413,4 Y413,5 Y413,6 Y414,0
 Y414,1 Y414,2 Y414,3 Y414,4 Y414,5 Y414,6 Y415,0 Y415,1 Y415,2 Y415,3 Y415,4 Y415,5 Y415,6 Y416,0 Y416,1
 Y416,2 Y416,3 Y416,4 Y416,5 Y416,6 Y417,0 Y417,1 Y417,2 Y417,3 Y417,4 Y417,5 Y417,6 Y418,0 Y418,1 Y418,2
 Y418,3 Y418,4 Y418,5 Y418,6 Y419,0 Y419,1 Y419,2 Y419,3 Y419,4 Y419,5 Y419,6 Y420,0 Y420,1 Y420,2 Y420,3
 Y420,4 Y420,5 Y420,6 Y421,0 Y421,1 Y421,2 Y421,3 Y421,4 Y421,5 Y421,6 Y422,0 Y422,1 Y422,2 Y422,3 Y422,4
 Y422,5 Y422,6 Y423,0 Y423,1 Y423,2 Y423,3 Y423,4 Y423,5 Y423,6 Y424,0 Y424,1 Y424,2 Y424,3 Y424,4 Y424,5
 Y424,6 Y425,0 Y425,1 Y425,2 Y425,3 Y425,4 Y425,5 Y425,6 Y426,0 Y426,1 Y426,2 Y426,3 Y426,4 Y426,5 Y426,6
 Y427,0 Y427,1 Y427,2 Y427,3 Y427,4 Y427,5 Y427,6 Y428,0 Y428,1 Y428,2 Y428,3 Y428,4 Y428,5 Y428,6 Y429,0
 Y429,1 Y429,2 Y429,3 Y429,4 Y429,5 Y429,6 Y430,0 Y430,1 Y430,2 Y430,3 Y430,4 Y430,5 Y430,6 Y431,0 Y431,1
 Y431,2 Y431,3 Y431,4 Y431,5 Y431,6 Y432,0 Y432,1 Y432,2 Y432,3 Y432,4 Y432,5 Y432,6 Y433,0 Y433,1 Y433,2
 Y433,3 Y433,4 Y433,5 Y433,6 Y434,0 Y434,1 Y434,2 Y434,3 Y434,4 Y434,5 Y434,6 Y435,0 Y435,1 Y435,2 Y435,3
 Y435,4 Y435,5 Y435,6 Y436,0 Y436,1 Y436,2 Y436,3 Y436,4 Y436,5 Y436,6 Y437,0 Y437,1 Y437,2 Y437,3 Y437,4
 Y437,5 Y437,6 Y438,0 Y438,1 Y438,2 Y438,3 Y438,4 Y438,5 Y438,6 Y439,0 Y439,1 Y439,2 Y439,3 Y439,4 Y439,5
 Y439,6 Y440,0 Y440,1 Y440,2 Y440,3 Y440,4 Y440,5 Y440,6 Y441,0 Y441,1 Y441,2 Y441,3 Y441,4 Y441,5 Y441,6
 Y442,0 Y442,1 Y442,2 Y442,3 Y442,4 Y442,5 Y442,6 Y443,0 Y443,1 Y443,2 Y443,3 Y443,4 Y443,5 Y443,6 Y444,0
 Y444,1 Y444,2 Y444,3 Y444,4 Y444,5 Y444,6 Y445,0 Y445,1 Y445,2 Y445,3 Y445,4 Y445,5 Y445,6 Y446,0 Y446,1
 Y446,2 Y446,3 Y446,4 Y446,5 Y446,6 Y447,0 Y447,1 Y447,2 Y447,3 Y447,4 Y447,5 Y447,6 Y448,0 Y448,1 Y448,2
 Y448,3 Y448,4 Y448,5 Y448,6 Y449,0 Y449,1 Y449,2 Y449,3 Y449,4 Y449,5 Y449,6 Y450,0 Y450,1 Y450,2 Y450,3
 Y450,4 Y450,5 Y450,6 Y451,0 Y451,1 Y451,2 Y451,3 Y451,4 Y451,5 Y451,6 Y452,0 Y452,1 Y452,2 Y452,3 Y452,4
 Y452,5 Y452,6 Y453,0 Y453,1 Y453,2 Y453,3 Y453,4 Y453,5 Y453,6 Y454,0 Y454,1 Y454,2 Y454,3 Y454,4 Y454,5
 Y454,6 Y455,0 Y455,1 Y455,2 Y455,3 Y455,4 Y455,5 Y455,6 Y456,0 Y456,1 Y456,2 Y456,3 Y456,4 Y456,5 Y456,6
 Y457,0 Y457,1 Y457,2 Y457,3 Y457,4 Y457,5 Y457,6 Y458,0 Y458,1 Y458,2 Y458,3 Y458,4 Y458,5 Y458,6 Y459,0
 Y459,1 Y459,2 Y459,3 Y459,4 Y459,5 Y459,6 Y460,0 Y460,1 Y460,2 Y460,3 Y460,4 Y460,5 Y460,6 Y461,0 Y461,1
 Y461,2 Y461,3 Y461,4 Y461,5 Y461,6 Y462,0 Y462,1 Y462,2 Y462,3 Y462,4 Y462,5 Y462,6 Y463,0 Y463,1 Y463,2
 Y463,3 Y463,4 Y463,5 Y463,6 Y464,0 Y464,1 Y464,2 Y464,3 Y464,4 Y464,5 Y464,6 Y465,0 Y465,1 Y465,2 Y465,3
 Y465,4 Y465,5 Y465,6 Y466,0 Y466,1 Y466,2 Y466,3 Y466,4 Y466,5 Y466,6 Y467,0 Y467,1 Y467,2 Y467,3 Y467,4
 Y467,5 Y467,6 Y468,0 Y468,1 Y468,2 Y468,3 Y468,4 Y468,5 Y468,6 Y469,0 Y469,1 Y469,2 Y469,3 Y469,4 Y469,5
 Y469,6 Y470,0 Y470,1 Y470,2 Y470,3 Y470,4 Y470,5 Y470,6 Y471,0 Y471,1 Y471,2 Y471,3 Y471,4 Y471,5 Y471,6
 Y472,0 Y472,1 Y472,2 Y472,3 Y472,4 Y472,5 Y472,6 Y473,0 Y473,1 Y473,2 Y473,3 Y473,4 Y473,5 Y473,6 Y474,0
 Y474,1 Y474,2 Y474,3 Y474,4 Y474,5 Y474,6 Y475,0 Y475,1 Y475,2 Y475,3 Y475,4 Y475,5 Y475,6 Y476,0 Y476,1
 Y476,2 Y476,3 Y476,4 Y476,5 Y476,6 Y477,0 Y477,1 Y477,2 Y477,3 Y477,4 Y477,5 Y477,6 Y478,0 Y478,1 Y478,2
 Y478,3 Y478,4 Y478,5 Y478,6 Y479,0 Y479,1 Y479,2 Y479,3 Y479,4 Y479,5 Y479,6 Y480,0 Y480,1 Y480,2 Y480,3
 Y480,4 Y480,5 Y480,6 Y481,0 Y481,1 Y481,2 Y481,3 Y481,4 Y481,5 Y481,6 Y482,0 Y482,1 Y482,2 Y482,3 Y482,4
 Y482,5 Y482,6 Y483,0 Y483,1 Y483,2 Y483,3 Y483,4 Y483,5 Y483,6 Y484,0 Y484,1 Y484,2 Y484,3 Y484,4 Y484,5
 Y484,6 Y485,0 Y485,1 Y485,2 Y485,3 Y485,4 Y485,5 Y485,6 Y486,0 Y486,1 Y486,2 Y486,3 Y486,4 Y486,5 Y486,6
 Y487,0 Y487,1 Y487,2 Y487,3 Y487,4 Y487,5 Y487,6 Y488,0 Y488,1 Y488,2 Y488,3 Y488,4 Y488,5 Y488,6 Y489,0
 Y489,1 Y489,2 Y489,3 Y489,4 Y489,5 Y489,6 Y490,0 Y490,1 Y490,2 Y490,3 Y490,4 Y490,5 Y490,6 Y491,0 Y491,1
 Y491,2 Y491,3 Y491,4 Y491,5 Y491,6 Y492,0 Y492,1 Y492,2 Y492,3 Y492,4 Y492,5 Y492,6 Y493,0 Y493,1 Y493,2
 Y493,3 Y493,4 Y493,5 Y493,6 Y494,0 Y494,1 Y494,2 Y494,3 Y494,4 Y494,5 Y494,6 Y495,0 Y495,1 Y495,2 Y495,3
 Y495,4 Y495,5 Y495,6 Y496,0 Y496,1 Y496,2 Y496,3 Y496,4 Y496,5 Y496,6 Y497,0 Y497,1 Y497,2 Y497,3 Y497,4
 Y497,5 Y497,6 Y498,0 Y498,1 Y498,2 Y498,3 Y498,4 Y498,5 Y498,6 Y499,0 Y499,1 Y499,2 Y499,3 Y499,4 Y499,5
 Y499,6 Y500,0 Y500,1 Y500,2 Y500,3 Y500,4 Y500,5 Y500,6 Y501,0 Y501,1 Y501,2 Y501,3 Y501,4 Y501,5 Y501,6
 Y502,0 Y502,1 Y502,2 Y502,3 Y502,4 Y502,5 Y502,6 Y503,0 Y503,1 Y503,2 Y503,3 Y503,4 Y503,5 Y503,6 Y504,0
 Y504,1 Y504,2 Y504,3 Y504,4 Y504,5 Y504,6 Y505,0 Y505,1 Y505,2 Y505,3 Y505,4 Y505,5 Y505,6 Y506,0 Y506,1
 Y506,2 Y506,3 Y506,4 Y506,5 Y506,6 Y507,0 Y507,1 Y507,2 Y507,3 Y507,4 Y507,5 Y507,6 Y508,0 Y508,1 Y508,2
 Y508,3 Y508,4 Y508,5 Y508,6 Y509,0 Y509,1 Y509,2 Y509,3 Y509,4 Y509,5 Y509,6 Y510,0 Y510,1 Y510,2 Y510,3
 Y510,4 Y510,5 Y510,6 Y511,0 Y511,1 Y511,2 Y511,3 Y511,4 Y511,5 Y511,6 Y512,0 Y512,1 Y512,2 Y512,3 Y512,4
 Y512,5 Y512,6 Y513,0 Y513,1 Y513,2 Y513,3 Y513,4 Y513,5 Y513,6 Y514,0 Y514,1 Y514,2 Y514,3 Y514,4 Y514,5
 Y514,6 Y515,0 Y515,1 Y515,2 Y515,3 Y515,4 Y515,5 Y515,6 Y516,0 Y516,1 Y516,2 Y516,3 Y516,4 Y516,5 Y516,6
 Y517,0 Y517,1 Y517,2 Y517,3 Y517,4 Y517,5 Y517,6 Y518,0 Y518,1 Y518,2 Y518,3 Y518,4 Y518,5 Y518,6 Y519,0
 Y519,1 Y519,2 Y519,3 Y519,4 Y519,5 Y519,6 Y520,0 Y520,1 Y520,2 Y520,3 Y520,4 Y520,5 Y520,6 Y521,0 Y521,1
 Y521,2 Y521,3 Y521,4 Y521,5 Y521,6 Y522,0 Y522,1 Y522,2 Y522,3 Y522,4 Y522,5 Y522,6 Y523,0 Y523,1 Y523,2
 Y523,3 Y523,4 Y523,5 Y523,6 Y524,0 Y524,1 Y524,2 Y524,3 Y524,4 Y524,5 Y524,6 Y525,0 Y525,1 Y525,2 Y525,3
 Y525,4 Y525,5 Y525,6 Y526,0 Y526,1 Y526,2 Y526,3 Y526,4 Y526,5 Y526,6 Y527,0 Y527,1 Y527,2 Y527,3 Y527,4
 Y527,5 Y527,6 Y528,0 Y528,1 Y528,2 Y528,3 Y528,4 Y528,5 Y528,6 Y529,0 Y529,1 Y529,2 Y529,3 Y529,4 Y529,5
 Y529,6 Y530,0 Y530,1 Y530,2 Y530,3 Y530,4 Y530,5 Y530,6 Y531,0 Y531,1 Y531,2 Y531,3 Y531,4 Y531,5 Y531,6
 Y532,0 Y532,1 Y532,2 Y532,3 Y532,4 Y532,5 Y532,6 Y533,0 Y533,1 Y533,2 Y533,3 Y533,4 Y533,5 Y533,6 Y534,0
 Y534,1 Y534,2 Y534,3 Y534,4 Y534,5 Y534,6 Y535,0 Y535,1 Y535,2 Y535,3 Y535,4 Y535,5 Y535,6 Y536,0 Y536,1
 Y536,2 Y536,3 Y536,4 Y536,5 Y536,6 Y537,0 Y537,1 Y537,2 Y537,3 Y537,4 Y537,5 Y537,6 Y538,0 Y538,1 Y538,2
 Y538,3 Y538,4 Y538,5 Y538,6 Y539,0 Y539,1 Y539,2 Y539,3 Y539,4 Y539,5 Y539,6 Y540,0 Y540,1 Y540,2 Y540,3
 Y540,4 Y540,5 Y540,6 Y541,0 Y541,1 Y541,2 Y541,3 Y541,4 Y541,5 Y541,6 Y542,0 Y542,1 Y542,2 Y542,3 Y542,4
 Y542,5 Y542,6 Y543,0 Y543,1 Y543,2 Y543,3 Y543,4 Y543,5 Y543,6 Y544,0 Y544,1 Y544,2 Y544,3 Y544,4 Y544,5
 Y544,6 Y545,0 Y545,1 Y545,2 Y545,3 Y545,4 Y545,5 Y545,6 Y546,0 Y546,1 Y546,2 Y546,3 Y546,4 Y546,5 Y546,6
 Y547,0 Y547,1 Y547,2 Y547,3 Y547,4 Y547,5 Y547,6 Y548,0 Y548,1 Y548,2 Y548,3 Y548,4 Y548,5 Y548,6 Y549,0
 Y549,1 Y549,2 Y549,3 Y549,4 Y549,5 Y549,6 Y550,0 Y550,1 Y550,2 Y550,3 Y550,4 Y550,5 Y550,6 Y551,0 Y551,1
 Y551,2 Y551,3 Y551,4 Y551,5 Y551,6 Y552,0 Y552,1 Y552,2 Y552,3 Y552,4 Y552,5 Y552,6 Y553,0 Y553,1 Y553,2
 Y553,3 Y553,4 Y553,5 Y553,6 Y554,0 Y554,1 Y554,2 Y554,3 Y554,4 Y554,5 Y554,6 Y555,0 Y555,1 Y555,2 Y555,3
 Y555,4 Y555,5 Y555,6 Y556,0 Y556,1 Y556,2 Y556,3 Y556,4 Y556,5 Y556,6 Y557,0 Y557,1 Y557,2 Y557,3 Y557,4
 Y557,5 Y557,6 Y558,0 Y558,1 Y558,2 Y558,3 Y558,4 Y558,5 Y558,6 Y559,0 Y559,1 Y559,2 Y559,3 Y559,4 Y559,5
 Y559,6 Y560,0 Y560,1 Y560,2 Y560,3 Y560,4 Y560,5 Y560,6 Y561,0 Y561,1 Y561,2 Y561,3 Y561,4 Y561,5 Y561,6
 Y562,0 Y562,1 Y562,2 Y562,3 Y562,4 Y562,5 Y562,6 Y563,0 Y563,1 Y563,2 Y563,3 Y563,4 Y563,5 Y563,6 Y564,0
 Y564,1 Y564,2 Y564,3 Y564,4 Y564,5 Y564,6 Y565,0 Y565,1 Y565,2 Y565,3 Y565,4 Y565,5 Y565,6 Y566,0 Y566,1
 Y566,2 Y566,3 Y566,4 Y566,5 Y566,6 Y567,0 Y567,1 Y567,2 Y567,3 Y567,4 Y567,5 Y567,6 Y568,0 Y568,1 Y568,2
 Y568,3 Y568,4 Y568,5 Y568,6 Y569,0 Y569,1 Y569,2 Y569,3 Y569,4 Y569,5 Y569,6 Y570,0 Y570,1 Y570,2 Y570,3
 Y570,4 Y570,5 Y570,6 Y571,0 Y571,1 Y571,2 Y571,3 Y571,4 Y571,5 Y571,6 Y572,0 Y572,1 Y572,2 Y572,3 Y572,4
 Y572,5 Y572,6 Y573,0 Y573,1 Y573,2 Y573,3 Y573,4 Y573,5 Y573,6 Y574,0 Y574,1 Y574,2 Y574,3 Y574,4 Y574,5
 Y574,6 Y575,0 Y575,1 Y575,2 Y575,3 Y575,4 Y575,5 Y575,6 Y576,0 Y576,1 Y576,2 Y576,3 Y576,4 Y576,5 Y576,6
 Y577,0 Y577,1 Y577,2 Y577,3 Y577,4 Y577,5 Y577,6 Y578,0 Y578,1 Y578,2 Y578,3 Y578,4 Y578,5 Y578,6 Y579,0
 Y579,1 Y579,2 Y579,3 Y579,4 Y579,5 Y579,6 Y580,0 Y580,1 Y580,2 Y580,3 Y580,4 Y580,5 Y580,6 Y581,0 Y581,1
 Y581,2 Y581,3 Y581,4 Y581,5 Y581,6 Y582,0 Y582,1 Y582,2 Y582,3 Y582,4 Y582,5 Y582,6 Y583,0 Y583,1 Y583,2
 Y583,3 Y583,4 Y583,5 Y583,6 Y584,0 Y584,1 Y584,2 Y584,3 Y584,4 Y584,5 Y584,6 Y585,0 Y585,1 Y585,2 Y585,3
 Y585,4 Y585,5 Y585,6 Y586,0 Y586,1 Y586,2 Y586,3 Y586,4 Y586,5 Y586,6 Y587,0 Y587,1 Y587,2 Y587,3 Y587,4
 Y587,5 Y587,6 Y588,0 Y588,1 Y588,2 Y588,3 Y588,4 Y588,5 Y588,6 Y589,0 Y589,1 Y589,2 Y589,3 Y589,4 Y589,5
 Y589,6 Y590,0 Y590,1 Y590,2 Y590,3 Y590,4 Y590,5 Y590,6 Y591,0 Y591,1 Y591,2 Y591,3 Y591,4 Y591,5 Y591,6
 Y592,0 Y592,1 Y592,2 Y592,3 Y592,4 Y592,5 Y592,6 Y593,0 Y593,1 Y593,2 Y593,3 Y593,4 Y593,5 Y593,6 Y594,0
 Y594,1 Y594,2 Y594,3 Y594,4 Y594,5 Y594,6 Y595,0 Y595,1 Y595,2 Y595,3 Y595,4 Y595,5 Y595,6 Y596,0 Y596,1
 Y596,2 Y596,3 Y596,4 Y596,5 Y596,6 Y597,0 Y597,1 Y597,2 Y597,3 Y597,4 Y597,5 Y597,6 Y598,0 Y598,1 Y598,2
 Y598,3 Y598,4 Y598,5 Y598,6 Y599,0 Y599,1 Y599,2 Y599,3 Y599,4 Y599,5 Y599,6 Y600,0 Y600,1 Y600,2 Y600,3
 Y600,4 Y600,5 Y600,6 Y601,0 Y601,1 Y601,2 Y601,3 Y601,4 Y601,5 Y601,6 Y602,0 Y602,1 Y602,2 Y602,3 Y602,4
 Y602,5 Y602,6 Y603,0 Y603,1 Y603,2 Y603,3 Y603,4 Y603,5 Y603,6 Y604,0 Y604,1 Y604,2 Y604,3 Y604,4 Y604,5
 Y604,6 Y605,0 Y605,1 Y605,2 Y605,3 Y605,4 Y605,5 Y605,6 Y606,0 Y606,1 Y606,2 Y606,3 Y606,4 Y606,5 Y606,6
 Y607,0 Y607,1 Y607,2 Y607,3 Y607,4 Y607,5 Y607,6 Y608,0 Y608,1 Y608,2 Y608,3 Y608,4 Y608,5 Y608,6 Y609,0
 Y609,1 Y609,2 Y609,3 Y609,4 Y609,5 Y609,6 Y610,0 Y610,1 Y610,2 Y610,3 Y610,4 Y610,5 Y610,6 Y611,0 Y611,1
 Y611,2 Y611,3 Y611,4 Y611,5 Y611,6 Y612,0 Y612,1 Y612,2 Y612,3 Y612,4 Y612,5 Y612,6 Y613,0 Y613,1 Y613,2
 Y613,3 Y613,4 Y613,5 Y613,6 Y614,0 Y614,1 Y614,2 Y614,3 Y614,4 Y614,5 Y614,6 Y615,0 Y615,1 Y615,2 Y615,3
 Y615,4 Y615,5 Y615,6 Y616,0 Y616,1 Y616,2 Y616,3 Y616,4 Y616,5 Y616,6 Y617,0 Y617,1 Y617,2 Y617,3 Y617,4
 Y617,5 Y617,6 Y618,0 Y618,1 Y618,2 Y618,3 Y618,4 Y618,5 Y618,6 Y619,0 Y619,1 Y619,2 Y619,3 Y619,4 Y619,5
 Y619,6 Y620,0 Y620,1 Y620,2 Y620,3 Y620,4 Y620,5 Y620,6 Y621,0 Y621,1 Y621,2 Y621,3 Y621,4 Y621,5 Y621,6
 Y622,0 Y622,1 Y622,2 Y622,3 Y622,4 Y622,5 Y622,6 Y623,0 Y623,1 Y623,2 Y623,3 Y623,4 Y623,5 Y623,6 Y624,0
 Y624,1 Y624,2 Y624,3 Y624,4 Y624,5 Y624,6 Y625,0 Y625,1 Y625,2 Y625,3 Y625,4 Y625,5 Y625,6 Y626,0 Y626,1
 Y626,2 Y626,3 Y626,4 Y626,5 Y626,6 Y627,0 Y627,1 Y627,2 Y627,3 Y627,4 Y627,5 Y627,6 Y628,0 Y628,1 Y628,2
 Y628,3 Y628,4 Y628,5 Y628,6 Y629,0 Y629,1 Y629,2 Y629,3 Y629,4 Y629,5 Y629,6 Y630,0 Y630,1 Y630,2 Y630,3
 Y630,4 Y630,5 Y630,6 Y631,0 Y631,1 Y631,2 Y631,3 Y631,4 Y631,5 Y631,6 Y632,0 Y632,1 Y632,2 Y632,3 Y632,4
 Y632,5 Y632,6 Y633,0 Y633,1 Y633,2 Y633,3 Y633,4 Y633,5 Y633,6 Y634,0 Y634,1 Y634,2 Y634,3 Y634,4 Y634,5
 Y634,6 Y635,0 Y635,1 Y635,2 Y635,3 Y635,4 Y635,5 Y635,6 Y636,0 Y636,1 Y636,2 Y636,3 Y636,4 Y636,5 Y636,6
 Y637,0 Y637,1 Y637,2 Y637,3 Y637,4 Y637,5 Y637,6 Y638,0 Y638,1 Y638,2 Y638,3 Y638,4 Y638,5 Y638,6 Y639,0
 Y639,1 Y639,2 Y639,3 Y639,4 Y639,5 Y639,6 Y640,0 Y640,1 Y640,2 Y640,3 Y640,4 Y640,5 Y640,6 Y641,0 Y641,1
 Y641,2 Y641,3 Y641,4 Y641,5 Y641,6 Y642,0 Y642,1 Y642,2 Y642,3 Y642,4 Y642,5 Y642,6 Y643,0 Y643,1 Y643,2
 Y643,3 Y643,4 Y643,5 Y643,6 Y644,0 Y644,1 Y644,2 Y644,3 Y644,4 Y644,5 Y644,6 Y645,0 Y645,1 Y645,2 Y645,3
 Y645,4 Y645,5 Y645,6 Y646,0 Y646,1 Y646,2 Y646,3 Y646,4 Y646,5 Y646,6 Y647,0 Y647,1 Y647,2 Y647,3 Y647,4
 Y647,5 Y647,6 Y648,0 Y648,1 Y648,2 Y648,3 Y648,4 Y648,5 Y648,6 Y649,0 Y649,1 Y649,2 Y649,3 Y649,4 Y649,5
 Y649,6 Y650,0 Y650,1 Y650,2 Y650,3 Y650,4 Y650,5 Y650,6 Y651,0 Y651,1 Y651,2 Y651,3 Y651,4 Y651,5 Y651,6
 Y652,0 Y652,1 Y652,2 Y652,3 Y652,4 Y652,5 Y652,6 Y653,0 Y653,1 Y653,2 Y653,3 Y653,4 Y653,5 Y653,6 Y654,0
 Y654,1 Y654,2 Y654,3 Y654,4 Y654,5 Y654,6 Y655,0 Y655,1 Y655,2 Y655,3 Y655,4 Y655,5 Y655,6 Y656,0 Y656,1
 Y656,2 Y656,3 Y656,4 Y656,5 Y656,6 Y657,0 Y657,1 Y657,2 Y657,3 Y657,4 Y657,5 Y657,6 Y658,0 Y658,1 Y658,2
 Y658,3 Y658,4 Y658,5 Y658,6 Y659,0 Y659,1 Y659,2 Y659,3 Y659,4 Y659,5 Y659,6 Y660,0 Y660,1 Y660,2 Y660,3
 Y660,4 Y660,5 Y660,6 Y661,0 Y661,1 Y661,2 Y661,3 Y661,4 Y661,5 Y661,6 Y662,0 Y662,1 Y662,2 Y662,3 Y662,4
 Y662,5 Y662,6 Y663,0 Y663,1 Y663,2 Y663,3 Y663,4 Y663,5 Y663,6 Y664,0 Y664,1 Y664,2 Y664,3 Y664,4 Y664,5
 Y664,6 Y665,0 Y665,1 Y665,2 Y665,3 Y665,4 Y665,5 Y665,6 Y666,0 Y666,1 Y666,2 Y666,3 Y666,4 Y666,5 Y666,6
 Y667,0 Y667,1 Y667,2 Y667,3 Y667,4 Y667,5 Y667,6 Y668,0 Y668,1 Y668,2 Y668,3 Y668,4 Y668,5 Y668,6 Y669,0
 Y669,1 Y669,2 Y669,3 Y669,4 Y669,5 Y669,6 Y670,0 Y670,1 Y670,2 Y670,3 Y670,4 Y670,5 Y670,6 Y671,0 Y671,1
 Y671,2 Y671,3 Y671,4 Y671,5 Y671,6 Y672,0 Y672,1 Y672,2 Y672,3 Y672,4 Y672,5 Y672,6 Y673,0 Y673,1 Y673,2
 Y673,3 Y673,4 Y673,5 Y673,6 Y674,0 Y674,1 Y674,2 Y674,3 Y674,4 Y674,5 Y674,6 Y675,0 Y675,1 Y675,2 Y675,3
 Y675,4 Y675,5 Y675,6 Y676,0 Y676,1 Y676,2 Y676,3 Y676,4 Y676,5 Y676,6 Y677,0 Y677,1 Y677,2 Y677,3 Y677,4
 Y677,5 Y677,6 Y678,0 Y678,1 Y678,2 Y678,3 Y678,4 Y678,5 Y678,6 Y679,0 Y679,1 Y679,2 Y679,3 Y679,4 Y679,5
 Y679,6 Y680,0 Y680,1 Y680,2 Y680,3 Y680,4 Y680,5 Y680,6 Y681,0 Y681,1 Y681,2 Y681,3 Y681,4 Y681,5 Y681,6
 Y682,0 Y682,1 Y682,2 Y682,3 Y682,4 Y682,5 Y682,6 Y683,0 Y683,1 Y683,2 Y683,3 Y683,4 Y683,5 Y683,6 Y684,0
 Y684,1 Y684,2 Y684,3 Y684,4 Y684,5 Y684,6 Y685,0 Y685,1 Y685,2 Y685,3 Y685,4 Y685,5 Y685,6 Y686,0 Y686,1
 Y686,2 Y686,3 Y686,4 Y686,5 Y686,6 Y687,0 Y687,1 Y687,2 Y687,3 Y687,4 Y687,5 Y687,6 Y688,0 Y688,1 Y688,2
 Y688,3 Y688,4 Y688,5 Y688,6 Y689,0 Y689,1 Y689,2 Y689,3 Y689,4 Y689,5 Y689,6 Y690,0 Y690,1 Y690,2 Y690,3
 Y690,4 Y690,5 Y690,6 Y691,0 Y691,1 Y691,2 Y691,3 Y691,4 Y691,5 Y691,6 Y692,0 Y692,1 Y692,2 Y692,3 Y692,4
 Y692,5 Y692,6 Y693,0 Y693,1 Y693,2 Y693,3 Y693,4 Y693,5 Y693,6 Y694,0 Y694,1 Y694,2 Y694,3 Y694,4 Y694,5
 Y694,6 Y695,0 Y695,1 Y695,2 Y695,3 Y695,4 Y695,5 Y695,6 Y696,0 Y696,1 Y696,2 Y696,3 Y696,4 Y696,5 Y696,6
 Y697,0 Y697,1 Y697,2 Y697,3 Y697,4 Y697,5 Y697,6 Y698,0 Y698,1 Y698,2 Y698,3 Y698,4 Y698,5 Y698,6 Y699,0
 Y699,1 Y699,2 Y699,3 Y699,4 Y699,5 Y699,6 Y700,0 Y700,1 Y700,2 Y700,3 Y700,4 Y700,5 Y700,6 Y701,0 Y701,1
 Y701,2 Y701,3 Y701,4 Y701,5 Y701,6 Y702,0 Y702,1 Y702,2 Y702,3 Y702,4 Y702,5 Y702,6 Y703,0 Y703,1 Y703,2
 Y703,3 Y703,4 Y703,5 Y703,6 Y704,0 Y704,1 Y704,2 Y704,3 Y704,4 Y704,5 Y704,6 Y705,0 Y705,1 Y705,2 Y705,3
 Y705,4 Y705,5 Y705,6 Y706,0 Y706,1 Y706,2 Y706,3 Y706,4 Y706,5 Y706,6 Y707,0 Y707,1 Y707,2 Y707,3 Y707,4
 Y707,5 Y707,6 Y708,0 Y708,1 Y708,2 Y708,3 Y708,4 Y708,5 Y708,6 Y709,0 Y709,1 Y709,2 Y709,3 Y709,4 Y709,5
 Y709,6 Y710,0 Y710,1 Y710,2 Y710,3 Y710,4 Y710,5 Y710,6 Y711,0 Y711,1 Y711,2 Y711,3 Y711,4 Y711,5 Y711,6
 Y712,0 Y712,1 Y712,2 Y712,3 Y712,4 Y712,5 Y712,6 Y713,0 Y713,1 Y713,2 Y713,3 Y713,4 Y713,5 Y713,6 Y714,0
 Y714,1 Y714,2 Y714,3 Y714,4 Y714,5 Y714,6 Y715,0 Y715,1 Y715,2 Y715,3 Y715,4 Y715,5 Y715,6 Y716,0 Y716,1
 Y716,2 Y716,3 Y716,4 Y716,5 Y716,6 Y717,0 Y717,1 Y717,2 Y717,3 Y717,4 Y717,5 Y717,6 Y718,0 Y718,1 Y718,2
 Y718,3 Y718,4 Y718,5 Y718,6 Y719,0 Y719,1 Y719,2 Y719,3 Y719,4 Y719,5 Y719,6 Y720,0 Y720,1 Y720,2 Y720,3
 Y720,4 Y720,5 Y720,6 Y721,0 Y721,1 Y721,2 Y721,3 Y721,4 Y721,5 Y721,6 Y722,0 Y722,1 Y722,2 Y722,3 Y722,4
 Y722,5 Y722,6 Y723,0 Y723,1 Y723,2 Y723,3 Y723,4 Y723,5 Y723,6 Y724,0 Y724,1 Y724,2 Y724,3 Y724,4 Y724,5
 Y724,6 Y725,0 Y725,1 Y725,2 Y725,3 Y725,4 Y725,5 Y725,6 Y726,0 Y726,1 Y726,2 Y726,3 Y726,4 Y726,5 Y726,6
 Y727,0 Y727,1 Y727,2 Y727,3 Y727,4 Y727,5 Y727,6 Y728,0 Y728,1 Y728,2 Y728,3 Y728,4 Y728,5 Y728,6 Y729,0
 Y729,1 Y729,2 Y729,3 Y729,4 Y729,5 Y729,6 Y730,0 Y730,1 Y730,2 Y730,3 Y730,4 Y730,5 Y730,6 Y731,0 Y731,1
 Y731,2 Y731,3 Y731,4 Y731,5 Y731,6 Y732,0 Y732,1 Y732,2 Y732,3 Y732,4 Y732,5 Y732,6 Y733,0 Y733,1 Y733,2
 Y733,3 Y733,4 Y733,5 Y733,6 Y734,0 Y734,1 Y734,2 Y734,3 Y734,4 Y734,5 Y734,6 Y735,0 Y735,1 Y735,2 Y735,3
 Y735,4 Y735,5 Y735,6 Y736,0 Y736,1 Y736,2 Y736,3 Y736,4 Y736,5 Y736,6 Y737,0 Y737,1 Y737,2 Y737,3 Y737,4
 Y737,5 Y737,6 Y738,0 Y738,1 Y738,2 Y738,3 Y738,4 Y738,5 Y738,6 Y739,0 Y739,1 Y739,2 Y739,3 Y739,4 Y739,5
 Y739,6 Y740,0 Y740,1 Y740,2 Y740,3 Y740,4 Y740,5 Y740,6 Y741,0 Y741,1 Y741,2 Y741,3 Y741,4 Y741,5 Y741,6
 Y742,0 Y742,1 Y742,2 Y742,3 Y742,4 Y742,5 Y742,6 Y743,0 Y743,1 Y743,2 Y743,3 Y743,4 Y743,5 Y743,6 Y744,0
 Y744,1 Y744,2 Y744,3 Y744,4 Y744,5 Y744,6 Y745,0 Y745,1 Y745,2 Y745,3 Y745,4 Y745,5 Y745,6 Y746,0 Y746,1
 Y746,2 Y746,3 Y746,4 Y746,5 Y746,6 Y747,0 Y747,1 Y747,2 Y747,3 Y747,4 Y747,5 Y747,6 Y748,0 Y748,1 Y748,2
 Y748,3 Y748,4 Y748,5 Y748,6 Y749,0 Y749,1 Y749,2 Y749,3 Y749,4 Y749,5 Y749,6 Y750,0 Y750,1 Y750,2 Y750,3
 Y750,4 Y750,5 Y750,6 Y751,0 Y751,1 Y751,2 Y751,3 Y751,4 Y751,5 Y751,6 Y752,0 Y752,1 Y752,2 Y752,3 Y752,4
 Y752,5 Y752,6 Y753,0 Y753,1 Y753,2 Y753,3 Y753,4 Y753,5 Y753,6 Y754,0 Y754,1 Y754,2 Y754,3 Y754,4 Y754,5
 Y754,6 Y755,0 Y755,1 Y755,2 Y755,3 Y755,4 Y755,5 Y755,6 Y756,0 Y756,1 Y756,2 Y756,3 Y756,4 Y756,5 Y756,6
 Y757,0 Y757,1 Y757,2 Y757,3 Y757,4 Y757,5 Y757,6 Y758,0 Y758,1 Y758,2 Y758,3 Y758,4 Y758,5 Y758,6 Y759,0
 Y759,1 Y759,2 Y759,3 Y759,4 Y759,5 Y759,6 Y760,0 Y760,1 Y760,2 Y760,3 Y760,4 Y760,5 Y760,6 Y761,0 Y761,1
 Y761,2 Y761,3 Y761,4 Y761,5 Y761,6 Y762,0 Y762,1 Y762,2 Y762,3 Y762,4 Y762,5 Y762,6 Y763,0 Y763,1 Y763,2
 Y763,3 Y763,4 Y763,5 Y763,6 Y764,0 Y764,1 Y764,2 Y764,3 Y764,4 Y764,5 Y764,6 Y765,0 Y765,1 Y765,2 Y765,3
 Y765,4 Y765,5 Y765,6 Y766,0 Y766,1 Y766,2 Y766,3 Y766,4 Y766,5 Y766,6 Y767,0 Y767,1 Y767,2 Y767,3 Y767,4
 Y767,5 Y767,6 Y768,0 Y768,1 Y768,2 Y768,3 Y768,4 Y768,5 Y768,6 Y769,0 Y769,1 Y769,2 Y769,3 Y769,4 Y769,5
 Y769,6 Y770,0 Y770,1 Y770,2 Y770,3 Y770,4 Y770,5 Y770,6 Y771,0 Y771,1 Y771,2 Y771,3 Y771,4 Y771,5 Y771,6
 Y772,0 Y772,1 Y772,2 Y772,3 Y772,4 Y772,5 Y772,6 Y773,0 Y773,1 Y773,2 Y773,3 Y773,4 Y773,5 Y773,6 Y774,0
 Y774,1 Y774,2 Y774,3 Y774,4 Y774,5 Y774,6 Y775,0 Y775,1 Y775,2 Y775,3 Y775,4 Y775,5 Y775,6 Y776,0 Y776,1
 Y776,2 Y776,3 Y776,4 Y776,5 Y776,6 Y777,0 Y777,1 Y777,2 Y777,3 Y777,4 Y777,5 Y777,6 Y778,0 Y778,1 Y778,2
 Y778,3 Y778,4 Y778,5 Y778,6 Y779,0 Y779,1 Y779,2 Y779,3 Y779,4 Y779,5 Y779,6 Y780,0 Y780,1 Y780,2 Y780,3
 Y780,4 Y780,5 Y780,6 Y781,0 Y781,1 Y781,2 Y781,3 Y781,4 Y781,5 Y781,6 Y782,0 Y782,1 Y782,2 Y782,3 Y782,4
 Y782,5 Y782,6 Y783,0 Y783,1 Y783,2 Y783,3 Y783,4 Y783,5 Y783,6 Y784,0 Y784,1 Y784,2 Y784,3 Y784,4 Y784,5
 Y784,6 Y785,0 Y785,1 Y785,2 Y785,3 Y785,4 Y785,5 Y785,6 Y786,0 Y786,1 Y786,2 Y786,3 Y786,4 Y786,5 Y786,6
 Y787,0 Y787,1 Y787,2 Y787,3 Y787,4 Y787,5 Y787,6 Y788,0 Y788,1 Y788,2 Y788,3 Y788,4 Y788,5 Y788,6 Y789,0
 Y789,1 Y789,2 Y789,3 Y789,4 Y789,5 Y789,6 Y790,0 Y790,1 Y790,2 Y790,3 Y790,4 Y790,5 Y790,6 Y791,0 Y791,1
 Y791,2 Y791,3 Y791,4 Y791,5 Y791,6 Y792,0 Y792,1 Y792,2 Y792,3 Y792,4 Y792,5 Y792,6 Y793,0 Y793,1 Y793,2
 Y793,3 Y793,4 Y793,5 Y793,6 Y794,0 Y794,1 Y794,2 Y794,3 Y794,4 Y794,5 Y794,6 Y795,0 Y795,1 Y795,2 Y795,3
 Y795,4 Y795,5 Y795,6 Y796,0 Y796,1 Y796,2 Y796,3 Y796,4 Y796,5 Y796,6 Y797,0 Y797,1 Y797,2 Y797,3 Y797,4
 Y797,5 Y797,6 Y798,0 Y798,1 Y798,2 Y798,3 Y798,4 Y798,5 Y798,6 Y799,0 Y799,1 Y799,2 Y799,3 Y799,4 Y799,5
 Y799,6 Y800,0 Y800,1 Y800,2 Y800,3 Y800,4 Y800,5 Y800,6 Y801,0 Y801,1 Y801,2 Y801,3 Y801,4 Y801,5 Y801,6
 Y802,0 Y802,1 Y802,2 Y802,3 Y802,4 Y802,5 Y802,6 Y803,0 Y803,1 Y803,2 Y803,3 Y803,4 Y803,5 Y803,6 Y804,0
 Y804,1 Y804,2 Y804,3 Y804,4 Y804,5 Y804,6 Y805,0 Y805,1 Y805,2 Y805,3 Y805,4 Y805,5 Y805,6 Y806,0 Y806,1
 Y806,2 Y806,3 Y806,4 Y806,5 Y806,6 Y807,0 Y807,1 Y807,2 Y807,3 Y807,4 Y807,5 Y807,6 Y808,0 Y808,1 Y808,2
 Y808,3 Y808,4 Y808,5 Y808,6 Y809,0 Y809,1 Y809,2 Y809,3 Y809,4 Y809,5 Y809,6 Y810,0 Y810,1 Y810,2 Y810,3
 Y810,4 Y810,5 Y810,6 Y811,0 Y811,1 Y811,2 Y811,3 Y811,4 Y811,5 Y811,6 Y812,0 Y812,1 Y812,2 Y812,3 Y812,4
 Y812,5 Y812,6 Y813,0 Y813,1 Y813,2 Y813,3 Y813,4 Y813,5 Y813,6 Y814,0 Y814,1 Y814,2 Y814,3 Y814,4 Y814,5
 Y814,6 Y815,0 Y815,1 Y815,2 Y815,3 Y815,4 Y815,5 Y815,6 Y816,0 Y816,1 Y816,2 Y816,3 Y816,4 Y816,5 Y816,6
 Y817,0 Y817,1 Y817,2 Y817,3 Y817,4 Y817,5 Y817,6 Y818,0 Y818,1 Y818,2 Y818,3 Y818,4 Y818,5 Y818,6 Y819,0
 Y819,1 Y819,2 Y819,3 Y819,4 Y819,5 Y819,6 Y820,0 Y820,1 Y820,2 Y820,3 Y820,4 Y820,5 Y820,6 Y821,0 Y821,1
 Y821,2 Y821,3 Y821,4 Y821,5 Y821,6 Y822,0 Y822,1 Y822,2 Y822,3 Y822,4 Y822,5 Y822,6 Y823,0 Y823,1 Y823,2
 Y823,3 Y823,4 Y823,5 Y823,6 Y824,0 Y824,1 Y824,2 Y824,3 Y824,4 Y824,5 Y824,6 Y825,0 Y825,1 Y825,2 Y825,3
 Y825,4 Y825,5 Y825,6 Y826,0 Y826,1 Y826,2 Y826,3 Y826,4 Y826,5 Y826,6 Y827,0 Y827,1 Y827,2 Y827,3 Y827,4
 Y827,5 Y827,6 Y828,0 Y828,1 Y828,2 Y828,3 Y828,4 Y828,5 Y828,6 Y829,0 Y829,1 Y829,2 Y829,3 Y829,4 Y829,5
 Y829,6 Y830,0 Y830,1 Y830,2 Y830,3 Y830,4 Y830,5 Y830,6 Y831,0 Y831,1 Y831,2 Y831,3 Y831,4 Y831,5 Y831,6
 Y832,0 Y832,1 Y832,2 Y832,3 Y832,4 Y832,5 Y832,6 Y833,0 Y833,1 Y833,2 Y833,3 Y833,4 Y833,5 Y833,6 Y834,0
 Y834,1 Y834,2 Y834,3 Y834,4 Y834,5 Y834,6 Y835,0 Y835,1 Y835,2 Y835,3 Y835,4 Y835,5 Y835,6 Y836,0 Y836,1
 Y836,2 Y836,3 Y836,4 Y836,5 Y836,6 Y837,0 Y837,1 Y837,2 Y837,3 Y837,4 Y837,5 Y837,6 Y838,0 Y838,1 Y838,2
 Y838,3 Y838,4 Y838,5 Y838,6 Y839,0 Y839,1 Y839,2 Y839,3 Y839,4 Y839,5 Y839,6 Y840,0 Y840,1 Y840,2 Y840,3
 Y840,4 Y840,5 Y840,6 Y841,0 Y841,1 Y841,2 Y841,3 Y841,4 Y841,5 Y841,6 Y842,0 Y842,1 Y842,2 Y842,3 Y842,4
 Y842,5 Y842,6 Y843,0 Y843,1 Y843,2 Y843,3 Y843,4 Y843,5 Y843,6 Y844,0 Y844,1 Y844,2 Y844,3 Y844,4 Y844,5
 Y844,6 Y845,0 Y845,1 Y845,2 Y845,3 Y845,4 Y845,5 Y845,6 Y846,0 Y846,1 Y846,2 Y846,3 Y846,4 Y846,5 Y846,6
 Y847,0 Y847,1 Y847,2 Y847,3 Y847,4 Y847,5 Y847,6 Y848,0 Y848,1 Y848,2 Y848,3 Y848,4 Y848,5 Y848,6 Y849,0
 Y849,1 Y849,2 Y849,3 Y849,4 Y849,5 Y849,6 Y850,0 Y850,1 Y850,2 Y850,3 Y850,4 Y850,5 Y850,6 Y851,0 Y851,1
 Y851,2 Y851,3 Y851,4 Y851,5 Y851,6 Y852,0 Y852,1 Y852,2 Y852,3 Y852,4 Y852,5 Y852,6 Y853,0 Y853,1 Y853,2
 Y853,3 Y853,4 Y853,5 Y853,6 Y854,0 Y854,1 Y854,2 Y854,3 Y854,4 Y854,5 Y854,6 Y855,0 Y855,1 Y855,2 Y855,3
 Y855,4 Y855,5 Y855,6 Y856,0 Y856,1 Y856,2 Y856,3 Y856,4 Y856,5 Y856,6 Y857,0 Y857,1 Y857,2 Y857,3 Y857,4
 Y857,5 Y857,6 Y858,0 Y858,1 Y858,2 Y858,3 Y858,4 Y858,5 Y858,6 Y859,0 Y859,1 Y859,2 Y859,3 Y859,4 Y859,5
 Y859,6 Y860,0 Y860,1 Y860,2 Y860,3 Y860,4 Y860,5 Y860,6 Y861,0 Y861,1 Y861,2 Y861,3 Y861,4 Y861,5 Y861,6
 Y862,0 Y862,1 Y862,2 Y862,3 Y862,4 Y862,5 Y862,6 Y863,0 Y863,1 Y863,2 Y863,3 Y863,4 Y863,5 Y863,6 Y864,0
 Y864,1 Y864,2 Y864,3 Y864,4 Y864,5 Y864,6 Y865,0 Y865,1 Y865,2 Y865,3 Y865,4 Y865,5 Y865,6 Y866,0 Y866,1
 Y866,2 Y866,3 Y866,4 Y866,5 Y866,6 Y867,0 Y867,1 Y867,2 Y867,3 Y867,4 Y867,5 Y867,6 Y868,0 Y868,1 Y868,2
 Y868,3 Y868,4 Y868,5 Y868,6 Y869,0 Y869,1 Y869,2 Y869,3 Y869,4 Y869,5 Y869,6 Y870,0 Y870,1 Y870,2 Y870,3
 Y870,4 Y870,5 Y870,6 Y871,0 Y871,1 Y871,2 Y871,3 Y871,4 Y871,5 Y871,6 Y872,0 Y872,1 Y872,2 Y872,3 Y872,4
 Y872,5 Y872,6 Y873,0 Y873,1 Y873,2 Y873,3 Y873,4 Y873,5 Y873,6 Y874,0 Y874,1 Y874,2 Y874,3 Y874,4 Y874,5
 Y874,6 Y875,0 Y875,1 Y875,2 Y875,3 Y875,4 Y875,5 Y875,6 Y876,0 Y876,1 Y876,2 Y876,3 Y876,4 Y876,5 Y876,6
 Y877,0 Y877,1 Y877,2 Y877,3 Y877,4 Y877,5 Y877,6 Y878,0 Y878,1 Y878,2 Y878,3 Y878,4 Y878,5 Y878,6 Y879,0
 Y879,1 Y879,2 Y879,3 Y879,4 Y879,5 Y879,6 Y880,0 Y880,1 Y880,2 Y880,3 Y880,4 Y880,5 Y880,6 Y881,0 Y881,1
 Y881,2 Y881,3 Y881,4 Y881,5 Y881,6 Y882,0 Y882,1 Y882,2 Y882,3 Y882,4 Y882,5 Y882,6 Y883,0 Y883,1 Y883,2
 Y883,3 Y883,4 Y883,5 Y883,6 Y884,0 Y884,1 Y884,2 Y884,3 Y884,4 Y884,5 Y884,6 Y885,0 Y885,1 Y885,2 Y885,3
 Y885,4 Y885,5 Y885,6 Y886,0 Y886,1 Y886,2 Y886,3 Y886,4 Y886,5 Y886,6 Y887,0 Y887,1 Y887,2 Y887,3 Y887,4
 Y887,5 Y887,6 Y888,0 Y888,1 Y888,2 Y888,3 Y888,4 Y888,5 Y888,6
End
