\ SCIP STATISTICS
\   Problem name     : Scheduling
\   Variables        : 156 (155 binary, 0 integer, 0 implicit integer, 1 continuous)
\   Constraints      : 133
Minimize
 Obj: +1 Cmax
Subject to
 c1: +1 X0 +1 X5 +1 X6 +1 X7 +1 X8 +1 X15 +1 X16 +1 X17 +1 X18 +1 X19 +1 X20 +1 X25 +1 X26 +1 X27 +1 X28
  +1 X30 = +1
 c2: +1 X1 +1 X5 +1 X9 +1 X10 +1 X11 +1 X15 +1 X16 +1 X17 +1 X21 +1 X22 +1 X23 +1 X25 +1 X26 +1 X27 +1 X29
  +1 X30 = +1
 c3: +1 X2 +1 X6 +1 X9 +1 X12 +1 X13 +1 X15 +1 X18 +1 X19 +1 X21 +1 X22 +1 X24 +1 X25 +1 X26 +1 X28 +1 X29
  +1 X30 = +1
 c4: +1 X3 +1 X7 +1 X10 +1 X12 +1 X14 +1 X16 +1 X18 +1 X20 +1 X21 +1 X23 +1 X24 +1 X25 +1 X27 +1 X28 +1 X29
  +1 X30 = +1
 c5: +1 X4 +1 X8 +1 X11 +1 X13 +1 X14 +1 X17 +1 X19 +1 X20 +1 X22 +1 X23 +1 X24 +1 X26 +1 X27 +1 X28 +1 X29
  +1 X30 = +1
 c6: +1 Cmax -45 Y0,0 -45 Y1,0 -45 Y2,0 -45 Y3,0 -45 Y4,0 -45 Y5,0 -45 Y6,0 -45 Y7,0 -45 Y8,0 -45 Y9,0
  -45 Y10,0 -45 Y11,0 -45 Y12,0 -45 Y13,0 -45 Y14,0 -45 Y15,0 -45 Y16,0 -45 Y17,0 -45 Y18,0 -45 Y19,0
  -45 Y20,0 -45 Y21,0 -45 Y22,0 -45 Y23,0 -45 Y24,0 -45 Y25,0 -45 Y26,0 -45 Y27,0 -45 Y28,0 -45 Y29,0
  -45 Y30,0 >= +0
 c7: +1 Cmax -45 Y0,1 -45 Y1,1 -45 Y2,1 -45 Y3,1 -45 Y4,1 -45 Y5,1 -45 Y6,1 -45 Y7,1 -45 Y8,1 -45 Y9,1
  -45 Y10,1 -45 Y11,1 -45 Y12,1 -45 Y13,1 -45 Y14,1 -45 Y15,1 -45 Y16,1 -45 Y17,1 -45 Y18,1 -45 Y19,1
  -45 Y20,1 -45 Y21,1 -45 Y22,1 -45 Y23,1 -45 Y24,1 -45 Y25,1 -45 Y26,1 -45 Y27,1 -45 Y28,1 -45 Y29,1
  -45 Y30,1 >= +0
 c8: +1 Cmax -45 Y0,2 -45 Y1,2 -45 Y2,2 -45 Y3,2 -45 Y4,2 -45 Y5,2 -45 Y6,2 -45 Y7,2 -45 Y8,2 -45 Y9,2
  -45 Y10,2 -45 Y11,2 -45 Y12,2 -45 Y13,2 -45 Y14,2 -45 Y15,2 -45 Y16,2 -45 Y17,2 -45 Y18,2 -45 Y19,2
  -45 Y20,2 -45 Y21,2 -45 Y22,2 -45 Y23,2 -45 Y24,2 -45 Y25,2 -45 Y26,2 -45 Y27,2 -45 Y28,2 -45 Y29,2
  -45 Y30,2 >= +0
 c9: +1 Cmax -45 Y0,3 -45 Y1,3 -45 Y2,3 -45 Y3,3 -45 Y4,3 -45 Y5,3 -45 Y6,3 -45 Y7,3 -45 Y8,3 -45 Y9,3
  -45 Y10,3 -45 Y11,3 -45 Y12,3 -45 Y13,3 -45 Y14,3 -45 Y15,3 -45 Y16,3 -45 Y17,3 -45 Y18,3 -45 Y19,3
  -45 Y20,3 -45 Y21,3 -45 Y22,3 -45 Y23,3 -45 Y24,3 -45 Y25,3 -45 Y26,3 -45 Y27,3 -45 Y28,3 -45 Y29,3
  -45 Y30,3 >= +0
 c10: +2.5 Y0,0 <= +30
 c11: +2.5 Y0,1 <= +25
 c12: +2.5 Y0,2 <= +20
 c13: +2.5 Y0,3 <= +50
 c14: +7 Y1,0 <= +30
 c15: +7 Y1,1 <= +25
 c16: +7 Y1,2 <= +20
 c17: +7 Y1,3 <= +50
 c18: +1.2 Y2,0 <= +30
 c19: +1.2 Y2,1 <= +25
 c20: +1.2 Y2,2 <= +20
 c21: +1.2 Y2,3 <= +50
 c22: +10 Y3,0 <= +30
 c23: +10 Y3,1 <= +25
 c24: +10 Y3,2 <= +20
 c25: +10 Y3,3 <= +50
 c26: +4.5 Y4,0 <= +30
 c27: +4.5 Y4,1 <= +25
 c28: +4.5 Y4,2 <= +20
 c29: +4.5 Y4,3 <= +50
 c30: +9.5 Y5,0 <= +30
 c31: +9.5 Y5,1 <= +25
 c32: +9.5 Y5,2 <= +20
 c33: +9.5 Y5,3 <= +50
 c34: +3.7 Y6,0 <= +30
 c35: +3.7 Y6,1 <= +25
 c36: +3.7 Y6,2 <= +20
 c37: +3.7 Y6,3 <= +50
 c38: +12.5 Y7,0 <= +30
 c39: +12.5 Y7,1 <= +25
 c40: +12.5 Y7,2 <= +20
 c41: +12.5 Y7,3 <= +50
 c42: +7 Y8,0 <= +30
 c43: +7 Y8,1 <= +25
 c44: +7 Y8,2 <= +20
 c45: +7 Y8,3 <= +50
 c46: +8.2 Y9,0 <= +30
 c47: +8.2 Y9,1 <= +25
 c48: +8.2 Y9,2 <= +20
 c49: +8.2 Y9,3 <= +50
 c50: +17 Y10,0 <= +30
 c51: +17 Y10,1 <= +25
 c52: +17 Y10,2 <= +20
 c53: +17 Y10,3 <= +50
 c54: +11.5 Y11,0 <= +30
 c55: +11.5 Y11,1 <= +25
 c56: +11.5 Y11,2 <= +20
 c57: +11.5 Y11,3 <= +50
 c58: +11.2 Y12,0 <= +30
 c59: +11.2 Y12,1 <= +25
 c60: +11.2 Y12,2 <= +20
 c61: +11.2 Y12,3 <= +50
 c62: +5.7 Y13,0 <= +30
 c63: +5.7 Y13,1 <= +25
 c64: +5.7 Y13,2 <= +20
 c65: +5.7 Y13,3 <= +50
 c66: +14.5 Y14,0 <= +30
 c67: +14.5 Y14,1 <= +25
 c68: +14.5 Y14,2 <= +20
 c69: +14.5 Y14,3 <= +50
 c70: +10.7 Y15,0 <= +30
 c71: +10.7 Y15,1 <= +25
 c72: +10.7 Y15,2 <= +20
 c73: +10.7 Y15,3 <= +50
 c74: +19.5 Y16,0 <= +30
 c75: +19.5 Y16,1 <= +25
 c76: +19.5 Y16,2 <= +20
 c77: +19.5 Y16,3 <= +50
 c78: +14 Y17,0 <= +30
 c79: +14 Y17,1 <= +25
 c80: +14 Y17,2 <= +20
 c81: +14 Y17,3 <= +50
 c82: +13.7 Y18,0 <= +30
 c83: +13.7 Y18,1 <= +25
 c84: +13.7 Y18,2 <= +20
 c85: +13.7 Y18,3 <= +50
 c86: +8.2 Y19,0 <= +30
 c87: +8.2 Y19,1 <= +25
 c88: +8.2 Y19,2 <= +20
 c89: +8.2 Y19,3 <= +50
 c90: +17 Y20,0 <= +30
 c91: +17 Y20,1 <= +25
 c92: +17 Y20,2 <= +20
 c93: +17 Y20,3 <= +50
 c94: +18.2 Y21,0 <= +30
 c95: +18.2 Y21,1 <= +25
 c96: +18.2 Y21,2 <= +20
 c97: +18.2 Y21,3 <= +50
 c98: +12.7 Y22,0 <= +30
 c99: +12.7 Y22,1 <= +25
 c100: +12.7 Y22,2 <= +20
 c101: +12.7 Y22,3 <= +50
 c102: +21.5 Y23,0 <= +30
 c103: +21.5 Y23,1 <= +25
 c104: +21.5 Y23,2 <= +20
 c105: +21.5 Y23,3 <= +50
 c106: +15.7 Y24,0 <= +30
 c107: +15.7 Y24,1 <= +25
 c108: +15.7 Y24,2 <= +20
 c109: +15.7 Y24,3 <= +50
 c110: +20.7 Y25,0 <= +30
 c111: +20.7 Y25,1 <= +25
 c112: +20.7 Y25,2 <= +20
 c113: +20.7 Y25,3 <= +50
 c114: +15.2 Y26,0 <= +30
 c115: +15.2 Y26,1 <= +25
 c116: +15.2 Y26,2 <= +20
 c117: +15.2 Y26,3 <= +50
 c118: +24 Y27,0 <= +30
 c119: +24 Y27,1 <= +25
 c120: +24 Y27,2 <= +20
 c121: +24 Y27,3 <= +50
 c122: +18.2 Y28,0 <= +30
 c123: +18.2 Y28,1 <= +25
 c124: +18.2 Y28,2 <= +20
 c125: +18.2 Y28,3 <= +50
 c126: +22.7 Y29,0 <= +30
 c127: +22.7 Y29,1 <= +25
 c128: +22.7 Y29,2 <= +20
 c129: +22.7 Y29,3 <= +50
 c130: +25.2 Y30,0 <= +30
 c131: +25.2 Y30,1 <= +25
 c132: +25.2 Y30,2 <= +20
 c133: +25.2 Y30,3 <= +50
Bounds
 0 <= Y0,0 <= 1
 0 <= Y0,1 <= 1
 0 <= Y0,2 <= 1
 0 <= Y0,3 <= 1
 0 <= Y1,0 <= 1
 0 <= Y1,1 <= 1
 0 <= Y1,2 <= 1
 0 <= Y1,3 <= 1
 0 <= Y2,0 <= 1
 0 <= Y2,1 <= 1
 0 <= Y2,2 <= 1
 0 <= Y2,3 <= 1
 0 <= Y3,0 <= 1
 0 <= Y3,1 <= 1
 0 <= Y3,2 <= 1
 0 <= Y3,3 <= 1
 0 <= Y4,0 <= 1
 0 <= Y4,1 <= 1
 0 <= Y4,2 <= 1
 0 <= Y4,3 <= 1
 0 <= Y5,0 <= 1
 0 <= Y5,1 <= 1
 0 <= Y5,2 <= 1
 0 <= Y5,3 <= 1
 0 <= Y6,0 <= 1
 0 <= Y6,1 <= 1
 0 <= Y6,2 <= 1
 0 <= Y6,3 <= 1
 0 <= Y7,0 <= 1
 0 <= Y7,1 <= 1
 0 <= Y7,2 <= 1
 0 <= Y7,3 <= 1
 0 <= Y8,0 <= 1
 0 <= Y8,1 <= 1
 0 <= Y8,2 <= 1
 0 <= Y8,3 <= 1
 0 <= Y9,0 <= 1
 0 <= Y9,1 <= 1
 0 <= Y9,2 <= 1
 0 <= Y9,3 <= 1
 0 <= Y10,0 <= 1
 0 <= Y10,1 <= 1
 0 <= Y10,2 <= 1
 0 <= Y10,3 <= 1
 0 <= Y11,0 <= 1
 0 <= Y11,1 <= 1
 0 <= Y11,2 <= 1
 0 <= Y11,3 <= 1
 0 <= Y12,0 <= 1
 0 <= Y12,1 <= 1
 0 <= Y12,2 <= 1
 0 <= Y12,3 <= 1
 0 <= Y13,0 <= 1
 0 <= Y13,1 <= 1
 0 <= Y13,2 <= 1
 0 <= Y13,3 <= 1
 0 <= Y14,0 <= 1
 0 <= Y14,1 <= 1
 0 <= Y14,2 <= 1
 0 <= Y14,3 <= 1
 0 <= Y15,0 <= 1
 0 <= Y15,1 <= 1
 0 <= Y15,2 <= 1
 0 <= Y15,3 <= 1
 0 <= Y16,0 <= 1
 0 <= Y16,1 <= 1
 0 <= Y16,2 <= 1
 0 <= Y16,3 <= 1
 0 <= Y17,0 <= 1
 0 <= Y17,1 <= 1
 0 <= Y17,2 <= 1
 0 <= Y17,3 <= 1
 0 <= Y18,0 <= 1
 0 <= Y18,1 <= 1
 0 <= Y18,2 <= 1
 0 <= Y18,3 <= 1
 0 <= Y19,0 <= 1
 0 <= Y19,1 <= 1
 0 <= Y19,2 <= 1
 0 <= Y19,3 <= 1
 0 <= Y20,0 <= 1
 0 <= Y20,1 <= 1
 0 <= Y20,2 <= 1
 0 <= Y20,3 <= 1
 0 <= Y21,0 <= 1
 0 <= Y21,1 <= 1
 0 <= Y21,2 <= 1
 0 <= Y21,3 <= 1
 0 <= Y22,0 <= 1
 0 <= Y22,1 <= 1
 0 <= Y22,2 <= 1
 0 <= Y22,3 <= 1
 0 <= Y23,0 <= 1
 0 <= Y23,1 <= 1
 0 <= Y23,2 <= 1
 0 <= Y23,3 <= 1
 0 <= Y24,0 <= 1
 0 <= Y24,1 <= 1
 0 <= Y24,2 <= 1
 0 <= Y24,3 <= 1
 0 <= Y25,0 <= 1
 0 <= Y25,1 <= 1
 0 <= Y25,2 <= 1
 0 <= Y25,3 <= 1
 0 <= Y26,0 <= 1
 0 <= Y26,1 <= 1
 0 <= Y26,2 <= 1
 0 <= Y26,3 <= 1
 0 <= Y27,0 <= 1
 0 <= Y27,1 <= 1
 0 <= Y27,2 <= 1
 0 <= Y27,3 <= 1
 0 <= Y28,0 <= 1
 0 <= Y28,1 <= 1
 0 <= Y28,2 <= 1
 0 <= Y28,3 <= 1
 0 <= Y29,0 <= 1
 0 <= Y29,1 <= 1
 0 <= Y29,2 <= 1
 0 <= Y29,3 <= 1
 0 <= Y30,0 <= 1
 0 <= Y30,1 <= 1
 0 <= Y30,2 <= 1
 0 <= Y30,3 <= 1
 0 <= X0 <= 1
 0 <= X1 <= 1
 0 <= X2 <= 1
 0 <= X3 <= 1
 0 <= X4 <= 1
 0 <= X5 <= 1
 0 <= X6 <= 1
 0 <= X7 <= 1
 0 <= X8 <= 1
 0 <= X9 <= 1
 0 <= X10 <= 1
 0 <= X11 <= 1
 0 <= X12 <= 1
 0 <= X13 <= 1
 0 <= X14 <= 1
 0 <= X15 <= 1
 0 <= X16 <= 1
 0 <= X17 <= 1
 0 <= X18 <= 1
 0 <= X19 <= 1
 0 <= X20 <= 1
 0 <= X21 <= 1
 0 <= X22 <= 1
 0 <= X23 <= 1
 0 <= X24 <= 1
 0 <= X25 <= 1
 0 <= X26 <= 1
 0 <= X27 <= 1
 0 <= X28 <= 1
 0 <= X29 <= 1
 0 <= X30 <= 1
Binaries
 Y0,0 Y0,1 Y0,2 Y0,3 Y1,0 Y1,1 Y1,2 Y1,3 Y2,0 Y2,1 Y2,2 Y2,3 Y3,0 Y3,1 Y3,2 Y3,3 Y4,0 Y4,1 Y4,2 Y4,3 Y5,0
 Y5,1 Y5,2 Y5,3 Y6,0 Y6,1 Y6,2 Y6,3 Y7,0 Y7,1 Y7,2 Y7,3 Y8,0 Y8,1 Y8,2 Y8,3 Y9,0 Y9,1 Y9,2 Y9,3 Y10,0
 Y10,1 Y10,2 Y10,3 Y11,0 Y11,1 Y11,2 Y11,3 Y12,0 Y12,1 Y12,2 Y12,3 Y13,0 Y13,1 Y13,2 Y13,3 Y14,0 Y14,1
 Y14,2 Y14,3 Y15,0 Y15,1 Y15,2 Y15,3 Y16,0 Y16,1 Y16,2 Y16,3 Y17,0 Y17,1 Y17,2 Y17,3 Y18,0 Y18,1 Y18,2
 Y18,3 Y19,0 Y19,1 Y19,2 Y19,3 Y20,0 Y20,1 Y20,2 Y20,3 Y21,0 Y21,1 Y21,2 Y21,3 Y22,0 Y22,1 Y22,2 Y22,3
 Y23,0 Y23,1 Y23,2 Y23,3 Y24,0 Y24,1 Y24,2 Y24,3 Y25,0 Y25,1 Y25,2 Y25,3 Y26,0 Y26,1 Y26,2 Y26,3 Y27,0
 Y27,1 Y27,2 Y27,3 Y28,0 Y28,1 Y28,2 Y28,3 Y29,0 Y29,1 Y29,2 Y29,3 Y30,0 Y30,1 Y30,2 Y30,3 X0 X1 X2 X3
 X4 X5 X6 X7 X8 X9 X10 X11 X12 X13 X14 X15 X16 X17 X18 X19 X20 X21 X22 X23 X24 X25 X26 X27 X28 X29 X30
End
